! synthetic lab measurement T=105C
! synthetic measurement, noise -85.0 dB
# Hz S RI R 50
1000000.0000000000 7.759392212239366e-02 4.420482844978048e-02 2.788227207134850e-02 5.999569162264565e-02 8.568701663146655e-01 -3.928054968942921e-01 -9.188431946257878e-03 -1.068273600040648e-02
            2.796589541432482e-02 6.002641656403169e-02 7.750419505489139e-02 4.417294751955900e-02 -9.246177210888025e-03 -1.073358288906972e-02 8.568443187743894e-01 -3.928091020548917e-01
            8.568191372942546e-01 -3.928910892448038e-01 -9.033721206471246e-03 -1.062850176645368e-02 7.750390069720418e-02 4.420172183159665e-02 2.796925291685168e-02 5.998663475779411e-02
            -9.177040401339421e-03 -1.066262527222794e-02 8.568269773407134e-01 -3.928616526762021e-01 2.794131824690015e-02 6.008903101230250e-02 7.747938299408201e-02 4.414750456741250e-02
1832500.0000000000 1.258681044166918e-01 4.508394697314936e-02 7.763010456058439e-02 7.785135120394437e-02 6.569611244374577e-01 -6.523535306488756e-01 -2.044339215923352e-02 -6.333070611135979e-03
            7.764055494171250e-02 7.782856682456767e-02 1.259104078674179e-01 4.508163030894306e-02 -2.041377199667896e-02 -6.236723891686407e-03 6.569029508831347e-01 -6.523683181272920e-01
            6.569157702401447e-01 -6.523551036276634e-01 -2.041395412922139e-02 -6.280818405519570e-03 1.258843145148630e-01 4.503742669798908e-02 7.762810586987069e-02 7.789406815792300e-02
            -2.044513207440467e-02 -6.246085456422358e-03 6.569628960977799e-01 -6.523584512715532e-01 7.760357814533052e-02 7.787485106809955e-02 1.257957687432148e-01 4.512433453952486e-02
2665000.0000000000 1.620111247775892e-01 1.480203928568818e-02 1.249213381756397e-01 6.050942463960451e-02 3.906497824145311e-01 -8.248005994516636e-01 -2.346844897095167e-02 5.353129122658240e-03
            1.247858036716825e-01 6.048195639255248e-02 1.620166426780515e-01 1.478398669099180e-02 -2.353325355925591e-02 5.328198992016892e-03 3.905797931608503e-01 -8.247806312458184e-01
            3.906571358477981e-01 -8.248618864856668e-01 -2.346723854780613e-02 5.413485464202233e-03 1.619145350218166e-01 1.492714064217711e-02 1.248555937310431e-01 6.050939508009803e-02
            -2.349405587411171e-02 5.332630253969625e-03 3.906440459672526e-01 -8.248399422743466e-01 1.249542869877803e-01 6.049729624877382e-02 1.619619401334905e-01 1.495759019663639e-02
3497500.0000000000 1.705343263872045e-01 -3.197887265841788e-02 1.498887923253106e-01 1.886436089304342e-02 8.926614900892943e-02 -9.004398690428663e-01 -1.766834217897528e-02 1.382213781813435e-02
            1.498678140817797e-01 1.874162416503155e-02 1.705497833793305e-01 -3.201517275376554e-02 -1.764006749477557e-02 1.386087860210413e-02 8.924319409479867e-02 -9.004743715562710e-01
            8.928343330187236e-02 -9.005037825224302e-01 -1.773069119355498e-02 1.388196150850019e-02 1.705475249507364e-01 -3.187496180402116e-02 1.498651251499616e-01 1.879427361745113e-02
            -1.769669189329842e-02 1.386043192031614e-02 8.927676096473687e-02 -9.005001101096080e-01 1.498072505981181e-01 1.871152986864097e-02 1.705501929358959e-01 -3.186496818588547e-02
4330000.0000000000 1.473451544167901e-01 -7.561344887233347e-02 1.429670918709763e-01 -2.870908576228072e-02 -2.189975916475578e-01 -8.757370670574733e-01 -1.070655269747737e-02 1.425569178916275e-02
            1.429176454822926e-01 -2.868368643476810e-02 1.474062362757757e-01 -7.557324457095989e-02 -1.073949205380236e-02 1.427519794114795e-02 -2.190500316453557e-01 -8.757733178155088e-01
            -2.189625575764580e-01 -8.757506754442256e-01 -1.079990267826540e-02 1.426249814886053e-02 1.475071876967942e-01 -7.537297652677832e-02 1.429633409215750e-01 -2.869334653604053e-02
            -1.069662923398474e-02 1.433150586462024e-02 -2.190266679866914e-01 -8.757008991791005e-01 1.429902272337485e-01 -2.874558124571191e-02 1.474247691429748e-01 -7.534572886340715e-02
5162500.0000000000 1.002752161089062e-01 -9.681193423261392e-02 1.071088198702035e-01 -6.102647584840089e-02 -5.055151604874690e-01 -7.504328895283929e-01 -1.089664138870747e-02 1.109718214853827e-02
            1.070927732149669e-01 -6.096322553594105e-02 1.001829220716674e-01 -9.684384084289917e-02 -1.097370799280089e-02 1.112904256222971e-02 -5.055769436316198e-01 -7.504094233329509e-01
            -5.054906459291152e-01 -7.504863163696986e-01 -1.099995749271644e-02 1.109224939215517e-02 1.003363268017677e-01 -9.659489219459443e-02 1.070687651222917e-01 -6.099879874758752e-02
            -1.093295592480996e-02 1.109447741243501e-02 -5.055222469242070e-01 -7.505460973434780e-01 1.070318704021465e-01 -6.093730518562445e-02 1.002912491096707e-01 -9.661051291546779e-02
5995000.0000000000 4.751192499795558e-02 -8.344141296269461e-02 5.799513041778170e-02 -6.157620332472680e-02 -7.367449766532030e-01 -5.307849880733888e-01 -1.765500755142620e-02 1.471218469688939e-02
            5.793426359838670e-02 -6.159008019999135e-02 4.752376053220358e-02 -8.342855578051443e-02 -1.767325845276986e-02 1.466839682850072e-02 -7.367425849352883e-01 -5.306638309814826e-01
            -7.368066699946386e-01 -5.307741009437237e-01 -1.765824473419474e-02 1.456458561539387e-02 4.771768153100611e-02 -8.327814349206002e-02 5.797141385711246e-02 -6.162723079723855e-02
            -1.765465016710040e-02 1.467066844598608e-02 -7.366736815637503e-01 -5.307230043438785e-01 5.800939977931228e-02 -6.158451273136510e-02 4.778160210380502e-02 -8.329252871545820e-02
6827500.0000000000 1.438554335092091e-02 -3.799880390980508e-02 2.081268522963612e-02 -2.838965504508777e-02 -8.765451453497582e-01 -2.381101871039559e-01 -2.001475954454357e-02 2.976130251803705e-02
            2.073559526930121e-02 -2.847109642731328e-02 1.451334345710190e-02 -3.798627468597515e-02 -1.999351540953298e-02 2.967331594449831e-02 -8.765727197813732e-01 -2.380616786575553e-01
            -8.765598553894277e-01 -2.380917970486596e-01 -2.006779987173533e-02 2.968717011022533e-02 1.468051147250790e-02 -3.789758955397205e-02 2.085068735449325e-02 -2.824704076496908e-02
            -1.995451124750815e-02 2.970953861742745e-02 -8.765287959679020e-01 -2.381234538428102e-01 2.085571869417363e-02 -2.836641827910531e-02 1.468496983615107e-02 -3.787655653443081e-02
7660000.0000000000 1.931298825044269e-02 1.831152464204604e-02 1.661264806844103e-02 2.124763849679779e-02 -8.988193008831468e-01 8.588659432522848e-02 -7.089586356247716e-03 4.787271703955464e-02
            1.657549307674444e-02 2.116687553776011e-02 1.921064888817280e-02 1.831607847281280e-02 -6.986892148631179e-03 4.786058770902474e-02 -8.988475692005898e-01 8.587378654862694e-02
            -8.988858529103594e-01 8.591978520368733e-02 -7.064725902884816e-03 4.787834665070566e-02 1.941977205402441e-02 1.828538893684261e-02 1.654660294837023e-02 2.116169047891657e-02
            -7.083737684257552e-03 4.789588043274626e-02 -8.988545821130564e-01 8.596990080202846e-02 1.667243973175665e-02 2.115530168538936e-02 1.939071292393388e-02 1.836179681967343e-02
8492500.0000000000 5.893592423221146e-02 5.643680949987853e-02 4.642638294433262e-02 5.941750702767841e-02 -8.029175026180273e-01 3.903497855481638e-01 1.930475287854966e-02 5.399148513090956e-02
            4.650678321917184e-02 5.940287147544293e-02 5.895839224078799e-02 5.651404973318959e-02 1.929710208601917e-02 5.410557023561198e-02 -8.028598086081123e-01 3.903759045555616e-01
            -8.028589044541443e-01 3.903601790710998e-01 1.922319220747559e-02 5.407548744680858e-02 5.901770769860294e-02 5.641762112600972e-02 4.646428318630765e-02 5.940728525822064e-02
            1.925273620775778e-02 5.410608434698552e-02 -8.028833623926491e-01 3.904785623164537e-01 4.642727925966254e-02 5.939418374412865e-02 5.902266309409066e-02 5.638501124318458e-02
9325000.0000000000 1.116094246493733e-01 5.908087129930867e-02 9.240761121775030e-02 6.770677215380148e-02 -6.114346899440603e-01 6.343975394635464e-01 4.516193072524287e-02 4.196040099145035e-02
            9.244941663424280e-02 6.772995765875807e-02 1.116429094949616e-01 5.902040561561241e-02 4.504644932602876e-02 4.206689402821169e-02 -6.113944997597974e-01 6.343183524841053e-01
            -6.114477488225204e-01 6.343061918974883e-01 4.513493022865225e-02 4.203475509694585e-02 1.116235738786086e-01 5.904601408154859e-02 9.245719120182540e-02 6.772754655026264e-02
            4.517090266465361e-02 4.204541138633554e-02 -6.114224039111015e-01 6.343321298206274e-01 9.247812310624590e-02 6.769212666877886e-02 1.115790111373275e-01 5.912090748629023e-02
10157500.0000000000 1.516815232358317e-01 2.856754539964259e-02 1.313929503780645e-01 4.516443599113669e-02 -3.565504765294883e-01 7.954909690957848e-01 5.873948178776536e-02 1.905698996256573e-02
            1.314016926053382e-01 4.507393900439945e-02 1.517736377438875e-01 2.862221022827634e-02 5.865249923289508e-02 1.915562658777708e-02 -3.565437849681792e-01 7.955208841617050e-01
            -3.565219095933312e-01 7.953970961068241e-01 5.868276587253633e-02 1.908497921319957e-02 1.516529339536830e-01 2.865405050716547e-02 1.313741049825387e-01 4.513980106657448e-02
            5.865288831545046e-02 1.912929204598719e-02 -3.564643067920932e-01 7.954993093615044e-01 1.313326553306247e-01 4.510136747284877e-02 1.517178912476453e-01 2.853003902123705e-02
10990000.0000000000 1.629795598058763e-01 -1.901325195628947e-02 1.469068546450257e-01 4.035574824781041e-03 -6.796279279152366e-02 8.644253275494395e-01 5.889184083150817e-02 -3.223962323722053e-03
            1.469508722656421e-01 4.003179029151135e-03 1.630461686732761e-01 -1.913577158481065e-02 5.894570057105390e-02 -3.215420526124035e-03 -6.790972340001304e-02 8.644506459172080e-01
            -6.786964775626179e-02 8.643242411413445e-01 5.894990403686614e-02 -3.240742945068836e-03 1.630000136543251e-01 -1.905900805624557e-02 1.469352874712456e-01 4.085517309485554e-03
            5.887521742969277e-02 -3.183233523873100e-03 -6.790433886766009e-02 8.644586311500709e-01 1.468763818089399e-01 4.036466548634837e-03 1.630182060319355e-01 -1.910990844152966e-02
11822500.0000000000 1.417882441884812e-01 -6.318346545500327e-02 1.332471521428048e-01 -3.763039387208485e-02 2.276167986835906e-01 8.369504366538967e-01 5.346507078952950e-02 -1.888075905474569e-02
            1.332165791054613e-01 -3.767678865782017e-02 1.417665366456774e-01 -6.306395469355366e-02 5.349060865571478e-02 -1.877010531847148e-02 2.276211583993721e-01 8.369852492965464e-01
            2.276141432964471e-01 8.369090274008085e-01 5.349029669286574e-02 -1.882632809366896e-02 1.417190034032784e-01 -6.321302383730330e-02 1.331887230614724e-01 -3.771451743494003e-02
            5.341277615435741e-02 -1.887243548068879e-02 2.276132373883127e-01 8.369364434194070e-01 1.331486047467352e-01 -3.769454601647639e-02 1.417966500059745e-01 -6.318603233655179e-02
12655000.0000000000 9.662230756143578e-02 -8.417760513093364e-02 9.522629990052059e-02 -6.139952044365086e-02 5.018092189375174e-01 7.119891929263118e-01 4.957313862935182e-02 -3.102996706618635e-02
            9.526225847013872e-02 -6.141304088774249e-02 9.659295119205161e-02 -8.417803547598574e-02 4.955980489674178e-02 -3.108411064065964e-02 5.017331705423923e-01 7.119513921852072e-01
            5.017928525266721e-01 7.120806332519496e-01 4.957226823750339e-02 -3.115641357854783e-02 9.643718241656354e-02 -8.426543485924408e-02 9.522761892220430e-02 -6.145603732842655e-02
            4.960264495674630e-02 -3.099234784631305e-02 5.018327009081669e-01 7.120403617166569e-01 9.523101495573796e-02 -6.145312098030734e-02 9.640675191546715e-02 -8.412670270322781e-02
13487500.0000000000 4.706962358003242e-02 -7.053378376164196e-02 4.989181525214732e-02 -5.436681485014126e-02 7.210289056619920e-01 4.958436064852071e-01 4.616711936877443e-02 -4.781039729161236e-02
            4.987413412888483e-02 -5.436425871026981e-02 4.704148007767955e-02 -7.057348742682232e-02 4.615654853583318e-02 -4.776368569202236e-02 7.210508560963202e-01 4.959220999655378e-01
            7.209524793921664e-01 4.958928303058177e-01 4.616390266978224e-02 -4.780734894781081e-02 4.674056445933703e-02 -7.062221473843247e-02 4.985241989039108e-02 -5.440874712046439e-02
            4.624952089825227e-02 -4.786849632529511e-02 7.209384325004274e-01 4.958611897013396e-01 4.988360758760369e-02 -5.430228557170040e-02 4.672650377823694e-02 -7.069638721099035e-02
14320000.0000000000 1.831937043214094e-02 -2.662584891799473e-02 2.047460219714265e-02 -1.786363147647477e-02 8.497434348708729e-01 2.108680960135583e-01 3.361461441586727e-02 -7.075882381622585e-02
            2.052274813441058e-02 -1.785321267050506e-02 1.825749150486036e-02 -2.653012875239097e-02 3.359043151494166e-02 -7.079044235297609e-02 8.496955646125544e-01 2.108366412213263e-01
            8.497123551814628e-01 2.108285700160895e-01 3.364939884967003e-02 -7.077771812761811e-02 1.769301450349243e-02 -2.663531228953205e-02 2.046075262697392e-02 -1.783051399279310e-02
            3.362057852247412e-02 -7.072059279438009e-02 8.497063916889557e-01 2.108582893502288e-01 2.045594578515829e-02 -1.779551070523541e-02 1.764094234264239e-02 -2.663508170993495e-02
15152500.0000000000 2.645690503628527e-02 2.554268202864073e-02 2.391963190305451e-02 2.885362323227301e-02 8.644288680024254e-01 -1.013209251348034e-01 4.382171395728936e-03 -8.970533755060682e-02
            2.389708653372598e-02 2.879018177224649e-02 2.650361323536649e-02 2.557286177917904e-02 4.387962678624488e-03 -8.972336862217352e-02 8.644158700600133e-01 -1.013078814228880e-01
            8.644141169688015e-01 -1.012986789150491e-01 4.444966867374086e-03 -8.971327914967249e-02 2.542559378390509e-02 2.572929153007985e-02 2.379936287475784e-02 2.887499584977127e-02
            4.443743999760139e-03 -8.967015392731717e-02 8.643871976256853e-01 -1.014394685402988e-01 2.384402257645074e-02 2.899244603045568e-02 2.551993306300336e-02 2.570042231680635e-02
15985000.0000000000 6.644823788117958e-02 5.813237814493978e-02 5.722950135198163e-02 6.019152572014658e-02 7.663680658708378e-01 -3.921460786217929e-01 -3.591240326873884e-02 -9.073412253335444e-02
            5.729402818735359e-02 6.018545890838201e-02 6.643452868103981e-02 5.801754535705324e-02 -3.581656746895515e-02 -9.065187571482848e-02 7.664258390498707e-01 -3.920369903561848e-01
            7.664686340180461e-01 -3.920608899610133e-01 -3.588816866336907e-02 -9.070104768872327e-02 6.531809185671271e-02 5.875226513598309e-02 5.717259432668230e-02 6.041205156660244e-02
            -3.588236491382403e-02 -9.070049936912364e-02 7.663833168735243e-01 -3.920640437377061e-01 5.714178715216291e-02 6.034307844924974e-02 6.542178193428262e-02 5.874517624596617e-02
16817500.0000000000 1.162280365500062e-01 5.619124500263997e-02 1.012888465135674e-01 6.152904787094417e-02 5.784565221739073e-01 -6.236138938396726e-01 -7.195851158141495e-02 -7.011390926617636e-02
            1.013374407819421e-01 6.157127692294031e-02 1.162910294502190e-01 5.619895694192136e-02 -7.193200778512923e-02 -7.003174016453351e-02 5.784850179398537e-01 -6.236807127416576e-01
            5.784388048077495e-01 -6.236678419668337e-01 -7.204449238238528e-02 -7.009451228871660e-02 1.152922557559811e-01 5.748514195877936e-02 1.014571974305613e-01 6.170345716286899e-02
            -7.198204055046811e-02 -7.007160023808198e-02 5.785054858937648e-01 -6.236778087007459e-01 1.014045347039842e-01 6.167057410753175e-02 1.153052455734000e-01 5.744132871790010e-02
17650000.0000000000 1.518942657904193e-01 2.384502470513590e-02 1.347458186553360e-01 3.498031920283015e-02 3.304446333295947e-01 -7.755494583072056e-01 -9.253554710847123e-02 -3.664283934765778e-02
            1.347396017541225e-01 3.500874614024818e-02 1.518689646269689e-01 2.387584127099952e-02 -9.251115348004492e-02 -3.668853166790100e-02 3.305227008395712e-01 -7.755169854543071e-01
            3.304917597032005e-01 -7.755095846466292e-01 -9.235715440873327e-02 -3.669528589536773e-02 1.513401432948887e-01 2.546160882889503e-02 1.348835991733500e-01 3.505859429963062e-02
            -9.244209403636970e-02 -3.669090047663619e-02 3.305102054037254e-01 -7.755494080997773e-01 1.348815118475676e-01 3.512815507484907e-02 1.513471517331683e-01 2.545205508392091e-02
18482500.0000000000 1.588609530477456e-01 -2.285764553385946e-02 1.435555962667208e-01 -5.861295672060593e-03 5.022280222591042e-02 -8.384538009334093e-01 -9.685036953250195e-02 -2.729842010267874e-03
            1.437362984270679e-01 -5.910745638898356e-03 1.588659495906323e-01 -2.282937502604525e-02 -9.687279994968558e-02 -2.661795559175541e-03 5.025279971480181e-02 -8.384692783256611e-01
            5.014846178608503e-02 -8.385314048218901e-01 -9.681773747458355e-02 -2.715840651206391e-03 1.588744474603022e-01 -2.101710975447303e-02 1.438752033192442e-01 -5.879348644379536e-03
            -9.682902946826370e-02 -2.738992213183867e-03 5.019530012100250e-02 -8.384388698963989e-01 1.439040142404314e-01 -5.841864203936997e-03 1.587847194754153e-01 -2.099237095071078e-02
19315000.0000000000 1.348497733828113e-01 -6.364148798093658e-02 1.247625785808683e-01 -4.355039525395570e-02 -2.365085352273125e-01 -8.074646780985335e-01 -9.202214808735203e-02 2.610428131182842e-02
            1.247032551510570e-01 -4.337476310044289e-02 1.348547456549313e-01 -6.366056666507862e-02 -9.202455901894907e-02 2.599172774506338e-02 -2.365897958257167e-01 -8.074508413086314e-01
            -2.365960203955499e-01 -8.074650817466766e-01 -9.196230716632442e-02 2.602743990162391e-02 1.353162204725434e-01 -6.175848584403500e-02 1.249235525663034e-01 -4.349023395664367e-02
            -9.211024766650210e-02 2.604073993687052e-02 -2.366366861832837e-01 -8.075428761002637e-01 1.249883121910277e-01 -4.348993525776684e-02 1.353152395685489e-01 -6.179655119446885e-02
20147500.0000000000 8.940166249837239e-02 -8.001517899560752e-02 8.530674547213150e-02 -6.048292576012948e-02 -5.012896826733730e-01 -6.808595771663754e-01 -8.394307592058715e-02 5.202014971737586e-02
            8.530797974512168e-02 -6.047046715494139e-02 8.945609588465385e-02 -8.001523510477440e-02 -8.393981070930243e-02 5.205758742604463e-02 -5.012827559015199e-01 -6.808916042249082e-01
            -5.013382464290885e-01 -6.808312069715496e-01 -8.388104406436482e-02 5.211787369233704e-02 9.045067798545414e-02 -7.855659259277267e-02 8.548830152677950e-02 -6.061074691400087e-02
            -8.397078412479558e-02 5.195494834479664e-02 -5.013224741373944e-01 -6.809994189959536e-01 8.552709807410579e-02 -6.060234389962741e-02 9.042368513310872e-02 -7.854147494744616e-02
20980000.0000000000 4.309317593542174e-02 -6.253907420623479e-02 4.333011658185322e-02 -4.706772250139546e-02 -7.098385146824433e-01 -4.658187296225410e-01 -7.067278298669670e-02 8.049992927218814e-02
            4.330452415589667e-02 -4.701872664603791e-02 4.297438301385050e-02 -6.255833446262507e-02 -7.069328242769077e-02 8.054406468023478e-02 -7.098606796387635e-01 -4.657629025629929e-01
            -7.098855789191857e-01 -4.657435340185352e-01 -7.068302895700286e-02 8.047269416796927e-02 4.427482291983995e-02 -6.157225726928379e-02 4.334225687834052e-02 -4.725421454048204e-02
            -7.074262737093202e-02 8.048577681506672e-02 -7.098379021160579e-01 -4.658524514156291e-01 4.336368432860675e-02 -4.723230021691160e-02 4.427399321441866e-02 -6.160789227748069e-02
21812500.0000000000 1.951804722815892e-02 -1.798853026814207e-02 2.075993294682625e-02 -8.086443190840247e-03 -8.279370754426969e-01 -1.861653409875842e-01 -4.379876628103768e-02 1.102330633105413e-01
            2.073721944632215e-02 -8.129413477699864e-03 1.962784816880210e-02 -1.804914532158539e-02 -4.376033130387322e-02 1.100885005375161e-01 -8.279554404316416e-01 -1.861940855406033e-01
            -8.279630734123796e-01 -1.861637363365475e-01 -4.377118111758936e-02 1.100982108437170e-01 2.076312932477210e-02 -1.755273701148038e-02 2.073821166009224e-02 -8.387411649696041e-03
            -4.384815048512071e-02 1.101727339889483e-01 -8.279348118390220e-01 -1.861467731734513e-01 2.071658742875226e-02 -8.332917325116512e-03 2.082201724386032e-02 -1.752555602838720e-02
22645000.0000000000 3.202294128063627e-02 3.069219146564494e-02 3.070607173113290e-02 3.570026800463254e-02 -8.349578440508348e-01 1.159790332611062e-01 6.992693249944032e-04 1.289652385300310e-01
            3.069601296560908e-02 3.574000797227845e-02 3.213390438636123e-02 3.073493426814251e-02 7.358642691690844e-04 1.289139606550418e-01 -8.350183291930555e-01 1.160715927779552e-01
            -8.350025143826348e-01 1.160114782732398e-01 7.534261513343594e-04 1.289603902143977e-01 3.301001165525435e-02 3.080759277421491e-02 3.053397970446641e-02 3.556091690932267e-02
            7.159686221544242e-04 1.289520496479304e-01 -8.349888979884941e-01 1.160260772059857e-01 3.057130527352201e-02 3.563987777103173e-02 3.291730859451607e-02 3.077358798654260e-02
23477500.0000000000 7.289439581124742e-02 5.783894579307924e-02 6.672428418532551e-02 6.071125026659358e-02 -7.345931996568430e-01 3.945821311163360e-01 5.373414547995817e-02 1.242463797929226e-01
            6.672277240637166e-02 6.078742395518427e-02 7.296643027134588e-02 5.780997358502804e-02 5.371486086618119e-02 1.243081777778779e-01 -7.345173254924642e-01 3.945844469459474e-01
            -7.346197293258645e-01 3.946154622676164e-01 5.377917869989900e-02 1.242150219809839e-01 7.334646907280205e-02 5.779247589815143e-02 6.649754230567864e-02 6.082786345781680e-02
            5.378302804404535e-02 1.242045054654237e-01 -7.345653585589383e-01 3.946307410945328e-01 6.651660355708060e-02 6.080116030868404e-02 7.339151936990465e-02 5.786513734720469e-02
24310000.0000000000 1.198287284016452e-01 5.166216530014875e-02 1.088548448002481e-01 5.593630459195491e-02 -5.492130679383558e-01 6.150609843775514e-01 9.899471255031488e-02 9.503859604639650e-02
            1.088285076685778e-01 5.598920733711282e-02 1.197914713091192e-01 5.158473509484381e-02 9.893199724698738e-02 9.496183319939747e-02 -5.491654190963633e-01 6.150651185486433e-01
            -5.491724777802808e-01 6.150909777907059e-01 9.900394962595645e-02 9.499331878171940e-02 1.199649224275880e-01 5.170293199230829e-02 1.087308645445451e-01 5.604606791730563e-02
            9.898668018058779e-02 9.493603176187049e-02 -5.492275827784967e-01 6.150605783368075e-01 1.087701298005386e-01 5.615859891306373e-02 1.199950649122994e-01 5.166473096980747e-02
25142500.0000000000 1.505986134740344e-01 1.786236615787397e-02 1.371366362971560e-01 2.615424117657217e-02 -3.068659010660220e-01 7.585726183330553e-01 1.255326134424709e-01 5.162473399438938e-02
            1.372428454190567e-01 2.615544776914409e-02 1.506224076069858e-01 1.776422901139366e-02 1.254642489604776e-01 5.161567551697059e-02 -3.069518830914392e-01 7.586121378468722e-01
            -3.068527479525304e-01 7.586794891616262e-01 1.254634100432546e-01 5.168982564209226e-02 1.506086625998991e-01 1.817563689453814e-02 1.371380229065528e-01 2.628598980397642e-02
            1.254014297903809e-01 5.161797281088805e-02 -3.068697025380122e-01 7.586533824303637e-01 1.371123063375782e-01 2.622285596996196e-02 1.506016580083701e-01 1.818365154220394e-02
25975000.0000000000 1.529374556966194e-01 -2.717890811820878e-02 1.401735477210944e-01 -1.421617104129215e-02 -3.345699482303037e-02 8.158839855387955e-01 1.331629582225798e-01 6.391457120875760e-03
            1.401555228199424e-01 -1.420038562576567e-02 1.529021759861950e-01 -2.721360904774376e-02 1.331707691911065e-01 6.359099575630365e-03 -3.341360508586497e-02 8.158815545737885e-01
            -3.340614107036421e-02 8.158947975015892e-01 1.332132511301393e-01 6.346082391026308e-03 1.529959772773065e-01 -2.668446370911268e-02 1.401834188201872e-01 -1.420221573909491e-02
            1.332892990025305e-01 6.335471425108648e-03 -3.334721639341159e-02 8.158857578945764e-01 1.401951202556466e-01 -1.415122799421392e-02 1.530059018872290e-01 -2.665053820162110e-02
26807500.0000000000 1.260589013235870e-01 -6.344725534854989e-02 1.167963081143046e-01 -4.756159046082346e-02 2.458505458755273e-01 7.809782136115244e-01 1.285686871037217e-01 -3.494130921401020e-02
            1.167711090765353e-01 -4.762937511255175e-02 1.260706312221979e-01 -6.355846890017258e-02 1.285382305023295e-01 -3.491435932229389e-02 2.459202010432811e-01 7.810237024330953e-01
            2.459123933717183e-01 7.809140261379699e-01 1.286013651097237e-01 -3.494408534156650e-02 1.261876632733474e-01 -6.296612496013629e-02 1.168127043494099e-01 -4.766646309041202e-02
            1.285468042211466e-01 -3.494785011322059e-02 2.458818093202870e-01 7.809162318172299e-01 1.168298654622026e-01 -4.761477894327495e-02 1.261803207634231e-01 -6.294979314631344e-02
27640000.0000000000 8.108998544352089e-02 -7.427693975555602e-02 7.659589362502423e-02 -5.837313150969546e-02 5.019173360269886e-01 6.519757399178304e-01 1.159178504919942e-01 -7.392968068433226e-02
            7.651148455277641e-02 -5.846512300426829e-02 8.110593018322705e-02 -7.431382449054408e-02 1.158693967205279e-01 -7.391857082728236e-02 5.019059223446580e-01 6.519298733170188e-01
            5.019318974725457e-01 6.519469640288942e-01 1.159380970764565e-01 -7.389210999762026e-02 8.132687469672255e-02 -7.381661941748771e-02 7.651611094027519e-02 -5.847231063891612e-02
            1.158819121834547e-01 -7.393956954420262e-02 5.019538168132991e-01 6.520031433380026e-01 7.659335100795131e-02 -5.849908553641468e-02 8.134155367271619e-02 -7.382336091599295e-02
28472500.0000000000 3.902750087868943e-02 -5.234904073252855e-02 3.815707303452089e-02 -3.944167650649993e-02 7.001616143803988e-01 4.371148587404984e-01 9.251631117289445e-02 -1.134235918886386e-01
            3.812876937204897e-02 -3.946744677407238e-02 3.903175976925547e-02 -5.241166322249831e-02 9.252743101386414e-02 -1.133654472260896e-01 7.001507292262096e-01 4.371684223685501e-01
            7.002438406805329e-01 4.371082428945696e-01 9.259600061342772e-02 -1.134457904074145e-01 3.920393173372867e-02 -5.202441746118195e-02 3.809666859381301e-02 -3.947081267563776e-02
            9.253932775787901e-02 -1.134665249690012e-01 7.002302985942984e-01 4.370548330326856e-01 3.802196786044352e-02 -3.961485622919313e-02 3.927853635268781e-02 -5.204668494757751e-02
29305000.0000000000 2.211703139686757e-02 -7.131510938573720e-03 2.233285887536563e-02 1.135802013708031e-03 8.076877808906134e-01 1.623701206677870e-01 5.129648497562127e-02 -1.487696923867348e-01
            2.227700387707972e-02 1.033809045880473e-03 2.217130962921058e-02 -7.090600357139259e-03 5.127764817345788e-02 -1.488481775151678e-01 8.076696547199597e-01 1.623759920764667e-01
            8.076653999297195e-01 1.623679290620143e-01 5.124376279049338e-02 -1.487499877527763e-01 2.219325362119339e-02 -6.930583149803811e-03 2.218079657613497e-02 9.530390804674603e-04
            5.131112752463915e-02 -1.487247825798947e-01 8.077308444650422e-01 1.623318764941300e-01 2.211974687569462e-02 9.892757698166995e-04 2.213862348714333e-02 -7.034473281427167e-03
30137500.0000000000 4.006936966401558e-02 3.752698871496708e-02 3.811587011126638e-02 4.137615400911897e-02 8.068575832286863e-01 -1.302229887336576e-01 -8.136842745235731e-03 -1.663804353391699e-01
            3.803564438208963e-02 4.134858724182270e-02 4.004296192296689e-02 3.750038508767471e-02 -8.023133524286944e-03 -1.664563530611930e-01 8.069374167329906e-01 -1.301905341056392e-01
            8.069702620306973e-01 -1.301738862747945e-01 -8.039546183021360e-03 -1.663210231309230e-01 3.978587964657719e-02 3.771692931761522e-02 3.797814684227697e-02 4.140117285934395e-02
            -7.985777311751818e-03 -1.663937117890149e-01 8.069618191989307e-01 -1.301139814588900e-01 3.792271073298448e-02 4.147260119226859e-02 3.979786474425957e-02 3.778962494886970e-02
30970000.0000000000 8.212197502168241e-02 5.843324868230055e-02 7.601856485297728e-02 6.014037596416361e-02 7.041391550403734e-01 -3.969749117190950e-01 -7.297810082297905e-02 -1.554048237502410e-01
            7.588020965495207e-02 6.019159808402761e-02 8.212206211084648e-02 5.845210971916341e-02 -7.293369485430994e-02 -1.553669558593968e-01 7.040787159993931e-01 -3.970266009806390e-01
            7.040798645368003e-01 -3.969898196892451e-01 -7.297985222718678e-02 -1.554198751237209e-01 8.173517940863913e-02 5.875902517194338e-02 7.595681636573522e-02 6.033814047393663e-02
            -7.299211674667799e-02 -1.554631644109907e-01 7.040803105181694e-01 -3.969468979275705e-01 7.589740213311399e-02 6.025480420238657e-02 8.179719616804244e-02 5.881235635457659e-02
31802500.0000000000 1.263267824435092e-01 4.724793526266796e-02 1.155735445990503e-01 4.985546775076001e-02 5.212081583708267e-01 -6.066820004047049e-01 -1.263443670171286e-01 -1.172208917384491e-01
            1.155544926412639e-01 4.981815114055534e-02 1.262992588273025e-01 4.722206468083977e-02 -1.262927619389532e-01 -1.172334270503783e-01 5.212245736214222e-01 -6.067064247239986e-01
            5.211647550815354e-01 -6.066750491495241e-01 -1.263333357946813e-01 -1.172556708816052e-01 1.258906685119652e-01 4.776280977779183e-02 1.155696490172024e-01 4.982605160056316e-02
            -1.262750988757787e-01 -1.172503482745514e-01 5.211431353531362e-01 -6.066687823038104e-01 1.156281044486459e-01 4.982305432082114e-02 1.259311703356685e-01 4.761028345288108e-02
32635000.0000000000 1.523458627003880e-01 1.124746740503991e-02 1.385534760915696e-01 1.740072724808191e-02 2.842392154731054e-01 -7.422262591944840e-01 -1.579197698112627e-01 -6.395309624534615e-02
            1.385362141515447e-01 1.735992399232293e-02 1.524022501980674e-01 1.129844289788235e-02 -1.578817448283807e-01 -6.397423449467730e-02 2.842429361119159e-01 -7.421689983420752e-01
            2.842490310111705e-01 -7.421686384859665e-01 -1.578512880279001e-01 -6.398869948491234e-02 1.521173693890672e-01 1.181116820507766e-02 1.386608045010703e-01 1.724697906335145e-02
            -1.579479269483136e-01 -6.389273073524568e-02 2.842232359292727e-01 -7.422460841289032e-01 1.386905031071851e-01 1.728591297512458e-02 1.519743734096090e-01 1.187237954106884e-02
33467500.0000000000 1.500235282214356e-01 -3.238655113435691e-02 1.359817089087382e-01 -2.197462645649530e-02 1.742880423560143e-02 -7.937955515178581e-01 -1.682286137391565e-01 -7.754445665133470e-03
            1.360416656212996e-01 -2.198785095138839e-02 1.499816646322412e-01 -3.237168510292985e-02 -1.682548293900802e-01 -7.746992226496743e-03 1.744346787531789e-02 -7.938651795693640e-01
            1.747816009775241e-02 -7.938317834337573e-01 -1.682359171611638e-01 -7.771010931352219e-03 1.498118179405871e-01 -3.210372568030916e-02 1.360456225708568e-01 -2.213842494350558e-02
            -1.682443835657013e-01 -7.723633416485748e-03 1.748294254239903e-02 -7.938597704774396e-01 1.360026457634942e-01 -2.219587320953268e-02 1.497976661047798e-01 -3.209674373689978e-02
34300000.0000000000 1.203823339163798e-01 -6.491752226053196e-02 1.088657748598943e-01 -5.097863119396583e-02 -2.544831541773121e-01 -7.550457849328739e-01 -1.628474505856466e-01 4.568628359995107e-02
            1.088902228203412e-01 -5.105708854295272e-02 1.204096237435186e-01 -6.492840304749663e-02 -1.628126222751753e-01 4.555815106455063e-02 -2.544515684072634e-01 -7.550871833309585e-01
            -2.544163264256658e-01 -7.549971690104517e-01 -1.628697053087647e-01 4.556337008013350e-02 1.199347341424637e-01 -6.497216484641828e-02 1.086745174226953e-01 -5.128544632691335e-02
            -1.628473189051137e-01 4.554405112643972e-02 -2.544619381620380e-01 -7.550953315490306e-01 1.086779485032293e-01 -5.128020946236478e-02 1.199737983938684e-01 -6.491744517039849e-02
35132500.0000000000 7.608347751479466e-02 -7.088237998264388e-02 6.845918755036304e-02 -5.591893216733214e-02 -5.017120968006054e-01 -6.237874553558787e-01 -1.449089668369720e-01 9.660011900193813e-02
            6.839185048183553e-02 -5.592885360985517e-02 7.607225713602433e-02 -7.085504993442060e-02 -1.450156776032306e-01 9.667512280268747e-02 -5.017661439244088e-01 -6.238074336616096e-01
            -5.018352457182343e-01 -6.238423023653038e-01 -1.449810770494432e-01 9.663168209797227e-02 7.511913655358893e-02 -7.121566426933744e-02 6.799815649487069e-02 -5.612905569290682e-02
            -1.449194694844939e-01 9.664877198856053e-02 -5.017865610306118e-01 -6.239050807554649e-01 6.795326697249802e-02 -5.623799666855522e-02 7.505736775836391e-02 -7.124336811543203e-02
35965000.0000000000 3.819999291659986e-02 -4.574120606485556e-02 3.393155540950459e-02 -3.220835905637336e-02 -6.898452682154509e-01 -4.097288532947497e-01 -1.111788244654118e-01 1.457740291823302e-01
            3.397266635271875e-02 -3.224716519753985e-02 3.826001502670264e-02 -4.569840265147696e-02 -1.112740761583740e-01 1.458286472134761e-01 -6.898925040295742e-01 -4.098266682940545e-01
            -6.898263604838999e-01 -4.097710257810327e-01 -1.112125653775333e-01 1.457998559016779e-01 3.617393948944053e-02 -4.611653897476261e-02 3.320194925877282e-02 -3.220315727714947e-02
            -1.113381738594415e-01 1.457280353486095e-01 -6.898873478185186e-01 -4.097834865736903e-01 3.323422533175431e-02 -3.221929694228667e-02 3.619257386586520e-02 -4.604871660393887e-02
36797500.0000000000 2.692073722669957e-02 -1.291806132661073e-03 2.420157992516947e-02 8.994853723808219e-03 -7.874089059614923e-01 -1.403226427085559e-01 -5.638558308921347e-02 1.854197888196030e-01
            2.428125573693354e-02 8.924066001387091e-03 2.695352368827498e-02 -1.392545401127406e-03 -5.646795747039945e-02 1.854035542160631e-01 -7.873534933206361e-01 -1.402916068887863e-01
            -7.874257971485166e-01 -1.403313723103950e-01 -5.642305374536824e-02 1.854242499435381e-01 2.389715984176876e-02 -1.058652923944818e-03 2.334985153671230e-02 9.573560319353846e-03
            -5.641985957179235e-02 1.854167348468939e-01 -7.874289883010824e-01 -1.403490972043644e-01 2.345067076528088e-02 9.463615003519842e-03 2.392158385035810e-02 -1.002143145153513e-03
37630000.0000000000 4.851691450193341e-02 3.847684610790316e-02 4.479074893683746e-02 4.552850151923714e-02 -7.799210638257770e-01 1.428250947903273e-01 1.642689679931077e-02 2.013195212859239e-01
            4.486945153823306e-02 4.558227759256679e-02 4.844719061081607e-02 3.848068262409136e-02 1.635256720881966e-02 2.012751809267442e-01 -7.798857503208544e-01 1.427892901926210e-01
            -7.798939207647632e-01 1.428095780576532e-01 1.641787712635900e-02 2.012798344715126e-01 4.453237386881132e-02 4.005642465746651e-02 4.437187306512252e-02 4.664103178307370e-02
            1.630340058193844e-02 2.013942737386224e-01 -7.799220587305368e-01 1.428548863825502e-01 4.438448212479815e-02 4.658991890920443e-02 4.459472293946213e-02 4.003323108718046e-02
38462500.0000000000 9.008952633905819e-02 5.314584855916210e-02 8.358462796669855e-02 5.857238791404706e-02 -6.751082860726070e-01 3.985381995223453e-01 9.204379734526787e-02 1.841654331628774e-01
            8.364163160517478e-02 5.864388967707705e-02 9.008566273218675e-02 5.315911118976506e-02 9.205341607933183e-02 1.841655027491757e-01 -6.751270409670389e-01 3.986169719827458e-01
            -6.752186139027656e-01 3.985532214341139e-01 9.206801884134951e-02 1.841569043820951e-01 8.602364577322182e-02 5.640218521791102e-02 8.364300170943800e-02 6.007537623097856e-02
            9.211379825123209e-02 1.841100692639242e-01 -6.751255667164542e-01 3.986547665746382e-01 8.364772259285314e-02 5.993693360609590e-02 8.600325647257041e-02 5.642031586664171e-02
39295000.0000000000 1.298259627075739e-01 3.717118444525201e-02 1.202160707610856e-01 4.357422239305668e-02 -4.946701093314056e-01 5.984727751392729e-01 1.529733586662437e-01 1.378168026992403e-01
            1.202468172586912e-01 4.358885512434694e-02 1.298428950335021e-01 3.723159796505603e-02 1.529484316938054e-01 1.377702843418258e-01 -4.946679592833853e-01 5.985094311221203e-01
            -4.947435800261208e-01 5.985222129177069e-01 1.529822570618939e-01 1.377799554529931e-01 1.265372084307960e-01 4.233987869527208e-02 1.209387369387051e-01 4.486128850934069e-02
            1.529798161248220e-01 1.377474634555398e-01 -4.947653203356843e-01 5.985560849128185e-01 1.209619465479425e-01 4.480302779454796e-02 1.264186485355693e-01 4.231189549571135e-02
40127500.0000000000 1.496464708769556e-01 2.991919502398530e-04 1.381856522534286e-01 9.407873249345082e-03 -2.625401790515153e-01 7.266053701554833e-01 1.896580883495717e-01 7.501770532607850e-02
            1.382183093292737e-01 9.488239696988780e-03 1.496870202057513e-01 2.788387486740137e-04 1.895930748542962e-01 7.503594851593448e-02 -2.625551498332810e-01 7.266303003394088e-01
            -2.625785887762523e-01 7.266210163527504e-01 1.895234825068949e-01 7.499497072271111e-02 1.477718042184714e-01 6.554258033705434e-03 1.396212379182418e-01 1.030683240663528e-02
            1.896140303100259e-01 7.504628503620774e-02 -2.625666599990022e-01 7.266097033374194e-01 1.396220444271184e-01 1.020990689392398e-02 1.477518729895670e-01 6.591933514448915e-03
40960000.0000000000 1.413796862335682e-01 -4.094965099200961e-02 1.304623383175950e-01 -2.803966226408339e-02 -1.691443086359388e-03 7.727142970658160e-01 2.023759323118216e-01 8.038928536227728e-03
            1.305900474648032e-01 -2.814984962192443e-02 1.413960951936393e-01 -4.096652312753901e-02 2.023447118347253e-01 8.060683874123342e-03 -1.677262124680729e-03 7.726828762882563e-01
            -1.662050310690988e-03 7.726655191765460e-01 2.023176632607513e-01 8.008394392027305e-03 1.415078589788887e-01 -3.392480574418388e-02 1.321668022642311e-01 -2.797138369141238e-02
            2.023984851999970e-01 8.071411118689567e-03 -1.629301284300219e-03 7.726761801553982e-01 1.320876642565362e-01 -2.806799886375731e-02 1.414352817634402e-01 -3.396749788736147e-02
41792500.0000000000 1.083244017674119e-01 -6.778948124602849e-02 1.003403544242260e-01 -5.238799651309357e-02 2.631367798697616e-01 7.295461544893501e-01 1.960934615082618e-01 -5.729398961835742e-02
            1.002978550186487e-01 -5.253201515785756e-02 1.082949493812653e-01 -6.780761691303476e-02 1.960935491691246e-01 -5.734210287984854e-02 2.631780596913499e-01 7.295963382433608e-01
            2.632057903260832e-01 7.296460061593358e-01 1.960914997830807e-01 -5.732210377423776e-02 1.104133145532211e-01 -6.128482766493287e-02 1.017287842143075e-01 -5.306374973223220e-02
            1.959661552586826e-01 -5.732233040792079e-02 2.631666055307559e-01 7.295070468195819e-01 1.017374386335893e-01 -5.307780039046216e-02 1.104252909197891e-01 -6.123575475394181e-02
42625000.0000000000 6.442357540567488e-02 -6.708852943125290e-02 6.056618101654824e-02 -5.119825623672684e-02 5.016991076975397e-01 5.956727163243850e-01 1.725207103083209e-01 -1.202992517575572e-01
            6.060213622501008e-02 -5.122425062763589e-02 6.436612088295490e-02 -6.704783177297065e-02 1.725545814411799e-01 -1.203051641561409e-01 5.017419387612490e-01 5.956108952244018e-01
            5.017242069256632e-01 5.956776095669101e-01 1.725756416184205e-01 -1.203246344503425e-01 6.805480781589864e-02 -6.174345033177569e-02 6.158621061814207e-02 -5.252871047863784e-02
            1.724809693404681e-01 -1.203643919387774e-01 5.016833015454484e-01 5.956746019987088e-01 6.150659538523474e-02 -5.249580513761496e-02 6.810107866226657e-02 -6.185706065202509e-02
43457500.0000000000 3.106875448292357e-02 -3.684397783090802e-02 3.090342771901471e-02 -2.328535783939877e-02 6.792025761872305e-01 3.821588426485204e-01 1.280146512760253e-01 -1.785763203021679e-01
            3.097436640931047e-02 -2.334540459340907e-02 3.111511227220660e-02 -3.688362347974546e-02 1.280375991242500e-01 -1.784957355511775e-01 6.792700698417132e-01 3.821695678015438e-01
            6.793340353092713e-01 3.822465620822922e-01 1.279762180954874e-01 -1.785665653845314e-01 3.533875940922635e-02 -3.339607450845958e-02 3.116277260503822e-02 -2.481514412293625e-02
            1.279672282991922e-01 -1.786064892518486e-01 6.792065870116889e-01 3.822832550700977e-01 3.107740626119717e-02 -2.489691732717420e-02 3.533653630475226e-02 -3.336380679655136e-02
44290000.0000000000 2.646256228322389e-02 8.256169555255759e-03 2.782418048832940e-02 1.779978000918316e-02 7.665617822392864e-01 1.183825232317202e-01 5.926561842110913e-02 -2.215783713622292e-01
            2.780075410842827e-02 1.783658774803291e-02 2.640921271856094e-02 8.309636832593890e-03 5.921665090720957e-02 -2.215123033052721e-01 7.664262195328917e-01 1.183972055546052e-01
            7.664983997043919e-01 1.183727946910705e-01 5.923746821722815e-02 -2.216178588854225e-01 3.030533072605702e-02 1.004152550732151e-02 2.722451189535999e-02 1.650292561738413e-02
            5.925903202256064e-02 -2.215798242637997e-01 7.665592971799632e-01 1.183584942945021e-01 2.730571570105822e-02 1.643078991610593e-02 3.033742447931206e-02 1.005059887854642e-02
45122500.0000000000 5.289830111692873e-02 4.436798462919948e-02 5.315442582664733e-02 4.991761831370242e-02 7.522812976179781e-01 -1.548320024359919e-01 -2.677505787352102e-02 -2.347368191371709e-01
            5.321279586537891e-02 4.973639684444665e-02 5.281502631883413e-02 4.438656392571124e-02 -2.677527303728874e-02 -2.347205638285068e-01 7.522645850661038e-01 -1.547856439419791e-01
            7.522870647383335e-01 -1.547389868367222e-01 -2.679408482735985e-02 -2.346734183888347e-01 5.557799000782735e-02 4.520448454577630e-02 5.204493252175470e-02 4.919331375857944e-02
            -2.672779023023361e-02 -2.347616839412903e-01 7.522315632554508e-01 -1.548303578127909e-01 5.204341083112742e-02 4.919791423357369e-02 5.558870236610148e-02 4.517055922264519e-02
45955000.0000000000 9.537549860172019e-02 5.376178082947634e-02 9.242734926829409e-02 5.667234977326962e-02 6.459551602944233e-01 -3.993194362623440e-01 -1.124599325381020e-01 -2.107945797635139e-01
            9.240917667739738e-02 5.667491676310297e-02 9.536668125179829e-02 5.375457910404431e-02 -1.123654823224669e-01 -2.108054917258365e-01 6.460428850733106e-01 -3.993049406057347e-01
            6.459885386795869e-01 -3.993547797619575e-01 -1.124266251464377e-01 -2.109059493413692e-01 9.681850426844245e-02 5.449716891079111e-02 9.126393058371136e-02 5.680822368504330e-02
            -1.123452051904740e-01 -2.108201392853707e-01 6.459528750607306e-01 -3.992581753259455e-01 9.126721549584806e-02 5.686812230912568e-02 9.676386540287032e-02 5.447343008111511e-02
46787500.0000000000 1.324788027577825e-01 3.391775273672554e-02 1.255793137851897e-01 3.687498367015605e-02 4.682785971277782e-01 -5.894674211843088e-01 -1.799580479976511e-01 -1.559596663895302e-01
            1.256526538252731e-01 3.687995778296025e-02 1.324478776754293e-01 3.388717989519525e-02 -1.799649778587441e-01 -1.559716202448438e-01 4.682620877339675e-01 -5.895515155028150e-01
            4.682612312963392e-01 -5.894933787417106e-01 -1.798765984402862e-01 -1.559231490087863e-01 1.329648782518026e-01 3.524933310387536e-02 1.249087861350305e-01 3.761828522087301e-02
            -1.799093929082547e-01 -1.559655273954455e-01 4.683496104542766e-01 -5.895178261562831e-01 1.249367033236491e-01 3.768755461910373e-02 1.330682750005240e-01 3.532699931203695e-02
47620000.0000000000 1.480066399347289e-01 -4.239809468748797e-03 1.382875590566410e-01 1.124064007495223e-03 2.412464923427244e-01 -7.101072414081452e-01 -2.206482104613204e-01 -8.376001549718279e-02
            1.382569386800029e-01 1.167338488586853e-03 1.480379967754122e-01 -4.272314580680924e-03 -2.207570733427970e-01 -8.379623481788498e-02 2.412828440891848e-01 -7.101179728910695e-01
            2.411955372813755e-01 -7.101314170226165e-01 -2.207726922593068e-01 -8.379881142322376e-02 1.483958078296455e-01 -1.929134533735224e-03 1.382747118507082e-01 2.103913408821290e-03
            -2.206950508883430e-01 -8.371431252049021e-02 2.412033221792041e-01 -7.101549484644817e-01 1.383717396500417e-01 2.097502233850241e-03 1.483767179097500e-01 -1.825929335773912e-03
48452500.0000000000 1.357411525359422e-01 -4.341764832822179e-02 1.254767332322022e-01 -3.434341498922171e-02 -1.337703293925310e-02 -7.506606268033678e-01 -2.352865948392347e-01 -6.291560548591865e-03
            1.254904950173910e-01 -3.433704536454702e-02 1.358679036380899e-01 -4.347780880132571e-02 -2.352212883266727e-01 -6.304926621938311e-03 -1.341221698779226e-02 -7.507582130945482e-01
            -1.343443580065780e-02 -7.506604598508384e-01 -2.352326745253466e-01 -6.257518926778210e-03 1.366410712902556e-01 -4.013644681962325e-02 1.260438574029170e-01 -3.372124102207157e-02
            -2.352820821131133e-01 -6.286628841643894e-03 -1.345467307953773e-02 -7.507307316662801e-01 1.262341783224936e-01 -3.375957393525442e-02 1.367070903812162e-01 -4.024490559933844e-02
49285000.0000000000 1.008181610623768e-01 -6.604580495419776e-02 9.241012071467883e-02 -5.392589557018312e-02 -2.708653492647293e-01 -7.035460831222369e-01 -2.273726520790526e-01 7.049741856665417e-02
            9.243329914896356e-02 -5.378020649929798e-02 1.008538700443756e-01 -6.610443750127536e-02 -2.273360070387989e-01 7.045673540454718e-02 -2.708811590846587e-01 -7.034835349499583e-01
            -2.708804084863972e-01 -7.034778106843447e-01 -2.272875961816391e-01 7.047939803461521e-02 1.028088139330605e-01 -6.251940355157569e-02 9.339163926209955e-02 -5.383152058303514e-02
            -2.272367604249410e-01 7.054428520015185e-02 -2.708796248125657e-01 -7.035035395580196e-01 9.350694455782374e-02 -5.387402067538605e-02 1.027119143429290e-01 -6.247910816088178e-02
50117500.0000000000 5.863198333781316e-02 -6.035180447811774e-02 5.373531272082447e-02 -4.704310687520340e-02 -5.002685363630851e-01 -5.674004970985775e-01 -1.974764991541716e-01 1.445984350323455e-01
            5.375194298329884e-02 -4.704711523415138e-02 5.857914842807018e-02 -6.048295717477089e-02 -1.975150354465485e-01 1.446436792603339e-01 -5.002439890596052e-01 -5.674502836991271e-01
            -5.002456411100134e-01 -5.673401721985392e-01 -1.975236858858580e-01 1.445962481305631e-01 6.145572289502263e-02 -5.729264893278101e-02 5.457293645937985e-02 -4.758193980464948e-02
            -1.975542290593965e-01 1.445871685396916e-01 -5.003241401316132e-01 -5.673593967423447e-01 5.464146228075563e-02 -4.759171698319874e-02 6.145118115936034e-02 -5.730701675208161e-02
50950000.0000000000 3.022130148911410e-02 -2.759717306934186e-02 2.878947819601071e-02 -1.543502461845332e-02 -6.671655402125312e-01 -3.553886606293360e-01 -1.419568312583478e-01 2.108065205521124e-01
            2.881047861742941e-02 -1.549727129411520e-02 3.023796484906867e-02 -2.754750485752900e-02 -1.420565299676379e-01 2.108264890832318e-01 -6.671469480068496e-01 -3.552434231688414e-01
            -6.671803177933819e-01 -3.553825851927023e-01 -1.420599083986830e-01 2.107600320211875e-01 3.360605998834734e-02 -2.528265827068284e-02 2.912268360670333e-02 -1.658560192833504e-02
            -1.420100717784945e-01 2.108218256200877e-01 -6.672029390774307e-01 -3.553092920619812e-01 2.908174596310819e-02 -1.656952328644674e-02 3.353499433584645e-02 -2.528833888011364e-02
51782500.0000000000 3.128007010366893e-02 1.607218008994054e-02 3.175887176616510e-02 2.486259466631285e-02 -7.447317206245411e-01 -9.771188102945165e-02 -5.994421668631458e-02 2.561713410457407e-01
            3.175244523742236e-02 2.491433562188323e-02 3.123296553103841e-02 1.618602759041859e-02 -6.005279224806487e-02 2.561364279070446e-01 -7.446666575621476e-01 -9.765888170664737e-02
            -7.446553556831095e-01 -9.758302685378840e-02 -6.001531206241104e-02 2.561040857553722e-01 3.442014359212792e-02 1.733739677191937e-02 3.125030239889594e-02 2.393222647220175e-02
            -6.003990701292037e-02 2.561248841008024e-01 -7.447128950343103e-01 -9.770656408628187e-02 3.131005993667885e-02 2.389580041002671e-02 3.440491002255946e-02 1.735462992105064e-02
52615000.0000000000 6.072450184948603e-02 4.731384488393042e-02 6.091307511392459e-02 5.239665301359916e-02 -7.245207315213604e-01 1.654190874521381e-01 3.811520540317383e-02 2.659864416050238e-01
            6.082159491965883e-02 5.233492627006259e-02 6.083928681094124e-02 4.726079029324000e-02 3.811094838272846e-02 2.659684969666724e-01 -7.246021824706790e-01 1.654540403926801e-01
            -7.245297483950658e-01 1.654342969749800e-01 3.813136756281112e-02 2.659758647932487e-01 6.313323680654152e-02 4.790937227578641e-02 5.974414866464375e-02 5.191757625892351e-02
            3.800730532945568e-02 2.659385954166015e-01 -7.244384518289536e-01 1.654230044837752e-01 5.980617698052399e-02 5.184923886379614e-02 6.313396359978361e-02 4.794317132642471e-02
53447500.0000000000 1.023836903573631e-01 5.108614310697216e-02 9.969017166682703e-02 5.356111537916006e-02 -6.172896345809165e-01 3.990172968751836e-01 1.328089162964517e-01 2.353654940775654e-01
            9.970402039093278e-02 5.355552488701139e-02 1.024105187294806e-01 5.112026492465807e-02 1.328699437361436e-01 2.354008778558443e-01 -6.172444546232038e-01 3.989948166164078e-01
            -6.172640500721515e-01 3.990227843401289e-01 1.328354401339887e-01 2.354007966089570e-01 1.038014112576448e-01 5.175632215544213e-02 9.856513685798562e-02 5.393135798865339e-02
            1.328647805566636e-01 2.354640697889281e-01 -6.172610245152916e-01 3.989850914551581e-01 9.861962445224226e-02 5.390666329814181e-02 1.038521321528288e-01 5.175616909585469e-02
54280000.0000000000 1.354808812406275e-01 2.764365753258412e-02 1.292653008214142e-01 2.997609651209392e-02 -4.424216678179589e-01 5.797668460267686e-01 2.065040882683964e-01 1.723495922935853e-01
            1.292554696042499e-01 2.999737543026137e-02 1.354947955667587e-01 2.768183937845602e-02 2.064202694124784e-01 1.723285072977246e-01 -4.424508713096693e-01 5.797672712052718e-01
            -4.424758505553865e-01 5.797978027354772e-01 2.065424880336897e-01 1.723312798760200e-01 1.363154207960040e-01 2.896877565449339e-02 1.285763087443278e-01 3.085908762025591e-02
            2.065098257606838e-01 1.722685896127873e-01 -4.423858377875114e-01 5.797737201859543e-01 1.286425022324036e-01 3.090933870612771e-02 1.363195586663949e-01 2.896071841085191e-02
55112500.0000000000 1.459363354396518e-01 -1.085694925322580e-02 1.367664158748643e-01 -6.502602933848399e-03 -2.204304040384243e-01 6.931837653280855e-01 2.511276140814353e-01 9.106346555622680e-02
            1.367727073964977e-01 -6.410727446233047e-03 1.459310710793878e-01 -1.083606188811608e-02 2.510597936666645e-01 9.099702009673936e-02 -2.204916184092061e-01 6.931147503713746e-01
            -2.204928259518132e-01 6.930878325321155e-01 2.510867397435095e-01 9.100991145324398e-02 1.466680821713045e-01 -8.556997087639342e-03 1.369339419273323e-01 -5.312347606234145e-03
            2.510644656472020e-01 9.104727024474635e-02 -2.204871841304128e-01 6.931445809954031e-01 1.369184063926795e-01 -5.278762080455232e-03 1.466336745898398e-01 -8.609254758539754e-03
55945000.0000000000 1.293730358305741e-01 -4.721771824607695e-02 1.195107584300601e-01 -3.941315739456830e-02 2.798729268813701e-02 7.281807703618981e-01 2.670847459422266e-01 3.225799356902932e-03
            1.194823040329094e-01 -3.950315327387530e-02 1.294628698877601e-01 -4.719668295134665e-02 2.670448787269736e-01 3.280792984416498e-03 2.794244366869127e-02 7.282335792775730e-01
            2.797106372328163e-02 7.281783716107783e-01 2.670051206249882e-01 3.236049801571315e-03 1.307468977031719e-01 -4.412269914197725e-02 1.203053928750454e-01 -3.860872578390716e-02
            2.669710665771633e-01 3.221367796262550e-03 2.800743547016439e-02 7.281869442777169e-01 1.203905940383248e-01 -3.858517730152791e-02 1.307713386320880e-01 -4.413955841719022e-02
56777500.0000000000 9.281188788110692e-02 -6.493777677583697e-02 8.435495432917767e-02 -5.397322052549981e-02 2.777927125133898e-01 6.768334342741276e-01 2.569699297920748e-01 -8.481445864972047e-02
            8.441398219566296e-02 -5.394644672349354e-02 9.268270526167718e-02 -6.494656945459470e-02 2.569913214593990e-01 -8.481613883970608e-02 2.778313850455604e-01 6.768549130617415e-01
            2.777825619057608e-01 6.768850838242529e-01 2.569963779900928e-01 -8.478896862721041e-02 9.521705609769543e-02 -6.138368832913242e-02 8.579324864183745e-02 -5.384189884494641e-02
            2.570337063312456e-01 -8.479466332489480e-02 2.778606762519828e-01 6.768075761116557e-01 8.580772683847483e-02 -5.366459558666133e-02 9.518492278817658e-02 -6.138639901165890e-02
57610000.0000000000 5.245394824433244e-02 -5.409743291716362e-02 4.748972948997433e-02 -4.166693863277569e-02 4.976597157572275e-01 5.387345379953984e-01 2.203414102993827e-01 -1.694126131472462e-01
            4.746845108628241e-02 -4.172863375399372e-02 5.243986080358191e-02 -5.414706064703230e-02 2.203860811579424e-01 -1.695263202879743e-01 4.977204890928473e-01 5.387845619869968e-01
            4.976816691700577e-01 5.388353463700906e-01 2.203733629071145e-01 -1.694538919105711e-01 5.616810171996984e-02 -5.092440106391973e-02 4.888848605639854e-02 -4.237552086015344e-02
            2.203079535227651e-01 -1.693995612755718e-01 4.976263974625545e-01 5.387825217686241e-01 4.891149513658778e-02 -4.243723106722157e-02 5.614716235902139e-02 -5.087894273055014e-02
58442500.0000000000 2.899407643291630e-02 -1.870349968039288e-02 2.757838043601283e-02 -7.275663789192128e-03 6.538438107418753e-01 3.286509841635015e-01 1.537222691572111e-01 -2.425064422815383e-01
            2.765072594269422e-02 -7.196854474968818e-03 2.908006053855963e-02 -1.865060223669315e-02 1.537808208410299e-01 -2.425748977748599e-01 6.537964627932492e-01 3.286816731453117e-01
            6.538676386416392e-01 3.286235498757588e-01 1.538392911408781e-01 -2.425350582894255e-01 3.365087047008290e-02 -1.660057401390704e-02 2.864051570905377e-02 -8.558721477551722e-03
            1.538004735273461e-01 -2.425537977621672e-01 6.538686588083419e-01 3.287205760798574e-01 2.858570556113546e-02 -8.695380184209484e-03 3.363636843855414e-02 -1.655501757465714e-02
59275000.0000000000 3.540523273225017e-02 2.333719260909675e-02 3.630925673839842e-02 3.176215344343890e-02 7.218858119409973e-01 7.796715327236679e-02 5.897556393438834e-02 -2.891841517143656e-01
            3.631710567714701e-02 3.176998798411576e-02 3.547611821846011e-02 2.336352565583652e-02 5.890967903569574e-02 -2.892049871807812e-01 7.217988882301366e-01 7.794421565504836e-02
            7.218550410643664e-01 7.797561774222873e-02 5.894687090499398e-02 -2.891724136339025e-01 4.034811233496263e-02 2.404109260916489e-02 3.636434510684104e-02 2.994052403194497e-02
            5.890629979434102e-02 -2.891692559897244e-01 7.217882065311910e-01 7.795830154232655e-02 3.643060683462901e-02 2.999043169158661e-02 4.030295866404856e-02 2.407084090811657e-02
60107500.0000000000 6.752069245143365e-02 4.987421718061964e-02 6.840283016964302e-02 5.453176500930122e-02 6.962913523870148e-01 -1.747770108756793e-01 -5.044544414833670e-02 -2.953411077016800e-01
            6.834608809909735e-02 5.449898520108477e-02 6.744054565447634e-02 4.988264597752451e-02 -5.046225281868505e-02 -2.953402026117631e-01 6.963417097003302e-01 -1.748308311844586e-01
            6.963429129889930e-01 -1.747477257653822e-01 -5.048845873325056e-02 -2.953180002849430e-01 7.206905076722410e-02 4.930056301285176e-02 6.769588231567295e-02 5.287515249446028e-02
            -5.055122591995938e-02 -2.953148684287826e-01 6.962633404363940e-01 -1.748441219035320e-01 6.771079656249651e-02 5.286153133224115e-02 7.202473174794428e-02 4.925563773806696e-02
60940000.0000000000 1.079049709379087e-01 4.900545103779232e-02 1.064475182896264e-01 5.054973605212804e-02 5.885539150707989e-01 -3.975464025460916e-01 -1.534460023876174e-01 -2.580442910001134e-01
            1.064846456881506e-01 5.056019946606243e-02 1.077841209632477e-01 4.895343735848368e-02 -1.535441870299926e-01 -2.579700315105773e-01 5.885422882674882e-01 -3.974966562822421e-01
            5.886312450762423e-01 -3.975106406304394e-01 -1.534738559777156e-01 -2.580021347885160e-01 1.114867857053910e-01 4.728287549850858e-02 1.052026959246694e-01 4.942220318406915e-02
            -1.534565182858336e-01 -2.580085358349141e-01 5.885754919993332e-01 -3.975248274984767e-01 1.051867459646091e-01 4.935289241223850e-02 1.114483042930155e-01 4.721980604102806e-02
61772500.0000000000 1.370745434644050e-01 2.308036000386902e-02 1.324163386952562e-01 2.372017146479566e-02 4.168946022134990e-01 -5.691439859003570e-01 -2.327257964097828e-01 -1.870068376108174e-01
            1.324501130844652e-01 2.366937057382720e-02 1.370347623675140e-01 2.305530982758005e-02 -2.327949942572805e-01 -1.870172129688179e-01 4.169360456492563e-01 -5.691565496379288e-01
            4.169143813958287e-01 -5.691329765753959e-01 -2.327495456004257e-01 -1.869671716643204e-01 1.395759437419819e-01 2.078627678155730e-02 1.308491670303545e-01 2.310768627088889e-02
            -2.327251060646185e-01 -1.869523601940143e-01 4.168836297858864e-01 -5.691935886029567e-01 1.308940962177770e-01 2.308680472269930e-02 1.395189246465178e-01 2.067326994924845e-02
62605000.0000000000 1.429576750396891e-01 -1.462247606041670e-02 1.352169189519740e-01 -1.295590814291850e-02 1.999858944013149e-01 -6.754022879499029e-01 -2.807430777517707e-01 -9.667616448541344e-02
            1.352106358509613e-01 -1.300704213221344e-02 1.429686214862397e-01 -1.463437064846718e-02 -2.807623682804233e-01 -9.674536944791515e-02 1.999836302926313e-01 -6.754930282703986e-01
            1.999426991341814e-01 -6.754423103900188e-01 -2.808158475745511e-01 -9.667409105063256e-02 1.442478101713038e-01 -1.726615702055638e-02 1.337295257103039e-01 -1.308645262996070e-02
            -2.807667366402019e-01 -9.660610432009081e-02 2.000409476005750e-01 -6.753919728506512e-01 1.337702215738859e-01 -1.311103038740504e-02 1.443505884230629e-01 -1.726470536317254e-02
63437500.0000000000 1.234939541225006e-01 -4.746261970735854e-02 1.141435571775434e-01 -4.309978205372075e-02 -4.194049139111551e-02 -7.049281911594251e-01 -2.976376100174871e-01 1.302337348119599e-03
            1.141330925792496e-01 -4.319089424613274e-02 1.234557553004258e-01 -4.732806619746597e-02 -2.976410025066788e-01 1.334373319680555e-03 -4.199643725541900e-02 -7.048874670165822e-01
            -4.196562776408112e-02 -7.049538459878940e-01 -2.976687537391713e-01 1.243870528748754e-03 1.235629192485499e-01 -4.997918253827742e-02 1.127869651342293e-01 -4.296326045114676e-02
            -2.976693789871641e-01 1.304290526893374e-03 -4.202045376091913e-02 -7.049729911590321e-01 1.128265223162493e-01 -4.294683958926609e-02 1.234678302643179e-01 -5.000399044494952e-02
64270000.0000000000 8.682617957115145e-02 -5.970865392091634e-02 7.809862787285342e-02 -5.287976801463377e-02 -2.838524103757977e-01 -6.495464881480513e-01 -2.850096256704777e-01 1.003248488174046e-01
            7.807034887563655e-02 -5.295388391049387e-02 8.677925125717836e-02 -5.977407828706521e-02 -2.850416728974733e-01 1.002982633135649e-01 -2.838897535795804e-01 -6.495208710283830e-01
            -2.838813622953437e-01 -6.494920872375984e-01 -2.849701981988368e-01 1.002673517256096e-01 8.568421084072574e-02 -6.209015620414791e-02 7.676277903326954e-02 -5.259625018130479e-02
            -2.850711586729736e-01 1.002544968681232e-01 -2.839067866541096e-01 -6.494913637283727e-01 7.672151701507753e-02 -5.255936100353533e-02 8.576578791128545e-02 -6.209765102877596e-02
65102500.0000000000 5.038152302178767e-02 -4.446496632192794e-02 4.360722652582179e-02 -3.618675661428490e-02 -4.937577091746080e-01 -5.098741458174418e-01 -2.410921012862401e-01 1.947515140401099e-01
            4.364942476573671e-02 -3.623157097356327e-02 5.036440629490790e-02 -4.445365862189071e-02 -2.411186129115675e-01 1.946993099313231e-01 -4.937705135360619e-01 -5.097503080230726e-01
            -4.937480400913721e-01 -5.098186266759753e-01 -2.411497441801419e-01 1.947235974509686e-01 4.823049922138489e-02 -4.613565417859573e-02 4.229474970172478e-02 -3.558004338792144e-02
            -2.411057994048065e-01 1.947789133489104e-01 -4.937476884163706e-01 -5.097638384602114e-01 4.230056764250427e-02 -3.551299895553409e-02 4.823235917033729e-02 -4.614510235499384e-02
65935000.0000000000 3.360587932367410e-02 -7.960231164504977e-03 2.915730927889890e-02 -3.505380992072836e-04 -6.389910552146086e-01 -3.023433619224962e-01 -1.632322080388803e-01 2.738340400638075e-01
            2.915835959755993e-02 -3.232924566780022e-04 3.358901661922650e-02 -8.014504618233441e-03 -1.632381090251098e-01 2.738076486251193e-01 -6.389114163064097e-01 -3.023493260859547e-01
            -6.389788226341271e-01 -3.023080147128497e-01 -1.632182358219887e-01 2.737993795148446e-01 3.026145261513775e-02 -8.739623247085909e-03 2.769764566384331e-02 7.876792342151174e-04
            -1.632496798007202e-01 2.738330546326225e-01 -6.389517827712553e-01 -3.023081547834545e-01 2.777678455182076e-02 9.160911452472587e-04 3.022320697830790e-02 -8.728771609169635e-03
66767500.0000000000 4.588965767613685e-02 3.029731061494816e-02 4.268550850369974e-02 3.581149844550924e-02 -6.978001657455026e-01 -5.919555966301065e-02 -5.602691293065010e-02 3.209408390683119e-01
            4.263482077802783e-02 3.579301837327473e-02 4.592413108574734e-02 3.035110873792459e-02 -5.600991093953984e-02 3.208945569176901e-01 -6.978218908770046e-01 -5.914063457279507e-02
            -6.977378967084408e-01 -5.918633595306428e-02 -5.593071420997869e-02 3.209130524512908e-01 4.174362926151663e-02 3.095268910181648e-02 4.160477612609693e-02 3.764404251409707e-02
            -5.597613420037985e-02 3.208903137796768e-01 -6.978314478893147e-01 -5.918940360380541e-02 4.164766173947777e-02 3.762603455638737e-02 4.177028334216287e-02 3.096101767590750e-02
67600000.0000000000 8.023195060764687e-02 5.027178490476644e-02 7.639646105608894e-02 5.312262020521932e-02 -6.674151160344569e-01 1.829778753636339e-01 6.403811668434917e-02 3.227603897929353e-01
            7.642680247699157e-02 5.314990786808099e-02 8.015877983836914e-02 5.023666948972962e-02 6.400056429722689e-02 3.227174847270671e-01 -6.674881892748882e-01 1.830080013856369e-01
            -6.675005003066905e-01 1.829802667219122e-01 6.399313171538475e-02 3.227364532604611e-01 7.583343108791706e-02 5.257724250740651e-02 7.601139992136026e-02 5.540571404850478e-02
            6.400739767955162e-02 3.227450903164686e-01 -6.674700992726684e-01 1.829762226013336e-01 7.598836163568363e-02 5.554975859255699e-02 7.587434599902257e-02 5.249226732520755e-02
68432500.0000000000 1.184489584205187e-01 4.286856971784508e-02 1.120746724830426e-01 4.423410646549637e-02 -5.598182192979750e-01 3.948765145405910e-01 1.744240944403295e-01 2.785735255449611e-01
            1.120475976898465e-01 4.420768834935832e-02 1.184770750612605e-01 4.293123114851963e-02 1.744855058163780e-01 2.785286547372007e-01 -5.597225837497859e-01 3.949663478566992e-01
            -5.597086080570840e-01 3.949049526308148e-01 1.744376939972933e-01 2.785482674190095e-01 1.144252992712185e-01 4.682940620259850e-02 1.127681448719795e-01 4.653103545065280e-02
            1.744111399046008e-01 2.786204331225869e-01 -5.597571052284805e-01 3.948888611687424e-01 1.127710808482287e-01 4.653890631065217e-02 1.143632917621196e-01 4.684940180783621e-02
69265000.0000000000 1.425601385856076e-01 1.335967294605106e-02 1.329801841623409e-01 1.502153538136401e-02 -3.914999441568804e-01 5.573294245953488e-01 2.586291258464823e-01 1.997242533910249e-01
            1.329542780990812e-01 1.499044208496639e-02 1.425857866084604e-01 1.339546254712454e-02 2.586914500053072e-01 1.996762220536316e-01 -3.915724025514544e-01 5.573724702303726e-01
            -3.915321090740918e-01 5.574218677678381e-01 2.587164027364389e-01 1.997530945192599e-01 1.394952620077088e-01 1.857941734650929e-02 1.346608481789394e-01 1.681054326405111e-02
            2.587620373884781e-01 1.996808697433136e-01 -3.915425625043438e-01 5.573965522697030e-01 1.346413812889172e-01 1.670704789904577e-02 1.394582518221181e-01 1.861231721281820e-02
70097500.0000000000 1.424624247621601e-01 -2.444270123647752e-02 1.304749131936599e-01 -2.047346177011835e-02 -1.800408260081496e-01 6.565707738155314e-01 3.095481575726892e-01 1.006554137256669e-01
            1.303787338764471e-01 -2.051314460293154e-02 1.424887341410391e-01 -2.448981052658803e-02 3.096256927060857e-01 1.006575669739370e-01 -1.800650097602077e-01 6.565740224715533e-01
            -1.800070864455448e-01 6.566088835450549e-01 3.095757456188956e-01 1.006275868819184e-01 1.408315464376795e-01 -1.852095601378663e-02 1.327103908373622e-01 -1.982147855752532e-02
            3.096191707279854e-01 1.006534345744697e-01 -1.800528582429728e-01 6.565377869319577e-01 1.326828505638948e-01 -1.976709649502819e-02 1.408372563393777e-01 -1.850916919793703e-02
70930000.0000000000 1.181750956689016e-01 -5.389120713622741e-02 1.056210446413750e-01 -4.641754607001251e-02 5.525409849282303e-02 6.806823280250837e-01 3.270000815287888e-01 -7.197608318232555e-03
            1.056125159890636e-01 -4.637154770299239e-02 1.182188846746784e-01 -5.388072122418377e-02 3.269640257296093e-01 -7.215504319399593e-03 5.520423280952581e-02 6.807066290128510e-01
            5.522501388413018e-02 6.805955483597259e-01 3.269745031328073e-01 -7.256708721008567e-03 1.179456490495608e-01 -4.802491379166486e-02 1.077083348115181e-01 -4.707807596573890e-02
            3.269451320356945e-01 -7.239440578494529e-03 5.514902144480562e-02 6.806167489961945e-01 1.077815391585786e-01 -4.709096488025675e-02 1.179130501461018e-01 -4.812294052823103e-02
71762500.0000000000 7.998725143573851e-02 -6.084954442822003e-02 6.909723004414906e-02 -5.021015026428661e-02 2.886741360749553e-01 6.213661738746072e-01 3.111035583559177e-01 -1.167407647055424e-01
            6.917977943324517e-02 -5.011630187210260e-02 7.992334795240548e-02 -6.090174945538101e-02 3.111191824934073e-01 -1.166739931387208e-01 2.886706873512505e-01 6.213051807253815e-01
            2.886463673476310e-01 6.214255225735523e-01 3.111044965195390e-01 -1.167090940289067e-01 8.058798918607132e-02 -5.573695989897207e-02 7.032180960166950e-02 -5.192185076267993e-02
            3.110574871077469e-01 -1.166820716470893e-01 2.886859065243408e-01 6.213060880794226e-01 7.033496534828593e-02 -5.196062487621377e-02 8.059264732625167e-02 -5.580990057348534e-02
72595000.0000000000 4.592356464556574e-02 -4.029881093074049e-02 3.848311291288845e-02 -2.838181250203076e-02 4.882618617081091e-01 4.806357912649926e-01 2.595346312046518e-01 -2.201834180465317e-01
            3.850235647269946e-02 -2.837106818163936e-02 4.601767611308517e-02 -4.040015101707721e-02 2.594833506891376e-01 -2.202531527338339e-01 4.882024861512346e-01 4.806508080525911e-01
            4.882709168550899e-01 4.806835621321545e-01 2.594453877171891e-01 -2.202188737372310e-01 4.665555182954290e-02 -3.629350088782343e-02 3.821453369819564e-02 -3.038529083891230e-02
            2.594715283224427e-01 -2.201487262451740e-01 4.882423153854730e-01 4.805631889776878e-01 3.827005442257006e-02 -3.043459545931216e-02 4.664908703839023e-02 -3.635614711546504e-02
73427500.0000000000 3.436651103357858e-02 -1.907666408657792e-03 3.040766245151360e-02 8.963820246983795e-03 6.225010894376892e-01 2.765711387759865e-01 1.704186858404822e-01 -3.042951574624997e-01
            3.039179078471967e-02 8.956397501986412e-03 3.426101711007440e-02 -1.957258877861753e-03 1.704784398253129e-01 -3.042672703814631e-01 6.224626218531760e-01 2.765435789146289e-01
            6.224621948506430e-01 2.765351225416644e-01 1.704436327911354e-01 -3.042326025075439e-01 3.420596028503236e-02 1.441790612704789e-03 2.846802579675469e-02 7.668157263543029e-03
            1.704306500623202e-01 -3.042086031359513e-01 6.224597614463117e-01 2.765657923976584e-01 2.849002122536649e-02 7.665319139678462e-03 3.414521460555378e-02 1.437371166070933e-03
74260000.0000000000 5.162829159647776e-02 3.419150809460455e-02 4.964109074093385e-02 4.188557479497074e-02 6.726186978557285e-01 4.155774653624293e-02 5.140781798036700e-02 -3.509124203247075e-01
            4.966191610208961e-02 4.194000801766416e-02 5.165942379440158e-02 3.419851860482538e-02 5.136932946662597e-02 -3.509401745681962e-01 6.726026985029093e-01 4.157489862162168e-02
            6.726792275175394e-01 4.158512041244252e-02 5.139685988354022e-02 -3.508816495593864e-01 5.023377207117768e-02 3.770601485337226e-02 4.697896729646685e-02 4.221837428334052e-02
            5.140525872797402e-02 -3.509373161809946e-01 6.726309188306305e-01 4.157449534963899e-02 4.698242239572181e-02 4.226939762641727e-02 5.021493900856493e-02 3.773806705124358e-02
75092500.0000000000 8.798709642597015e-02 4.933158820596149e-02 8.533675512215431e-02 5.331263254021210e-02 6.381147392529274e-01 -1.896807969316263e-01 -7.819773933006276e-02 -3.479918891368898e-01
            8.540696317277641e-02 5.323342048451861e-02 8.802025337280024e-02 4.940143139438770e-02 -7.826017720907834e-02 -3.480918964541790e-01 6.381235889082257e-01 -1.896766787609034e-01
            6.381230162187085e-01 -1.896026387088170e-01 -7.828707082356549e-02 -3.480228724338826e-01 8.550946240823934e-02 5.408858022230367e-02 8.320869908021022e-02 5.556032977507653e-02
            -7.816132062873572e-02 -3.480910177807879e-01 6.380538793297400e-01 -1.896775148100973e-01 8.313481495954723e-02 5.551237825657336e-02 8.550882994129040e-02 5.404487613762250e-02
75925000.0000000000 1.246055017256679e-01 3.743671124185918e-02 1.189207092852152e-01 3.864642035489982e-02 5.308697322758994e-01 -3.908715168542600e-01 -1.955302264569688e-01 -2.972661451301592e-01
            1.188741119150692e-01 3.868627396303811e-02 1.246673689048220e-01 3.737827313602932e-02 -1.954513400237831e-01 -2.971724374385792e-01 5.309306182862056e-01 -3.909126063883948e-01
            5.309307913181124e-01 -3.909142624907485e-01 -1.955041370396540e-01 -2.972235205187073e-01 1.218398470184868e-01 4.396133613112189e-02 1.184149116465143e-01 4.223386100941766e-02
            -1.954482348758007e-01 -2.972142160162116e-01 5.308517742463521e-01 -3.908799819930755e-01 1.184077330744912e-01 4.226085198266637e-02 1.217372916868306e-01 4.405142465572998e-02
76757500.0000000000 1.450308644120670e-01 5.489233473477188e-03 1.349563710270865e-01 6.423154025534557e-03 3.664376908537442e-01 -5.444292908476575e-01 -2.840686216724192e-01 -2.104890580942857e-01
            1.349946029420976e-01 6.380740810087222e-03 1.450370577474435e-01 5.460713292697925e-03 -2.840520867620660e-01 -2.104503929219877e-01 3.664483310381894e-01 -5.444070671615511e-01
            3.664556299548680e-01 -5.443558409248160e-01 -2.841195129033824e-01 -2.104943529143752e-01 1.428293428751431e-01 1.402509766978503e-02 1.366498072774563e-01 1.019746919887254e-02
            -2.840581345327854e-01 -2.105306481611242e-01 3.664825663296245e-01 -5.443499761591146e-01 1.365583802125169e-01 1.021879048747831e-02 1.428417866977598e-01 1.400339470058688e-02
77590000.0000000000 1.406706727767635e-01 -3.213756999716443e-02 1.267593974832939e-01 -2.849612070733341e-02 1.606430831584388e-01 -6.365249007057536e-01 -3.373626904106099e-01 -1.027656923111971e-01
            1.267994367833829e-01 -2.848304799260304e-02 1.407455783302158e-01 -3.216481473654574e-02 -3.373478319265039e-01 -1.028302120022601e-01 1.606704903706843e-01 -6.365275214971658e-01
            1.606922835658618e-01 -6.365700665251416e-01 -3.372861138707042e-01 -1.028208288712368e-01 1.402011304595332e-01 -2.189599351133967e-02 1.304885206680603e-01 -2.600659265012446e-02
            -3.373318089868037e-01 -1.028261404492761e-01 1.607698115948909e-01 -6.365821851647347e-01 1.304790701048972e-01 -2.600244891839210e-02 1.402227904983938e-01 -2.192784314402571e-02
78422500.0000000000 1.133198239168459e-01 -5.880127309745414e-02 9.790551355863948e-02 -5.060337566119683e-02 -6.729474915806032e-02 -6.553346759714429e-01 -3.545253901794537e-01 1.461006225800480e-02
            9.798125516572267e-02 -5.063395828794831e-02 1.132950315609862e-01 -5.880775169670834e-02 -3.545054486284570e-01 1.459358115338362e-02 -6.735917979105183e-02 -6.553234375576998e-01
            -6.732817270761640e-02 -6.553460839908428e-01 -3.545216900802952e-01 1.459232088632242e-02 1.152898444264793e-01 -4.792552607266768e-02 1.025340879998853e-01 -5.039887976667832e-02
            -3.545439669280075e-01 1.465749828708543e-02 -6.736655482371795e-02 -6.552946678904916e-01 1.025423600198599e-01 -5.026220250961740e-02 1.152718847400660e-01 -4.803815099626432e-02
79255000.0000000000 7.447736702751422e-02 -6.169001235634856e-02 6.058879884719105e-02 -4.881901508839798e-02 -2.918086848636178e-01 -5.926431919069844e-01 -3.349807482364182e-01 1.337381038954020e-01
            6.052822358772586e-02 -4.872370799755224e-02 7.453501415026348e-02 -6.165360613317774e-02 -3.348430021152242e-01 1.337245033457162e-01 -2.918596634964611e-01 -5.926313103607406e-01
            -2.917774575846170e-01 -5.926970392680102e-01 -3.349073048347045e-01 1.338009535656874e-01 7.885595320020394e-02 -5.155237214214153e-02 6.465642391757646e-02 -5.092558941410059e-02
            -3.348760770813605e-01 1.338039523925181e-01 -2.918072974610053e-01 -5.926478189396838e-01 6.469181306056650e-02 -5.100792973741918e-02 7.886346489736797e-02 -5.157447213118004e-02
80087500.0000000000 4.299775974587478e-02 -3.791003142064826e-02 3.288123085190351e-02 -2.204632069859364e-02 -4.808904697163862e-01 -4.517401277089159e-01 -2.753545048897366e-01 2.452053584139786e-01
            3.291227054756692e-02 -2.208631910975534e-02 4.298480159044264e-02 -3.792923437965878e-02 -2.754395115746173e-01 2.452899881039518e-01 -4.808923750460848e-01 -4.517445667417387e-01
            -4.808860458592970e-01 -4.516260641361905e-01 -2.754155993859916e-01 2.452775268941572e-01 4.881091984656352e-02 -2.965708789503686e-02 3.510653442010954e-02 -2.600712390791169e-02
            -2.753958191451334e-01 2.452488008932948e-01 -4.808340437138600e-01 -4.517476604004601e-01 3.511024807791113e-02 -2.611209406827521e-02 4.885008027621860e-02 -2.969175135301936e-02
80920000.0000000000 3.542509671827185e-02 1.038613905901261e-03 3.017066423114765e-02 1.692530796516882e-02 -6.046915934805615e-01 -2.519589226799968e-01 -1.756468515601646e-01 3.331905217289173e-01
            3.026547943519198e-02 1.693292543738362e-02 3.539134857200964e-02 9.346806927348378e-04 -1.756968758317519e-01 3.331748864595952e-01 -6.046665913852245e-01 -2.519995237906624e-01
            -6.046840458576642e-01 -2.520248530060505e-01 -1.756982731814976e-01 3.332233428354647e-01 4.142550641590944e-02 7.176506089999759e-03 2.978329028600231e-02 1.255825722398113e-02
            -1.757376951105580e-01 3.331457834650108e-01 -6.046178627985057e-01 -2.519476502446005e-01 2.982367223844243e-02 1.258888966222201e-02 4.155893856917173e-02 7.195288612541652e-03
81752500.0000000000 5.562737484626796e-02 3.434547173773840e-02 5.433112161424183e-02 4.756456058941859e-02 -6.469573839768459e-01 -2.552163220009014e-02 -4.595687141136188e-02 3.788912801700638e-01
            5.430350569787649e-02 4.745506063755086e-02 5.569295842519242e-02 3.444260116056307e-02 -4.595645810080085e-02 3.788519209564900e-01 -6.468952199724743e-01 -2.557257308595429e-02
            -6.469126465536489e-01 -2.557569677380745e-02 -4.598377766845323e-02 3.789313997555677e-01 6.080975556245632e-02 3.899950988554330e-02 5.159241891093055e-02 4.458377539647740e-02
            -4.593746981365764e-02 3.788522821797424e-01 -6.468968542556875e-01 -2.565118981484674e-02 5.156584981209075e-02 4.454452737071295e-02 6.078585299908579e-02 3.894233253076772e-02
82585000.0000000000 9.199352640256546e-02 4.547210431007392e-02 9.192789105944286e-02 5.430494251159284e-02 -6.089501138496047e-01 1.951350088080962e-01 9.247671896620817e-02 3.716111408955224e-01
            9.184991087255157e-02 5.426698809752004e-02 9.192150830148380e-02 4.552034417854671e-02 9.239354398407812e-02 3.715103799066362e-01 -6.090493971744486e-01 1.951047860218829e-01
            -6.090449871703895e-01 1.951265698986099e-01 9.246390771864937e-02 3.715562486158000e-01 9.574695429844009e-02 4.959539358542186e-02 8.817100304593610e-02 5.365604046597249e-02
            9.245668424481987e-02 3.716004985558966e-01 -6.090637159895746e-01 1.950755109720802e-01 8.818339558022639e-02 5.377102564802808e-02 9.564941542910373e-02 4.955514931705951e-02
83417500.0000000000 1.256654944880715e-01 3.075214954499884e-02 1.239530995977397e-01 3.532406019962849e-02 -5.026181471799782e-01 3.861176075161711e-01 2.159726234159867e-01 3.143584057252244e-01
            1.239301232239467e-01 3.534541287601409e-02 1.256908047137497e-01 3.062988720795395e-02 2.159834329908406e-01 3.143107067266722e-01 -5.026452121881382e-01 3.861002790775393e-01
            -5.026118736489679e-01 3.861350931261492e-01 2.159407810381425e-01 3.143751356839730e-01 1.282031887682870e-01 3.509324530018443e-02 1.210634601285405e-01 3.718348518887565e-02
            2.160378696218228e-01 3.143789810935707e-01 -5.025798247786858e-01 3.861496897001601e-01 1.210506870193154e-01 3.714137308015487e-02 1.281669808361975e-01 3.516005879108784e-02
84250000.0000000000 1.418362462886937e-01 -1.534316400771341e-03 1.363070110060551e-01 1.097521571885040e-03 -3.418003591386378e-01 5.310125295036660e-01 3.089421041070412e-01 2.203772483634885e-01
            1.362063296245752e-01 1.083807196921255e-03 1.418787760844418e-01 -1.561778983691787e-03 3.088622947177786e-01 2.204058106437332e-01 -3.418978857895504e-01 5.309573196064742e-01
            -3.418491476742893e-01 5.309180123253803e-01 3.088777243627279e-01 2.203362868852784e-01 1.436931960044025e-01 3.879429559830453e-03 1.353494015497241e-01 4.014189549056246e-03
            3.088129262937273e-01 2.202975695043666e-01 -3.418951759163387e-01 5.308730166596608e-01 1.353152212999909e-01 4.027344753208693e-03 1.437493462871497e-01 3.850935323136284e-03
85082500.0000000000 1.338906139096241e-01 -3.659704525424017e-02 1.241493395253809e-01 -3.319046709361162e-02 -1.415868221734974e-01 6.161415564999437e-01 3.644964324486593e-01 1.040956687413919e-01
            1.241900287945793e-01 -3.316775393294713e-02 1.339293044531652e-01 -3.654490023474795e-02 3.645158835349936e-01 1.041523102547413e-01 -1.415818104873986e-01 6.160844892347938e-01
            -1.415290070666692e-01 6.160588845716465e-01 3.645275179451549e-01 1.041251019303576e-01 1.359335293480444e-01 -3.009937642960387e-02 1.253431279172582e-01 -3.053123094441899e-02
            3.645025972098798e-01 1.041116311663241e-01 -1.415552596884697e-01 6.161552549329213e-01 1.253659306035375e-01 -3.054886334787648e-02 1.359333036049017e-01 -3.009030538976595e-02
85915000.0000000000 1.052055204346290e-01 -5.859240131217065e-02 9.275184546514427e-02 -5.199862799041841e-02 7.926241725285597e-02 6.293556831929108e-01 3.812443576279848e-01 -2.292431402635113e-02
            9.274152275792844e-02 -5.194117184365411e-02 1.051947577514298e-01 -5.860170853973167e-02 3.812966694021744e-01 -2.297696426838580e-02 7.916331214148964e-02 6.293262421860853e-01
            7.919650765492604e-02 6.292956373785524e-01 3.812336295316846e-01 -2.288511721507392e-02 1.077244852366955e-01 -5.151976710045440e-02 9.507978371880897e-02 -5.099934957084681e-02
            3.812894397920311e-01 -2.295559862630578e-02 7.920474713414850e-02 6.293578085049740e-01 9.513958472916301e-02 -5.105725246160584e-02 1.077682212358036e-01 -5.148059979460745e-02
86747500.0000000000 6.835976141303368e-02 -5.638957442230681e-02 5.571355638504307e-02 -4.556160215734231e-02 2.943578304278857e-01 5.632216626300854e-01 3.573553191118299e-01 -1.517673502169923e-01
            5.579780904851354e-02 -4.560678343387399e-02 6.844018913059188e-02 -5.640900806259398e-02 3.573423210349083e-01 -1.517216678111965e-01 2.943338218468973e-01 5.631980738020945e-01
            2.942497667810134e-01 5.632161065830619e-01 3.573718194572733e-01 -1.517107369436504e-01 7.155540700377855e-02 -4.952058600075255e-02 5.783970181824636e-02 -4.692817728266482e-02
            3.573649295820543e-01 -1.518063721303142e-01 2.943003498945793e-01 5.632229519610108e-01 5.784754064431011e-02 -4.690661423021935e-02 7.163538299161040e-02 -4.956408820476184e-02
87580000.0000000000 4.207664774738781e-02 -2.985872414250639e-02 3.193150038154492e-02 -1.590181404330911e-02 4.723521849494576e-01 4.222811241115788e-01 2.895123488797032e-01 -2.705990397470936e-01
            3.190234479211534e-02 -1.590522223704339e-02 4.213756061874340e-02 -2.991415376894895e-02 2.894838139569190e-01 -2.706617500816603e-01 4.723515616108389e-01 4.223522375598270e-01
            4.723136032044847e-01 4.223264654598463e-01 2.894727125163456e-01 -2.706355617168065e-01 4.503061395933020e-02 -2.355992543869410e-02 3.193360982834727e-02 -1.862523885271131e-02
            2.895481704633198e-01 -2.706829054908165e-01 4.723813832655486e-01 4.223557513366660e-01 3.199265595827998e-02 -1.864387571227739e-02 4.512614520254295e-02 -2.358657060145547e-02
88412500.0000000000 4.073486582824386e-02 7.724442223985347e-03 3.424197930603388e-02 2.245067021884530e-02 5.853723962035440e-01 2.275613478837976e-01 1.789143285800172e-01 -3.615052887094477e-01
            3.425280033251542e-02 2.242972859785055e-02 4.060048911882826e-02 7.715526465402332e-03 1.790158485681653e-01 -3.615031245646214e-01 5.853042265895393e-01 2.275549861599880e-01
            5.853664393024942e-01 2.275705975879405e-01 1.789157188414705e-01 -3.616027988273015e-01 4.281746115998590e-02 1.363768248089474e-02 3.174069815339849e-02 2.016988003411946e-02
            1.789634446988015e-01 -3.616089766764313e-01 5.853843483633840e-01 2.275982524022334e-01 3.182780909215725e-02 2.026248637017308e-02 4.285879968809576e-02 1.356924969097249e-02
89245000.0000000000 6.495445320214116e-02 3.607009141366782e-02 6.171683543334643e-02 4.887187605026752e-02 6.200294791815461e-01 1.041022330686641e-02 3.884484825814492e-02 -4.054919296967920e-01
            6.170392689942321e-02 4.895960884614738e-02 6.498951670377161e-02 3.601881779212424e-02 3.878678118889628e-02 -4.054738169299936e-01 6.199856802092578e-01 1.039680711262208e-02
            6.200396876524717e-01 1.029705278693250e-02 3.878299377923960e-02 -4.055550185646858e-01 6.560026100814217e-02 4.254399842021902e-02 5.732223217424669e-02 4.916750994913160e-02
            3.876829385968869e-02 -4.054685942510627e-01 6.199703879149728e-01 1.033848229682237e-02 5.722150854901061e-02 4.916423208156748e-02 6.557283912617462e-02 4.257557111797176e-02
90077500.0000000000 1.012186189834918e-01 4.082570716204986e-02 9.891288962858287e-02 5.030871857762250e-02 5.791351602591883e-01 -1.993533267971830e-01 -1.075592143604765e-01 -3.931962659638746e-01
            9.894029804043161e-02 5.032589602338604e-02 1.011787317053006e-01 4.088054556128926e-02 -1.074851377892974e-01 -3.931879750748792e-01 5.791435416615116e-01 -1.993207639572097e-01
            5.791108593868733e-01 -1.993732467036409e-01 -1.075734045098611e-01 -3.932335346639660e-01 1.007038740135453e-01 4.921851445808249e-02 9.470909904558658e-02 5.397585770054926e-02
            -1.075649275166212e-01 -3.932157488103747e-01 5.791356521038015e-01 -1.993637828795081e-01 9.477037060955834e-02 5.400343974777144e-02 1.006617213133481e-01 4.915245116391914e-02
90910000.0000000000 1.315329964882859e-01 2.131611947162463e-02 1.274140675922966e-01 2.749780332440951e-02 4.740232526110841e-01 -3.799548430964560e-01 -2.366162960993403e-01 -3.296221178757050e-01
            1.274010000923121e-01 2.747738324052093e-02 1.314681376372425e-01 2.132572163388459e-02 -2.366538044914598e-01 -3.295611391989308e-01 4.740340532958492e-01 -3.800549634080598e-01
            4.740275443283602e-01 -3.799838598915464e-01 -2.366564086522547e-01 -3.296272381917377e-01 1.307424326858350e-01 3.221808222415844e-02 1.257029275193245e-01 3.397612532169223e-02
            -2.366474432334510e-01 -3.295651024636738e-01 4.740193549493201e-01 -3.799153378117339e-01 1.257457475806733e-01 3.400669441979676e-02 1.306467570936303e-01 3.219685117195302e-02
91742500.0000000000 1.423223512431771e-01 -1.284732646686523e-02 1.343933068577206e-01 -7.810063603421930e-03 3.173610501664619e-01 -5.162395259654288e-01 -3.331643158188017e-01 -2.282289107080438e-01
            1.343787570241386e-01 -7.765357511585485e-03 1.423254684749435e-01 -1.284302200722808e-02 -3.331684054598948e-01 -2.282584283536613e-01 3.173809328961084e-01 -5.161327996024796e-01
            3.172875545085802e-01 -5.161707028947308e-01 -3.332101610980200e-01 -2.282955904078287e-01 1.425767908523357e-01 9.714978045260729e-04 1.366985086736737e-01 -5.156000404248855e-04
            -3.332118718656283e-01 -2.281985007360648e-01 3.173185473457558e-01 -5.161895026246585e-01 1.366677586614866e-01 -4.477472953249625e-04 1.425455224311578e-01 8.943795361083355e-04
92575000.0000000000 1.292540855915421e-01 -4.630223196787026e-02 1.172257669677842e-01 -3.956897697034741e-02 1.230533399598182e-01 -5.943979144965200e-01 -3.905143255693662e-01 -1.036492734405045e-01
            1.172897567492818e-01 -3.957995658494777e-02 1.292796320311770e-01 -4.630150080170869e-02 -3.905802285789710e-01 -1.037537916564291e-01 1.231037887765710e-01 -5.944013700515621e-01
            1.230180847314871e-01 -5.943601577191849e-01 -3.904834163709525e-01 -1.037117986137923e-01 1.318385888920699e-01 -3.045428679980062e-02 1.234979733656826e-01 -3.411579314221445e-02
            -3.905938939644258e-01 -1.036776016669713e-01 1.230329201711767e-01 -5.943739698773108e-01 1.235069281641537e-01 -3.409658048477947e-02 1.318290190552170e-01 -3.032803058839805e-02
93407500.0000000000 9.731908621984370e-02 -6.418151223209026e-02 8.309023645513003e-02 -5.316195569936270e-02 -8.995983033520398e-02 -6.022759113092587e-01 -4.063693306030788e-01 3.258866614063464e-02
            8.311290594379445e-02 -5.325366085668039e-02 9.729248882769213e-02 -6.414684206056813e-02 -4.063968171587845e-01 3.252622006671452e-02 -9.003989533073022e-02 -6.022566710950265e-01
            -8.997100765683790e-02 -6.022260691722529e-01 -4.064175960643025e-01 3.254350114739311e-02 1.031611850736695e-01 -4.738090504705796e-02 9.162217377114953e-02 -5.187780343952539e-02
            -4.062878584410297e-01 3.254185242570296e-02 -8.994156335936546e-02 -6.022568718425463e-01 9.151197039067800e-02 -5.175918491382629e-02 1.032171074744282e-01 -4.740290166032790e-02
94240000.0000000000 6.082612566397317e-02 -5.698406426731383e-02 4.726563075980772e-02 -4.085650973131180e-02 -2.954309593996299e-01 -5.330512516284570e-01 -3.776813366873510e-01 1.704080356632261e-01
            4.719422078783954e-02 -4.084465226512144e-02 6.074399006895759e-02 -5.695984938013093e-02 -3.775821714450781e-01 1.703827436816329e-01 -2.953396558253967e-01 -5.330525581858164e-01
            -2.954250283608621e-01 -5.330337070736026e-01 -3.777274582709997e-01 1.703607893855221e-01 6.973188126590986e-02 -4.109229643024127e-02 5.503405723562136e-02 -4.441787857267800e-02
            -3.776448572871531e-01 1.703941123648605e-01 -2.953924728200361e-01 -5.330735141314730e-01 5.505031127691000e-02 -4.443660855859973e-02 6.972317355475523e-02 -4.116705759602118e-02
95072500.0000000000 3.800391023902060e-02 -2.699223537035743e-02 2.819760129223759e-02 -6.996327351152731e-03 -4.621111159847739e-01 -3.928732696005617e-01 -3.012841030075731e-01 2.958247499525667e-01
            2.826580035607919e-02 -6.974672366420676e-03 3.804255624271695e-02 -2.700764541773545e-02 -3.012590667012197e-01 2.957535468383271e-01 -4.620432612655577e-01 -3.929380766978662e-01
            -4.620992081231191e-01 -3.929262448813133e-01 -3.012009582967060e-01 2.957672502909590e-01 4.868942360150980e-02 -1.324124971020890e-02 3.223715990055361e-02 -1.409502016779343e-02
            -3.012490004042447e-01 2.957686874845496e-01 -4.620141812221439e-01 -3.929777007257463e-01 3.224836094855744e-02 -1.419395119780615e-02 4.861723654113565e-02 -1.327416231046439e-02
95905000.0000000000 4.151463836802075e-02 1.046262660320080e-02 3.709365713940758e-02 3.126072460819402e-02 -5.645268387037190e-01 -2.038505686134757e-01 -1.802366141825806e-01 3.886594959562223e-01
            3.717025415697551e-02 3.131137470427706e-02 4.147925661016952e-02 1.047229602584450e-02 -1.802659527642397e-01 3.887029819071716e-01 -5.644717060540460e-01 -2.038140086359130e-01
            -5.644972980203441e-01 -2.038417290421719e-01 -1.802933708037775e-01 3.886932247723059e-01 5.185574411660213e-02 2.194384194953720e-02 3.541240275726715e-02 2.367397389894157e-02
            -1.802655309916703e-01 3.887348795500844e-01 -5.644920957587916e-01 -2.038269895459706e-01 3.557490991028215e-02 2.369493004426402e-02 5.190856985053161e-02 2.196881569662253e-02
96737500.0000000000 6.886346741553168e-02 3.526133453983445e-02 6.923190595218043e-02 5.362501768216348e-02 -5.919726517772566e-01 3.710460870350427e-03 -3.040394162571891e-02 4.302536379349717e-01
            6.923955634710152e-02 5.364940504301822e-02 6.887207983503192e-02 3.532627663782411e-02 -3.052526462672043e-02 4.303722403607026e-01 -5.920539054701135e-01 3.656399510503035e-03
            -5.920476163145755e-01 3.612803800732953e-03 -3.049706760304479e-02 4.303009760652013e-01 7.776216767000896e-02 4.588178990574068e-02 6.275702887981952e-02 4.936951041268046e-02
            -3.047320670647368e-02 4.303016549116033e-01 -5.920247186531041e-01 3.749661056003840e-03 6.284897292716959e-02 4.936985584481348e-02 7.776043878287181e-02 4.586263509246225e-02
97570000.0000000000 1.049695115682470e-01 3.560763531594340e-02 1.073987325449381e-01 4.912880086222388e-02 -5.488016336737918e-01 2.023331382828342e-01 1.232072423802980e-01 4.128873468394341e-01
            1.074131332987984e-01 4.912032974502864e-02 1.049947316150513e-01 3.568443844837518e-02 1.232446436936046e-01 4.128785991089448e-01 -5.488472466186824e-01 2.023333845802380e-01
            -5.488283683252994e-01 2.022967965884422e-01 1.232591288084898e-01 4.128367104188822e-01 1.121431080365736e-01 4.714302539087758e-02 9.945254318345882e-02 5.075907611938811e-02
            1.231677597647090e-01 4.128600331540462e-01 -5.488394245605934e-01 2.022651155437287e-01 9.938212136193503e-02 5.076721281119359e-02 1.120290466691503e-01 4.708157438912351e-02
98402500.0000000000 1.323650030814165e-01 1.300410345490722e-02 1.331908255615505e-01 2.145709390364833e-02 -4.453229914077667e-01 3.725468513212016e-01 2.572476423937343e-01 3.428993445781843e-01
            1.331093291707082e-01 2.145222526311002e-02 1.323347380204720e-01 1.304628157971848e-02 2.573256262074358e-01 3.427814385134624e-01 -4.454122421005431e-01 3.725100239340975e-01
            -4.453210947236924e-01 3.725089254809170e-01 2.572202959121268e-01 3.428642525670035e-01 1.384115594069798e-01 2.675375777513843e-02 1.275192762319227e-01 2.876902212609241e-02
            2.573157397805871e-01 3.428466077149606e-01 -4.453353922512197e-01 3.725482428673311e-01 1.276874418217420e-01 2.880329272384695e-02 1.384122666074665e-01 2.662997245025865e-02
99235000.0000000000 1.391614843234035e-01 -2.158136360271876e-02 1.352648345077133e-01 -1.585075915101442e-02 -2.930367041726762e-01 5.000931460335347e-01 3.568909827651359e-01 2.343033653733337e-01
            1.351608988627210e-01 -1.598123966361511e-02 1.392622830589416e-01 -2.156738954201523e-02 3.569246665502119e-01 2.343032714488797e-01 -2.930434156376105e-01 5.001312741885831e-01
            -2.930829130093091e-01 5.000785574336362e-01 3.569274143109115e-01 2.343296476082969e-01 1.457565170245269e-01 -5.007577775649645e-03 1.352918432862731e-01 -5.576872360275722e-03
            3.568942609239464e-01 2.343021654604207e-01 -2.930095435623208e-01 5.001158168468093e-01 1.352712850790824e-01 -5.581794108543559e-03 1.457648211634805e-01 -4.959920402641745e-03
100067500.0000000000 1.227467789271495e-01 -5.297948359190400e-02 1.129760267786818e-01 -4.635663980183530e-02 -1.051163829575543e-01 5.714784914619020e-01 4.154116815184037e-01 1.016025659469802e-01
            1.130047038044081e-01 -4.639014046447917e-02 1.226767738488628e-01 -5.295540750694405e-02 4.154399040007196e-01 1.016998271924399e-01 -1.050350234053046e-01 5.713750487119565e-01
            -1.050999175703019e-01 5.713918724484022e-01 4.153898382999708e-01 1.015835636203516e-01 1.313801810881175e-01 -3.372819399848988e-02 1.194911224883224e-01 -3.715899088449776e-02
            4.153721468592735e-01 1.015818277012119e-01 -1.051793783233594e-01 5.714526191296766e-01 1.194549674046900e-01 -3.712694768960048e-02 1.313842446987749e-01 -3.372919416548886e-02
100900000.0000000000 8.967608065302400e-02 -6.681707219784906e-02 7.562921558460030e-02 -5.546351881235700e-02 9.978921845753307e-02 5.740799897666752e-01 4.295976216275094e-01 -4.345391560000934e-02
            7.569154871297340e-02 -5.552647965705283e-02 8.966782122468232e-02 -6.677827549697496e-02 4.296363191480702e-01 -4.347685782248855e-02 9.975480553301505e-02 5.740567100967318e-01
            9.968682529931779e-02 5.740461554795111e-01 4.295369467123109e-01 -4.345640806521955e-02 1.015261144448361e-01 -4.637106316903406e-02 8.650577914334777e-02 -5.146794098156192e-02
            4.296040898486234e-01 -4.350067155464402e-02 9.976342656325414e-02 5.740738059433301e-01 8.656468940797568e-02 -5.149965366452491e-02 1.015103109070086e-01 -4.636743444885937e-02
101732500.0000000000 5.524366124920354e-02 -5.536414239641440e-02 4.069113458248858e-02 -3.751050286385544e-02 2.948882015680158e-01 5.022100099707143e-01 3.956426580458939e-01 -1.896319354628253e-01
            4.071437266483823e-02 -3.741955553857879e-02 5.524565832948396e-02 -5.537531815613708e-02 3.957142100844723e-01 -1.895431524654716e-01 2.948769975377284e-01 5.022685597091348e-01
            2.949343393563461e-01 5.022371939122856e-01 3.957395526110609e-01 -1.895698527548975e-01 6.990345026295829e-02 -3.557268295752049e-02 5.128536655429729e-02 -4.064031396176496e-02
            3.957229667184204e-01 -1.896703565064912e-01 2.949500950651603e-01 5.022276600182705e-01 5.133230148508473e-02 -4.062078079364748e-02 6.990983289114847e-02 -3.560054544816741e-02
102565000.0000000000 3.777036290677112e-02 -2.360081490239504e-02 2.669253373939614e-02 1.983878717017527e-04 4.500544380503393e-01 3.634429935294444e-01 3.106113039625146e-01 -3.205517929117924e-01
            2.659422373163273e-02 2.136475288748150e-04 3.781229965477908e-02 -2.360686167707843e-02 3.105704067411832e-01 -3.205702315661421e-01 4.501155705796688e-01 3.634615762093452e-01
            4.500768985443567e-01 3.634948578845150e-01 3.105910616035504e-01 -3.206403143426712e-01 5.315315940702785e-02 -5.210104128726818e-03 3.155482221758065e-02 -8.360719046667008e-03
            3.105405105004798e-01 -3.206221225404428e-01 4.501031713980119e-01 3.634679706944915e-01 3.164416759407579e-02 -8.367083809883396e-03 5.315971070185729e-02 -5.307059536252170e-03
103397500.0000000000 4.723924934909442e-02 1.126017548132564e-02 4.230944307644102e-02 3.778137431574640e-02 5.418807013559130e-01 1.806291033682004e-01 1.793578675800954e-01 -4.147500198583686e-01
            4.229514541038371e-02 3.780290283427890e-02 4.718278571132326e-02 1.134585494049561e-02 1.793403160213749e-01 -4.146978116192461e-01 5.419620120849095e-01 1.805861079764830e-01
            5.419462196489436e-01 1.805525534097192e-01 1.793147648786507e-01 -4.147290016381500e-01 6.106554210375419e-02 2.948080312245744e-02 3.812988037240418e-02 2.945477481742774e-02
            1.792910913852637e-01 -4.147462855122722e-01 5.419337939829625e-01 1.806338913763514e-01 3.809066571717841e-02 2.948091670726456e-02 6.108544180114508e-02 2.946181934946920e-02
104230000.0000000000 7.849274156862328e-02 2.993324890435407e-02 7.963142644268940e-02 5.468764456325944e-02 5.625203955548382e-01 -1.676936305259598e-02 2.013156767811454e-02 -4.531520005488970e-01
            7.960910007737611e-02 5.462133036832871e-02 7.840309035090748e-02 2.995292091108502e-02 2.021723298917020e-02 -4.532976042846598e-01 5.624829509339165e-01 -1.670767299808617e-02
            5.625218653243147e-01 -1.676941233881377e-02 2.014732454976334e-02 -4.532249829086933e-01 8.970284781403547e-02 5.097568096890943e-02 6.791121472244686e-02 5.374816064808557e-02
            2.013237359218189e-02 -4.532221733153586e-01 5.624749710619591e-01 -1.677744616400825e-02 6.783866497739770e-02 5.381471796489504e-02 8.972280848764361e-02 5.092913710935453e-02
105062500.0000000000 1.146493995241208e-01 2.249545184803486e-02 1.188166080378922e-01 4.199066793843049e-02 5.170491957083748e-01 -2.034563658898916e-01 -1.403375953996603e-01 -4.298110211244126e-01
            1.188003844344214e-01 4.194736054808115e-02 1.146894838661778e-01 2.238545182688441e-02 -1.403320816316334e-01 -4.298717213674298e-01 5.169828604688087e-01 -2.034591613374365e-01
            5.170410866204581e-01 -2.033593293063096e-01 -1.403225877206437e-01 -4.298322933388611e-01 1.248994011218174e-01 5.000610218715996e-02 1.056376467745427e-01 5.391659211359494e-02
            -1.403055671765787e-01 -4.298036555008884e-01 5.170231867375757e-01 -2.034649219675521e-01 1.056966375810401e-01 5.397137782974873e-02 1.248150490903614e-01 5.006694726506589e-02
105895000.0000000000 1.384786848923785e-01 -7.634980517808481e-03 1.407049241399005e-01 5.966448313217580e-03 4.157760995926392e-01 -3.624559901851561e-01 -2.784571473057999e-01 -3.523714705870326e-01
            1.406848066913545e-01 5.990579265849311e-03 1.384633249504039e-01 -7.593064992775497e-03 -2.783697988001174e-01 -3.523546141982267e-01 4.158492658680734e-01 -3.624590534033504e-01
            4.158150975187241e-01 -3.623528852568686e-01 -2.783255361299237e-01 -3.523079553639830e-01 1.511865104876212e-01 2.969284805581338e-02 1.351881635418108e-01 3.149089199400870e-02
            -2.783396988408031e-01 -3.523306686081844e-01 4.158475040706950e-01 -3.624306453511081e-01 1.351803352486474e-01 3.142200201712483e-02 1.511934901301701e-01 2.959351436372702e-02
106727500.0000000000 1.391982223873183e-01 -4.817481016198890e-02 1.345633196683783e-01 -3.729998172769132e-02 2.694099309762547e-01 -4.806878886823934e-01 -3.791536800265681e-01 -2.358691910574582e-01
            1.345705803473600e-01 -3.730985328356062e-02 1.392620844557520e-01 -4.808972767464416e-02 -3.791086206881474e-01 -2.358581918132330e-01 2.694917028169854e-01 -4.805803407117621e-01
            2.694072369885400e-01 -4.805985183982645e-01 -3.791437526498216e-01 -2.359231674634193e-01 1.602116468702840e-01 2.325135272065848e-05 1.456841270967348e-01 -3.286702461505767e-03
            -3.791521729706085e-01 -2.358643334541959e-01 2.694273780070525e-01 -4.805534119253772e-01 1.456859065675216e-01 -3.235834003189599e-03 1.601952573766708e-01 4.874698663538508e-05
107560000.0000000000 1.149437726593942e-01 -8.359520759128716e-02 1.012149631132143e-01 -6.959262597258538e-02 9.005088995794025e-02 -5.452881153507309e-01 -4.360528360888530e-01 -9.555723130083692e-02
            1.012197565618824e-01 -6.948614936515031e-02 1.149838876609222e-01 -8.358731651342331e-02 -4.360447692637130e-01 -9.560350882460725e-02 8.999415010972134e-02 -5.452531447043381e-01
            9.002089064041841e-02 -5.452140253271027e-01 -4.360800191551629e-01 -9.566176645411401e-02 1.513004533869404e-01 -2.618248823787329e-02 1.344359359396624e-01 -3.662928036727120e-02
            -4.360621389402995e-01 -9.562780460594657e-02 9.002850012097863e-02 -5.452323595409214e-01 1.344364159328482e-01 -3.661973354543193e-02 1.513748744928085e-01 -2.617042913233458e-02
108392500.0000000000 7.265375914244750e-02 -9.982888223711481e-02 5.183512823764552e-02 -7.540190337141478e-02 -1.044738365452735e-01 -5.448450486710256e-01 -4.460771546809301e-01 5.559259150840357e-02
            5.185809404929141e-02 -7.531999170819480e-02 7.267219628964959e-02 -9.980060451361575e-02 -4.460857372185145e-01 5.567661465423213e-02 -1.044524162784320e-01 -5.447571728105598e-01
            -1.044872084845991e-01 -5.447850124465803e-01 -4.460351781245331e-01 5.566418704051422e-02 1.312803028705140e-01 -3.923030014234611e-02 1.070377598630309e-01 -5.673739317448277e-02
            -4.461082579214132e-01 5.566006051302964e-02 -1.044606478443516e-01 -5.447435333709280e-01 1.070548785393872e-01 -5.670652073026651e-02 1.312549456682616e-01 -3.921369063601051e-02
109225000.0000000000 2.757949251525672e-02 -8.893903498680314e-02 5.890855035637335e-03 -4.838854932933673e-02 -2.890576079105726e-01 -4.739701919234217e-01 -4.063501617716677e-01 2.053362650413831e-01
            5.918723235554066e-03 -4.839503273031615e-02 2.752695862635784e-02 -8.897437259450323e-02 -4.063661803674583e-01 2.053457226419584e-01 -2.889491055401464e-01 -4.739025312812216e-01
            -2.889557457797663e-01 -4.739419330464860e-01 -4.062878114571744e-01 2.053452337156772e-01 1.119469341010561e-01 -3.535776824249592e-02 7.524100302643788e-02 -5.665780016651295e-02
            -4.063188148416970e-01 2.054159667137845e-01 -2.889296580146098e-01 -4.738743694816330e-01 7.521103387913511e-02 -5.670373670261960e-02 1.118867539048179e-01 -3.537354270077483e-02
110057500.0000000000 -2.675065768650372e-03 -5.463343858536543e-02 -1.544540305507343e-02 3.244372891699747e-03 -4.353654926109082e-01 -3.400324153614246e-01 -3.157723302203180e-01 3.372790664305056e-01
            -1.539017678305757e-02 3.285280566823432e-03 -2.655211609905646e-03 -5.464907601702515e-02 -3.156480306671197e-01 3.372211870199116e-01 -4.353767809021522e-01 -3.401013017442028e-01
            -4.354146178046197e-01 -3.400181462084500e-01 -3.156767601326251e-01 3.372423822931908e-01 1.050597062440206e-01 -2.008013749421876e-02 5.255244650892043e-02 -3.929876719079363e-02
            -3.156587386099122e-01 3.372436584414117e-01 -4.354579671843212e-01 -3.400886319613332e-01 5.257590852656165e-02 -3.928621193924542e-02 1.051455880493880e-01 -2.005143702913816e-02
110890000.0000000000 -6.729272263815601e-03 -1.254588861874014e-02 -1.135160705466716e-03 5.857223784392201e-02 -5.216980481556052e-01 -1.642507920010551e-01 -1.803736704800828e-01 4.310006354719065e-01
            -1.079103235328705e-03 5.862526701392307e-02 -6.775249668320170e-03 -1.254876105412858e-02 -1.803663871649724e-01 4.309705425973352e-01 -5.216723577132482e-01 -1.641897926058164e-01
            -5.217060221292671e-01 -1.641694812828949e-01 -1.803567460961001e-01 4.309749846184936e-01 1.157756343876949e-01 -6.618098661471616e-03 4.710594571116399e-02 -1.582312168848930e-02
            -1.803813945581835e-01 4.310292772348239e-01 -5.217158005917988e-01 -1.641875006261495e-01 4.721228262014950e-02 -1.584201556131419e-02 1.158161029740817e-01 -6.617208821759795e-03
111722500.0000000000 1.203330559308873e-02 1.883900257004262e-02 4.296615258003401e-02 9.419891530440558e-02 -5.396010379408878e-01 2.620497654795708e-02 -1.813458644324020e-02 4.695659585231863e-01
            4.296409666894319e-02 9.417658803362980e-02 1.203649495061578e-02 1.875234611137947e-02 -1.816173798583959e-02 4.695718924246541e-01 -5.395947402417917e-01 2.620696259205225e-02
            -5.395520667149498e-01 2.627192613548812e-02 -1.817565101949558e-02 4.695574638170801e-01 1.373918978235822e-01 -8.087450560130039e-03 5.635252615069075e-02 4.401416694046966e-04
            -1.815743085229304e-02 4.696311298482976e-01 -5.396133069727326e-01 2.621113760072956e-02 5.640795944020341e-02 5.310485325181012e-04 1.373750454020796e-01 -8.044742161032861e-03
112555000.0000000000 3.956131581086759e-02 2.936193009044380e-02 9.717904723598959e-02 9.698214883920990e-02 -4.926638707251995e-01 2.067049340239245e-01 1.464699721503804e-01 4.470425050892022e-01
            9.724612916911736e-02 9.698232314250900e-02 3.955080817498949e-02 2.947352278179546e-02 1.464313860331816e-01 4.471029244859615e-01 -4.926967849076233e-01 2.066552151461281e-01
            -4.927733761888504e-01 2.067643716752656e-01 1.465148865529755e-01 4.470227596297285e-01 1.556479812366884e-01 -2.884207779152238e-02 6.995228084866294e-02 3.226643955834871e-03
            1.465721631198269e-01 4.470534274774882e-01 -4.927017765490818e-01 2.066786600049353e-01 6.989966215062392e-02 3.236591624211100e-03 1.556571683043191e-01 -2.876466012033350e-02
113387500.0000000000 6.036889413516148e-02 2.131275108274000e-02 1.401191693467032e-01 6.960048107698150e-02 -3.904070207116095e-01 3.592818271323445e-01 2.909340122167410e-01 3.693187442363223e-01
            1.401935250615735e-01 6.965898044837099e-02 6.033602118501406e-02 2.140862260769381e-02 2.909046753009835e-01 3.694316682820339e-01 -3.904594956796050e-01 3.591801299218428e-01
            -3.904542854626399e-01 3.591658727711798e-01 2.908835485980499e-01 3.693886416892759e-01 1.574210340828138e-01 -6.256614636630492e-02 7.698280545795871e-02 -5.091735284933515e-03
            2.909321697579155e-01 3.693319216969656e-01 -3.903869927334704e-01 3.591440503380756e-01 7.700622140291992e-02 -5.078818188321916e-03 1.574592451653122e-01 -6.259648973740263e-02
114220000.0000000000 6.538717559292408e-02 5.219222419783042e-03 1.577083561483868e-01 2.601468387481681e-02 -2.439585449352973e-01 4.693547462252723e-01 3.995754713290287e-01 2.492373355269246e-01
            1.576410538971633e-01 2.598423393718760e-02 6.539470492060520e-02 5.276638232169658e-03 3.995857305442584e-01 2.492729277864627e-01 -2.440168022088904e-01 4.693817095383801e-01
            -2.440426003990055e-01 4.693948701444627e-01 3.996422567281019e-01 2.491793568769115e-01 1.367364247885000e-01 -9.578202504628364e-02 7.189164618918252e-02 -1.585123376081020e-02
            3.996067650889547e-01 2.491934138392749e-01 -2.440442814767443e-01 4.693724095704513e-01 7.193774308096798e-02 -1.580364740994231e-02 1.367855445974338e-01 -9.585988267155511e-02
115052500.0000000000 5.465107125381103e-02 -5.913069534093397e-03 1.468988270347873e-01 -1.530871116036255e-02 -6.747410201751823e-02 5.244024241801641e-01 4.633003366892408e-01 1.002682769325594e-01
            1.469059991811122e-01 -1.528356527201551e-02 5.455889336833311e-02 -5.802962180582544e-03 4.633085152122653e-01 1.002295285623698e-01 -6.747455655060441e-02 5.242569767593670e-01
            -6.749490202668004e-02 5.242998146318537e-01 4.632855367850965e-01 1.003297493231618e-01 9.730143426785433e-02 -1.139317261935121e-01 5.622803697629696e-02 -1.886007473899336e-02
            4.632359230687980e-01 1.002653878983845e-01 -6.750429974203437e-02 5.243524556323331e-01 5.623303660447340e-02 -1.887491935174671e-02 9.727217609653280e-02 -1.138760239164082e-01
115885000.0000000000 3.597001454903519e-02 -2.043327038335038e-03 1.164159415452774e-01 -3.836708034459011e-02 1.190896428275656e-01 5.140392352529640e-01 4.751118209108893e-01 -6.380799132345903e-02
            1.163224269216311e-01 -3.835178205721665e-02 3.590352743646470e-02 -2.033759177783083e-03 4.750673320853786e-01 -6.380602112188438e-02 1.190555852634208e-01 5.140603004898161e-01
            1.191167437057517e-01 5.140030477111157e-01 4.750421918621984e-01 -6.377397069980428e-02 5.152529129279695e-02 -1.067414365507936e-01 3.846893054489330e-02 -7.195976997977147e-03
            4.751506832795984e-01 -6.374598898012009e-02 1.190820232044233e-01 5.140242527841800e-01 3.844033645225880e-02 -7.282311403334809e-03 5.154838453764988e-02 -1.067563907823479e-01
116717500.0000000000 2.301207193952496e-02 1.893850021798112e-02 8.275836389813405e-02 -3.585445772328400e-02 2.900497066285021e-01 4.371510758789084e-01 4.297393404786501e-01 -2.266149214906186e-01
            8.279072149514746e-02 -3.585496544143188e-02 2.294982153933750e-02 1.897431628111452e-02 4.297541546175121e-01 -2.265897537443642e-01 2.901381652346594e-01 4.372050891473692e-01
            2.899955617666454e-01 4.371558011305967e-01 4.298079177044414e-01 -2.266404990331420e-01 1.700217110616005e-02 -7.427175011245184e-02 3.069967232405273e-02 1.828647916081665e-02
            4.297532139929376e-01 -2.265584012937994e-01 2.900000962371765e-01 4.371309656190794e-01 3.073854366325290e-02 1.832428003303725e-02 1.711161822676561e-02 -7.429798923136102e-02
117550000.0000000000 2.785054152769148e-02 4.902389415948413e-02 6.335852142119948e-02 -1.382012198503727e-02 4.199795380637015e-01 3.048911352390255e-01 3.271105895323717e-01 -3.668833437395193e-01
            6.331903717872972e-02 -1.373083140545403e-02 2.787036546766027e-02 4.892690851081385e-02 3.270356354172971e-01 -3.668310532039118e-01 4.199904057481328e-01 3.048761589731646e-01
            4.200539889555552e-01 3.048856390246135e-01 3.270764537871373e-01 -3.668940616689139e-01 7.917079134444520e-03 -2.895859029471612e-02 4.236465914074954e-02 4.732532594751328e-02
            3.270480301489441e-01 -3.668271421853113e-01 4.200186499711873e-01 3.049103937983830e-01 4.242040216283312e-02 4.729170019662018e-02 7.890430035304163e-03 -2.898336161574879e-02
118382500.0000000000 5.307816153726769e-02 7.254615201976361e-02 6.603705896601195e-02 1.211764237070494e-02 4.926112842910122e-01 1.390825730536932e-01 1.778807250918810e-01 -4.613673204167101e-01
            6.601931883904938e-02 1.215534801851539e-02 5.308567798531256e-02 7.238326104537099e-02 1.777468786150787e-01 -4.613776383701380e-01 4.925910053466434e-01 1.391352127193693e-01
            4.926129489512439e-01 1.391145129992549e-01 1.778190427937080e-01 -4.614380375267799e-01 2.632369800569685e-02 1.014680103471310e-02 7.226528161674477e-02 6.467302280006913e-02
            1.778471866421125e-01 -4.613923826404669e-01 4.926429831031735e-01 1.390833664495524e-01 7.216934882367354e-02 6.464784438730395e-02 2.642258592299212e-02 1.019566197365819e-02
119215000.0000000000 8.954307110028260e-02 7.653654783046707e-02 8.566585992105896e-02 2.596449957720277e-02 5.039881763873628e-01 -3.649434451223758e-02 4.450377631559001e-03 -4.946478133808184e-01
            8.566999200181437e-02 2.593327043586572e-02 8.956343186946707e-02 7.650496377234550e-02 4.488636288746566e-03 -4.946057327974720e-01 5.040075314312751e-01 -3.646540537664075e-02
            5.040939289287167e-01 -3.642583382667480e-02 4.375043967878731e-03 -4.946388596206238e-01 6.125869054815714e-02 2.781830708763575e-02 1.082638492562710e-01 6.009872914713670e-02
            4.440275097084501e-03 -4.945737875146218e-01 5.039969822404401e-01 -3.643486312588470e-02 1.081542369094841e-01 6.006129227666276e-02 6.132816084741666e-02 2.781353196440045e-02
120047500.0000000000 1.218120640743861e-01 5.842358013936710e-02 1.087143508762244e-01 2.090404334227898e-02 4.582011796077611e-01 -2.025463710194122e-01 -1.668990763598983e-01 -4.639838578169085e-01
            1.087520889308954e-01 2.091914808325739e-02 1.218594136091249e-01 5.830816205876087e-02 -1.669661819509348e-01 -4.639391714781263e-01 4.581806234237986e-01 -2.025246429718726e-01
            4.581248598566102e-01 -2.025761804614883e-01 -1.669014872012944e-01 -4.639983919941573e-01 9.540174787432931e-02 2.025417110869622e-02 1.347692913036933e-01 3.469906647441271e-02
            -1.669792371666398e-01 -4.639774911713716e-01 4.581932685446117e-01 -2.025449070096460e-01 1.347380198680801e-01 3.467626852209593e-02 9.541420399428552e-02 2.030827414661374e-02
120880000.0000000000 1.371757945566888e-01 2.530894892698585e-02 1.218491964949983e-01 4.907296390631172e-04 3.618144592592272e-01 -3.441487219162767e-01 -3.146650414207477e-01 -3.779152395220614e-01
            1.218339168165995e-01 4.222495706660368e-04 1.372070657093108e-01 2.527421288922559e-02 -3.145987786946774e-01 -3.779187796623170e-01 3.619397005156080e-01 -3.440982584341989e-01
            3.618379655615901e-01 -3.440778618854818e-01 -3.146169631730302e-01 -3.778893194082583e-01 1.142169298216960e-01 -5.271062643095403e-03 1.410312190872722e-01 -1.496622808219262e-03
            -3.145728016838277e-01 -3.779192451720900e-01 3.618892776277258e-01 -3.440480525559274e-01 1.410583789284586e-01 -1.441805464591054e-03 1.142098466318284e-01 -5.271747313261059e-03
121712500.0000000000 1.301845787732606e-01 -9.046834859207525e-03 1.174062882814853e-01 -2.490112097509319e-02 2.231339477238024e-01 -4.472308483752088e-01 -4.241082509478050e-01 -2.496156521386239e-01
            1.174157527294653e-01 -2.488907721030076e-02 1.302010028601492e-01 -9.053184183753336e-03 -4.241455688563254e-01 -2.495291798516917e-01 2.231285453571880e-01 -4.472012605629107e-01
            2.231339340184156e-01 -4.471000483781025e-01 -4.240944946346882e-01 -2.495019285413714e-01 1.108872448678700e-01 -3.514645241694713e-02 1.246743581231503e-01 -3.385640521617653e-02
            -4.241283493291269e-01 -2.495350390074348e-01 2.231072085456372e-01 -4.471245675312697e-01 1.246293790169121e-01 -3.388450201329554e-02 1.108262000264157e-01 -3.520802945555181e-02
122545000.0000000000 1.042861131800970e-01 -3.085712761893023e-02 9.605065570854923e-02 -4.220293198266326e-02 5.476709569123429e-02 -4.976617498328311e-01 -4.864350235642305e-01 -9.248540007188805e-02
            9.606900589061045e-02 -4.217984777722899e-02 1.043453728980926e-01 -3.093771653081488e-02 -4.863990762995533e-01 -9.248341849974562e-02 5.482963322127499e-02 -4.976478102479762e-01
            5.479305035448085e-02 -4.977043796860959e-01 -4.863889285177403e-01 -9.255902559012848e-02 8.795575110422219e-02 -5.451620201216181e-02 9.204974088656977e-02 -4.966060595957245e-02
            -4.863796777051673e-01 -9.246020937518933e-02 5.480674252688980e-02 -4.977587091560579e-01 9.194836133018189e-02 -4.965079254262374e-02 8.796615400120947e-02 -5.459047817447939e-02
123377500.0000000000 7.131928087348580e-02 -3.070609974717010e-02 6.687863377821840e-02 -4.118003510322875e-02 -1.229614621700095e-01 -4.848604726157642e-01 -4.942605249027235e-01 7.932321159492764e-02
            6.688837239839281e-02 -4.120045897242283e-02 7.141499327921630e-02 -3.074381473134807e-02 -4.941445035522609e-01 7.932847099983661e-02 -1.230627427545121e-01 -4.848114852053421e-01
            -1.229638360279125e-01 -4.849019667397635e-01 -4.942189223167706e-01 7.935275676810682e-02 5.692425041738883e-02 -5.291553960350528e-02 5.660957937981448e-02 -4.130480252393181e-02
            -4.942156183925552e-01 7.935566382897402e-02 -1.229928167386058e-01 -4.848627316295424e-01 5.661204729234630e-02 -4.130049732154247e-02 5.682781744027388e-02 -5.286023700265371e-02
124210000.0000000000 4.757140059209813e-02 -8.687582271858488e-03 4.473308680514929e-02 -2.035892422485810e-02 -2.841627957384856e-01 -4.076720765735067e-01 -4.417849071914217e-01 2.482867826183080e-01
            4.467415404422163e-02 -2.041834731462327e-02 4.744139192235750e-02 -8.732811501830817e-03 -4.417695811624670e-01 2.482066189074052e-01 -2.841814548653104e-01 -4.075630294505975e-01
            -2.841385448834793e-01 -4.075993065425379e-01 -4.417623233010749e-01 2.482693476677690e-01 3.411564920551163e-02 -2.947468551920315e-02 3.494194112271493e-02 -1.195510564032184e-02
            -4.417674038577076e-01 2.482626241718978e-01 -2.841966564852522e-01 -4.076141528945642e-01 3.490280549246356e-02 -1.185568865210028e-02 3.417875473987710e-02 -2.955093529279445e-02
125042500.0000000000 4.536086265185547e-02 2.367173720690590e-02 4.211037477667257e-02 1.042240431420749e-02 -4.040936085479320e-01 -2.785881497643646e-01 -3.298942957830858e-01 3.909621115011058e-01
            4.202036799195862e-02 1.040141752558433e-02 4.526275824187199e-02 2.364448221704823e-02 -3.299297541340965e-01 3.909476811439465e-01 -4.040966949560769e-01 -2.786409432545539e-01
            -4.040370357943174e-01 -2.786664050714451e-01 -3.298788087675227e-01 3.909633910344781e-01 3.284408594713960e-02 3.976695014848963e-03 3.822066280524669e-02 2.436286114882021e-02
            -3.299516569993138e-01 3.909832338435531e-01 -4.040401267418837e-01 -2.786592794409742e-01 3.825137729819881e-02 2.439096614762837e-02 3.281685063379988e-02 3.988230163450670e-03
125875000.0000000000 6.592763525874748e-02 4.881026995113665e-02 6.053383866457560e-02 3.511530474189298e-02 -4.681993201274798e-01 -1.201512187426504e-01 -1.717895092138209e-01 4.839497268238432e-01
            6.056335171894163e-02 3.519160169190920e-02 6.590546818667932e-02 4.885850314436153e-02 -1.717541470794563e-01 4.839744258425988e-01 -4.682224643678078e-01 -1.200288974214527e-01
            -4.682865996244000e-01 -1.200701781072282e-01 -1.717754469570443e-01 4.838505600178824e-01 5.390603935946306e-02 3.010076610820911e-02 6.446058216014876e-02 4.898368855182868e-02
            -1.717835853290170e-01 4.838768014002292e-01 -4.681343438709819e-01 -1.200925457737327e-01 6.451865578474923e-02 4.907076817170553e-02 5.386708102453568e-02 3.017884727116414e-02
126707500.0000000000 9.789114254426007e-02 5.378783188163690e-02 9.037157868485320e-02 4.116028912039221e-02 -4.747530080643214e-01 4.553326768651534e-02 8.487444906107101e-03 5.126857531119803e-01
            9.033951573886512e-02 4.115942567408371e-02 9.790732501572101e-02 5.389467882093984e-02 8.520560230242485e-03 5.126442539383819e-01 -4.746858394804965e-01 4.547427557207211e-02
            -4.746448428965903e-01 4.554971992694595e-02 8.500896344568196e-03 5.126197850814527e-01 8.619895581090901e-02 3.620876599585232e-02 9.991488890395764e-02 5.035218208101317e-02
            8.500464741653125e-03 5.127047911698833e-01 -4.746001603897420e-01 4.562103556386562e-02 9.989840131125659e-02 5.031983468463819e-02 8.617463319129035e-02 3.618202471070343e-02
127540000.0000000000 1.255187781482175e-01 3.703363205955066e-02 1.163347912564676e-01 2.660116420256417e-02 -4.279573680789968e-01 2.009868382466718e-01 1.842029878668693e-01 4.762351663404364e-01
            1.162929158624764e-01 2.662237909529660e-02 1.255410601705045e-01 3.703750884126387e-02 1.842523935652068e-01 4.762593335108017e-01 -4.279133033273221e-01 2.009615692720965e-01
            -4.277827936058226e-01 2.008313921127150e-01 1.843236747749518e-01 4.761887894532633e-01 1.139626704791574e-01 2.071303481167466e-02 1.272468770001739e-01 2.882437407379449e-02
            1.843336428825034e-01 4.762877743757369e-01 -4.279280548902130e-01 2.009822777984785e-01 1.273212095156085e-01 2.891546741954566e-02 1.139944021407937e-01 2.077592976967016e-02
128372500.0000000000 1.364069776623243e-01 6.868882396711760e-03 1.267292881288813e-01 -1.205103271488239e-03 -3.340202629919636e-01 3.326804179090047e-01 3.343272194797915e-01 3.839444112356930e-01
            1.267511869657826e-01 -1.292479035749492e-03 1.363947497617950e-01 6.824926240031784e-03 3.344269849244837e-01 3.840059627568005e-01 -3.341293913170831e-01 3.326044743235877e-01
            -3.340290652252046e-01 3.326254855623880e-01 3.344173201134881e-01 3.839141241163453e-01 1.251847627327452e-01 -8.051267235108756e-03 1.346914555482799e-01 -4.813993564783832e-03
            3.343879628790078e-01 3.839051479598831e-01 -3.340792962356433e-01 3.326467391070013e-01 1.347578791055469e-01 -4.837212454329681e-03 1.252058099986662e-01 -8.015166770209369e-03
129205000.0000000000 1.259656163334339e-01 -2.350110172306524e-02 1.169223865657345e-01 -2.949987833034548e-02 -2.006619572906119e-01 4.272246016210983e-01 4.448818994587351e-01 2.490336199841562e-01
            1.169802239089990e-01 -2.942914869476726e-02 1.258788761275470e-01 -2.346399680243872e-02 4.448876451311979e-01 2.490626053698413e-01 -2.006420380960846e-01 4.271992952703158e-01
            -2.006463689213865e-01 4.271907526838392e-01 4.448848739138043e-01 2.490467836921781e-01 1.155259781953027e-01 -3.687269731855974e-02 1.194532330642009e-01 -3.555946531108867e-02
            4.448948446133746e-01 2.490328171089716e-01 -2.005731802731576e-01 4.272313014245833e-01 1.193578123526719e-01 -3.551260821586002e-02 1.155219086478141e-01 -3.687260772231500e-02
130037500.0000000000 9.864395338266199e-02 -4.036557543334707e-02 9.057073721760710e-02 -4.523451606652214e-02 -3.994874659177589e-02 4.709565564033436e-01 5.061893483870601e-01 8.494910432290448e-02
            9.062437290919967e-02 -4.525965459759872e-02 9.859784273801232e-02 -4.034513122619465e-02 5.061645525899500e-01 8.490175854588894e-02 -3.994861629590402e-02 4.709640440486751e-01
            -3.997142678161925e-02 4.709656074126551e-01 5.062204867508221e-01 8.495604837136642e-02 8.927011370210713e-02 -5.271731109495333e-02 8.785975914171486e-02 -4.986194745930610e-02
            5.062282373302924e-01 8.494874598592171e-02 -3.985806585454191e-02 4.709234210151940e-01 8.780940502039598e-02 -4.976475970690288e-02 8.922464343386999e-02 -5.270567439713958e-02
130870000.0000000000 6.677257842054624e-02 -3.555067376247069e-02 5.952968475472096e-02 -4.008723688169761e-02 1.280327611569576e-01 4.539853564320698e-01 5.103680389085564e-01 -9.366532058704859e-02
            5.949373650325501e-02 -3.995074209278080e-02 6.672244592859417e-02 -3.555989679456809e-02 5.103762751689035e-01 -9.371180183907837e-02 1.279145166902490e-01 4.539640428058688e-01
            1.278851302241698e-01 4.540407442299695e-01 5.104077542760020e-01 -9.378016931677675e-02 5.858144869180566e-02 -4.698949353872425e-02 5.405893241687669e-02 -4.021643389103781e-02
            5.104248546054835e-01 -9.377783910108890e-02 1.279214596186889e-01 4.539626716480567e-01 5.406088902984443e-02 -4.028597376281827e-02 5.844672057574073e-02 -4.699570529411200e-02
131702500.0000000000 4.607520408834344e-02 -1.070651289583433e-02 3.907314193279678e-02 -1.514239612239231e-02 2.776615751256591e-01 3.764073299402659e-01 4.515287467830115e-01 -2.676459799642923e-01
            3.899256746062153e-02 -1.512288158688765e-02 4.605189854212011e-02 -1.063887956412913e-02 4.515417493083873e-01 -2.677288693774899e-01 2.776957941781261e-01 3.764642888789869e-01
            2.776813398286614e-01 3.764513622211382e-01 4.514881207452610e-01 -2.676785603056795e-01 3.917240342868604e-02 -2.193416751187642e-02 3.468738742801566e-02 -1.083047023441334e-02
            4.514769241020546e-01 -2.676551198571923e-01 2.776854583735474e-01 3.764961943926000e-01 3.470715437630574e-02 -1.069100713996453e-02 3.918367979939440e-02 -2.188817094449662e-02
132535000.0000000000 4.754004459788140e-02 2.140059157250167e-02 4.031850085897093e-02 1.734398243644631e-02 3.865311939991663e-01 2.518754692409468e-01 3.317148937006476e-01 -4.122580885329772e-01
            4.031661489879375e-02 1.715091276911681e-02 4.753094043787933e-02 2.151800742787824e-02 3.318139659158461e-01 -4.122387387094445e-01 3.865400171574605e-01 2.518058257460674e-01
            3.865306928349918e-01 2.519111830786276e-01 3.316892336429207e-01 -4.122323072859507e-01 4.194183182728016e-02 9.815190717012836e-03 3.975260214318602e-02 2.409826677248002e-02
            3.317387152670050e-01 -4.122594626010471e-01 3.865220695194887e-01 2.519285880579329e-01 3.981904304075076e-02 2.406490441382680e-02 4.195277899576694e-02 9.835253118223542e-03
133367500.0000000000 6.997672515833470e-02 4.386485551852426e-02 6.242433576091554e-02 4.037618286106482e-02 4.425021906056656e-01 1.017243586345440e-01 1.660453579851065e-01 -5.037388583048884e-01
            6.242842039337017e-02 4.037554413419361e-02 7.002461691291478e-02 4.389645825862386e-02 1.660732331971913e-01 -5.038246324962883e-01 4.424813950533683e-01 1.016880670324069e-01
            4.424838696739319e-01 1.016734990602830e-01 1.661603753368318e-01 -5.038962294146527e-01 6.503597045050095e-02 3.123594556363402e-02 6.627779657088555e-02 4.619735576780890e-02
            1.660810775326015e-01 -5.038484853749320e-01 4.424598670420700e-01 1.016648838143682e-01 6.637686005850138e-02 4.619038767348243e-02 6.500592059026174e-02 3.131914831376607e-02
134200000.0000000000 1.010757829901417e-01 4.564004018529114e-02 9.345008941207403e-02 4.316228690953081e-02 4.445931181189657e-01 -5.364032188878934e-02 -2.011348210547879e-02 -5.289340206518579e-01
            9.332280629071937e-02 4.312500283668038e-02 1.010688839198644e-01 4.559312973567500e-02 -2.009372090727540e-02 -5.289498461126648e-01 4.446337406528946e-01 -5.362351602762546e-02
            4.445757724896878e-01 -5.357220113705159e-02 -2.010718188633289e-02 -5.289558556865344e-01 9.583795871364477e-02 3.208703321101936e-02 1.000111818464696e-01 4.529179665054811e-02
            -2.010627939221835e-02 -5.289570903152646e-01 4.446127739277370e-01 -5.365615092606510e-02 1.001062597024761e-01 4.522506036761013e-02 9.579737703999781e-02 3.206685296448423e-02
135032500.0000000000 1.251084986699145e-01 2.701683223082645e-02 1.180809493649533e-01 2.575598636808819e-02 3.974528036084967e-01 -1.985508603733011e-01 -2.001908519028977e-01 -4.878512802737689e-01
            1.180911851633062e-01 2.572637055241167e-02 1.251206615812670e-01 2.702556525780467e-02 -2.001957209737529e-01 -4.878351892238127e-01 3.974814567179007e-01 -1.985617840974344e-01
            3.974093640586784e-01 -1.985865841918810e-01 -2.001083412255541e-01 -4.878543962591701e-01 1.192484144740084e-01 1.299066188020464e-02 1.242584026328499e-01 2.308553473492550e-02
            -2.002029540903299e-01 -4.878578866860761e-01 3.975062417939055e-01 -1.985280997044320e-01 1.243856006962095e-01 2.309317044077557e-02 1.192518400058777e-01 1.289061281905763e-02
135865000.0000000000 1.315893547441688e-01 -2.390297282312645e-03 1.256641419349772e-01 -2.882955413555344e-03 3.061726951258252e-01 -3.205664261950835e-01 -3.533322198055195e-01 -3.899567828115441e-01
            1.256656680256578e-01 -2.857429754015671e-03 1.316815485336547e-01 -2.378344294830865e-03 -3.533358548587023e-01 -3.900430599469419e-01 3.062229157300806e-01 -3.205698275590672e-01
            3.061419201622296e-01 -3.205597865359383e-01 -3.533458497793914e-01 -3.900272189559503e-01 1.246295425984168e-01 -1.647983671865943e-02 1.285254828942343e-01 -9.063630372776982e-03
            -3.533007017040701e-01 -3.900916617569175e-01 3.061828798974041e-01 -3.206426576493119e-01 1.286013580458309e-01 -9.076857857781553e-03 1.246033915988818e-01 -1.657501045432603e-02
136697500.0000000000 1.178620243556563e-01 -2.920176449794954e-02 1.133088908402993e-01 -2.947906001556705e-02 1.778201742399746e-01 -4.065798018068902e-01 -4.653851087909337e-01 -2.484333911892609e-01
            1.132554743380380e-01 -2.947553691552648e-02 1.177545300463718e-01 -2.909052685682994e-02 -4.653665354078552e-01 -2.484608560083801e-01 1.778782335465250e-01 -4.065537268573700e-01
            1.778191618773372e-01 -4.065776595963290e-01 -4.653938161102109e-01 -2.485307092268983e-01 1.097653657629157e-01 -4.284325100903077e-02 1.109978065830227e-01 -3.645742911759075e-02
            -4.654262805162739e-01 -2.484954348682316e-01 1.779212689291984e-01 -4.065873401417907e-01 1.109649611276334e-01 -3.655207718539904e-02 1.097438541264101e-01 -4.276404074029004e-02
137530000.0000000000 8.960897405578336e-02 -4.068951299796831e-02 8.629752474842674e-02 -4.167267206658916e-02 2.488746418960986e-02 -4.431753064964806e-01 -5.259313105454516e-01 -7.676049783421490e-02
            8.626064156845019e-02 -4.166420457830293e-02 8.955578955726917e-02 -4.067307500347489e-02 -5.258923051240064e-01 -7.682135826817757e-02 2.498443885248120e-02 -4.432764962792659e-01
            2.496808990399077e-02 -4.431978116963720e-01 -5.259063881603016e-01 -7.677486077217872e-02 8.069426113053445e-02 -5.362945079615654e-02 7.935512987535653e-02 -4.635138660914929e-02
            -5.259932154063582e-01 -7.676669127579314e-02 2.505154008299685e-02 -4.432335537168590e-01 7.928277712326093e-02 -4.630351323509121e-02 8.068555161940628e-02 -5.353639592162521e-02
138362500.0000000000 6.012881222936071e-02 -3.061331808793874e-02 5.755986929567131e-02 -3.281911209857431e-02 -1.324171455934267e-01 -4.216051000820961e-01 -5.258699373649864e-01 1.091235746865473e-01
            5.761669730726530e-02 -3.285817313201532e-02 6.019514837877497e-02 -3.061573339947271e-02 -5.259205013685462e-01 1.091664941579693e-01 -1.323504779342591e-01 -4.217242581377088e-01
            -1.324040059879840e-01 -4.215784123074446e-01 -5.259380979739232e-01 1.091221733629604e-01 5.072006384653392e-02 -4.223948698852675e-02 4.822890880458334e-02 -3.250819834936072e-02
            -5.259124885188576e-01 1.090687195268107e-01 -1.324174621638423e-01 -4.217678778090470e-01 4.820978206592216e-02 -3.253416663006928e-02 5.077224629400909e-02 -4.235940792388916e-02
139195000.0000000000 4.496938653327172e-02 -2.912654010187748e-03 4.216068649773087e-02 -6.558952178324196e-03 -2.697029960810773e-01 -3.440528492275233e-01 -4.596704670905974e-01 2.880560192864850e-01
            4.217000877016835e-02 -6.710972956073549e-03 4.489871371294285e-02 -3.037068825223858e-03 -4.597339410341059e-01 2.879539340777578e-01 -2.697395872825756e-01 -3.440714330606566e-01
            -2.697193040684269e-01 -3.440603277633629e-01 -4.597748937569582e-01 2.879678149606163e-01 3.528066301161829e-02 -1.361216511978179e-02 3.374541031500632e-02 -9.414864359609985e-04
            -4.597697761667579e-01 2.879343065657009e-01 -2.697600522369737e-01 -3.441081687813525e-01 3.369827855940543e-02 -9.069904640300764e-04 3.530643167780168e-02 -1.367515325845542e-02
140027500.0000000000 5.231934662139810e-02 2.801051661908403e-02 4.872110308482989e-02 2.303453713861895e-02 -3.667939363337323e-01 -2.247214856647316e-01 -3.314531003734929e-01 4.334372315489384e-01
            4.867328479482236e-02 2.315859102776349e-02 5.223361640983352e-02 2.796966455826778e-02 -3.313949966453497e-01 4.335212419475352e-01 -3.668446452083087e-01 -2.247775657282386e-01
            -3.668921597619893e-01 -2.247352085846208e-01 -3.314410385521732e-01 4.335940453394161e-01 4.272559588066212e-02 1.819171446144465e-02 4.397194955511621e-02 3.264053430963099e-02
            -3.313790563577445e-01 4.335520789886051e-01 -3.667893852166401e-01 -2.247582312931359e-01 4.398615359099388e-02 3.267636502648551e-02 4.283090813709654e-02 1.822436311267914e-02
140860000.0000000000 7.841480481208471e-02 4.587774120045392e-02 7.331078457796995e-02 4.042222040513505e-02 -4.145124799173707e-01 -8.408397436995579e-02 -1.582907152826751e-01 5.225126202106326e-01
            7.338244788321265e-02 4.036948618570132e-02 7.840845437895344e-02 4.595850660037989e-02 -1.582542480087253e-01 5.224477664101776e-01 -4.145469816995705e-01 -8.401663723026045e-02
            -4.145100031609614e-01 -8.397185744138407e-02 -1.582955081217651e-01 5.225867663387356e-01 6.882644526645519e-02 3.698195944116124e-02 7.372505990531932e-02 5.103426251571010e-02
            -1.583916322100729e-01 5.225216060343276e-01 -4.145519441360847e-01 -8.400569639402009e-02 7.381378264630231e-02 5.096075943024134e-02 6.879045483360617e-02 3.697472852985646e-02
141692500.0000000000 1.095976563498618e-01 4.243381847210721e-02 1.030248238427199e-01 3.689801920059345e-02 -4.131666616210130e-01 5.992827753946960e-02 3.304991427054685e-02 5.430865748981419e-01
            1.029770556666862e-01 3.694511403966644e-02 1.096582482432494e-01 4.236949555658974e-02 3.297180498282546e-02 5.431052417091514e-01 -4.130809095959713e-01 5.997699794407197e-02
            -4.131506403744348e-01 5.990088293189662e-02 3.308478116011446e-02 5.430905816397519e-01 9.984932959095924e-02 3.440305408096801e-02 1.078100605375589e-01 4.567404959454486e-02
            3.299863441365000e-02 5.431518007549918e-01 -4.130891546213563e-01 5.992852468352143e-02 1.077327676948491e-01 4.571103526245663e-02 9.989548323371419e-02 3.429885183388004e-02
142525000.0000000000 1.311364820071767e-01 1.985845598191856e-02 1.229902479002961e-01 1.510539923922933e-02 -3.663863312982026e-01 1.938652073202583e-01 2.163768031433607e-01 4.968540600412880e-01
            1.230223561673663e-01 1.514458673766142e-02 1.311325556138808e-01 1.993161346277991e-02 2.164375894463440e-01 4.968228873054234e-01 -3.664779607318008e-01 1.939325359323767e-01
            -3.664623387424296e-01 1.939070367822920e-01 2.163531716928005e-01 4.968438182956644e-01 1.212945594707514e-01 1.318328831565995e-02 1.302287490353284e-01 2.030738968754802e-02
            2.163958483886836e-01 4.968426983935488e-01 -3.664392541737728e-01 1.939441711079351e-01 1.301975380168335e-01 2.030528828262300e-02 1.212673740484663e-01 1.315481983341838e-02
143357500.0000000000 1.336013180003739e-01 -1.106066669744641e-02 1.242950988490267e-01 -1.460008158780569e-02 -2.787838048009805e-01 3.062562343001109e-01 3.713769164473592e-01 3.935216294150408e-01
            1.243733235648456e-01 -1.456293991596161e-02 1.335945830947632e-01 -1.098396843270669e-02 3.713899559226346e-01 3.935479802100993e-01 -2.788982789860365e-01 3.061612170652589e-01
            -2.788487043924495e-01 3.061823759645756e-01 3.714564276961065e-01 3.935730944090562e-01 1.241835152516450e-01 -1.608015393868887e-02 1.317763215689448e-01 -1.303085685936476e-02
            3.713783262701282e-01 3.935754396470853e-01 -2.788477005695316e-01 3.061481220155953e-01 1.317692468303963e-01 -1.307915820557779e-02 1.242017726935413e-01 -1.599780829996529e-02
144190000.0000000000 1.159599494985771e-01 -3.675598794823386e-02 1.061286056987199e-01 -3.888267073528739e-02 -1.567346701226273e-01 3.840499942474199e-01 4.839929715785924e-01 2.458740745802493e-01
            1.061063997797348e-01 -3.883419872862681e-02 1.159766406337876e-01 -3.683461494147815e-02 4.839719150083964e-01 2.458757229289232e-01 -1.565236139358963e-01 3.840209614573742e-01
            -1.566479886522902e-01 3.840001602848956e-01 4.839314964564191e-01 2.459390106619116e-01 1.077257028775919e-01 -4.004348865733484e-02 1.120226526926318e-01 -3.977483116780243e-02
            4.839910977662463e-01 2.458891234070844e-01 -1.566271683394921e-01 3.840331209387505e-01 1.119709818207787e-01 -3.983087091725483e-02 1.076214066418832e-01 -4.006747258605384e-02
145022500.0000000000 8.564351238430472e-02 -4.564686019470702e-02 7.569439934566229e-02 -4.610681110098691e-02 -1.224534101043763e-02 4.143921729201160e-01 5.428316908488322e-01 6.776407825298691e-02
            7.573037528934738e-02 -4.612867868727320e-02 8.560177517136107e-02 -4.558711369234514e-02 5.428495927893598e-01 6.773931231541847e-02 -1.223453852923770e-02 4.145035454634488e-01
            -1.229574319097918e-02 4.144487434595557e-01 5.428781375849133e-01 6.777588865027399e-02 7.941902120451230e-02 -4.754055697752833e-02 7.961247795068203e-02 -4.792967996092162e-02
            5.428705221510337e-01 6.774849360487430e-02 -1.232872889368086e-02 4.143596880822452e-01 7.972588259854496e-02 -4.787271177572303e-02 7.940229290553262e-02 -4.758273533515427e-02
145855000.0000000000 5.658204179488873e-02 -3.249317654470619e-02 4.700297911568339e-02 -3.157271727488702e-02 1.343101477215946e-01 3.898433686958423e-01 5.386158900580935e-01 -1.239958170841267e-01
            4.689001005614887e-02 -3.157174639050131e-02 5.657587982183678e-02 -3.249835525372811e-02 5.386328315883183e-01 -1.239646158819973e-01 1.343008057688321e-01 3.897878264723492e-01
            1.343671836208303e-01 3.897751913024014e-01 5.385487465990699e-01 -1.239970590449346e-01 5.289855935503464e-02 -3.419101065875961e-02 4.965292029493056e-02 -3.306019846905610e-02
            5.385751073667681e-01 -1.239739269963024e-01 1.343089828747066e-01 3.897386345477803e-01 4.976434059977679e-02 -3.304668337930040e-02 5.283233077873126e-02 -3.423125518992820e-02
146687500.0000000000 4.336615912407688e-02 -3.519064839419997e-03 3.445493905967173e-02 -1.105759774247492e-03 2.600649229599245e-01 3.132462418013890e-01 4.659421424585571e-01 -3.065072758531089e-01
            3.452148139410241e-02 -1.145694666436677e-03 4.349231158459629e-02 -3.476556960523540e-03 4.659309020363979e-01 -3.064632561136154e-01 2.598954417029076e-01 3.132381638694250e-01
            2.599612509200214e-01 3.132639106865021e-01 4.658713060594150e-01 -3.063922200901092e-01 4.240099158352106e-02 -5.948786771288542e-03 3.724385052437672e-02 -2.123796154448559e-03
            4.659331292986028e-01 -3.065371527887954e-01 2.599607907298647e-01 3.131712539744482e-01 3.728401318726993e-02 -2.142991868189613e-03 4.231831545386067e-02 -6.023002201169323e-03
147520000.0000000000 5.292184237050452e-02 2.646960422373495e-02 4.505439092356529e-02 2.993251579949728e-02 3.466369132969136e-01 1.995765321662152e-01 3.303257717653989e-01 -4.524853296643956e-01
            4.503949685855007e-02 2.987931325619859e-02 5.288986671792339e-02 2.645712355460965e-02 3.303574993429816e-01 -4.525122483653808e-01 3.466815335255106e-01 1.995833812916635e-01
            3.467075752511282e-01 1.995061475423546e-01 3.303427303660072e-01 -4.525016822497280e-01 5.381889667360114e-02 2.190870671138194e-02 4.865511450576395e-02 2.854392800334246e-02
            3.303112009280839e-01 -4.525684928777167e-01 3.467300833730131e-01 1.996295175908915e-01 4.865611742143457e-02 2.855161717550348e-02 5.374453316043103e-02 2.187201005948869e-02
148352500.0000000000 7.934355472173625e-02 4.189206948921297e-02 7.284377487746073e-02 4.620529013953048e-02 3.871734878383879e-01 6.801368935261326e-02 1.510608296400364e-01 -5.392286736978757e-01
            7.286153061370955e-02 4.622292312400696e-02 7.928106981006444e-02 4.200324990921674e-02 1.509712554625511e-01 -5.392493051176597e-01 3.871724336257791e-01 6.792632286860512e-02
            3.871195470943576e-01 6.795177096298505e-02 1.509846425264864e-01 -5.393352643667624e-01 8.075167552034414e-02 3.473885223131406e-02 7.697660042445571e-02 4.319913220835292e-02
            1.510521724854435e-01 -5.393211142201960e-01 3.871610434138729e-01 6.795153340044921e-02 7.694616264983511e-02 4.319653538888629e-02 8.075131763454099e-02 3.469493029549989e-02
149185000.0000000000 1.083241741776740e-01 3.626832210221208e-02 1.035556352479398e-01 4.084671666374680e-02 3.825240400056548e-01 -6.563501802152572e-02 -4.503553529819509e-02 -5.562564443772974e-01
            1.035977907448552e-01 4.087471172119786e-02 1.083698971714697e-01 3.614894469758032e-02 -4.516780830091664e-02 -5.562186880402162e-01 3.825390396969623e-01 -6.561335091746720e-02
            3.825553361658486e-01 -6.565325786227504e-02 -4.501720822941793e-02 -5.562943889115195e-01 1.092919281113737e-01 2.653163149607253e-02 1.069683529661433e-01 3.533586019212052e-02
            -4.494392742762286e-02 -5.562704363348348e-01 3.825143480423915e-01 -6.564791836064493e-02 1.069875763400729e-01 3.533205546989975e-02 1.092884703270414e-01 2.649843570352216e-02
150017500.0000000000 1.262401269728810e-01 1.338792739202274e-02 1.231561158592771e-01 1.795047162264313e-02 3.360359138271341e-01 -1.892886449449128e-01 -2.319171071897176e-01 -5.055831055265523e-01
            1.231858462075193e-01 1.792743209933801e-02 1.261993240128953e-01 1.341551393927072e-02 -2.319201771226380e-01 -5.055559158566602e-01 3.360187988891922e-01 -1.892141387301357e-01
            3.360011378726536e-01 -1.892887726395165e-01 -2.318045018168398e-01 -5.055961509761621e-01 1.254986822152943e-01 1.897366125375183e-03 1.240460276391248e-01 1.028524834774235e-02
            -2.319206562680762e-01 -5.055451647656407e-01 3.360074859551949e-01 -1.893154889054432e-01 1.240849095452798e-01 1.019235770952328e-02 1.254991047743872e-01 1.823133557922222e-03
150850000.0000000000 1.250601666332231e-01 -1.521223424037188e-02 1.237196930990444e-01 -1.157943096658695e-02 2.515398611936364e-01 -2.920458131187574e-01 -3.892886717249490e-01 -3.967940066459187e-01
            1.236640353871128e-01 -1.157948141715904e-02 1.250608366488930e-01 -1.520913568629235e-02 -3.893288889624400e-01 -3.969232754308576e-01 2.515372175073994e-01 -2.919768969259746e-01
            2.514033841931747e-01 -2.920177159073756e-01 -3.893207878104254e-01 -3.968787641252355e-01 1.222480227902907e-01 -2.761915659590732e-02 1.206262069437015e-01 -1.991441815828256e-02
            -3.893004121540329e-01 -3.968898119614416e-01 2.514724771068855e-01 -2.920053765363176e-01 1.206924311537332e-01 -1.990247789858870e-02 1.223141199944036e-01 -2.756205961103624e-02
151682500.0000000000 1.054488104332972e-01 -3.649054647279112e-02 1.053159005177055e-01 -3.415033430071081e-02 1.349904839695193e-01 -3.612659979523089e-01 -5.025888232827344e-01 -2.427851462188846e-01
            1.053984325488731e-01 -3.425848369174447e-02 1.054963221818928e-01 -3.650494557058803e-02 -5.026562843381357e-01 -2.428125094800088e-01 1.349676060650849e-01 -3.612956871798859e-01
            1.350188984055762e-01 -3.611538754936836e-01 -5.026434723177843e-01 -2.427627777137950e-01 1.006836016062171e-01 -4.883867996037836e-02 9.821193351255977e-02 -4.113569195373046e-02
            -5.026343579640429e-01 -2.428355369787064e-01 1.349931511496788e-01 -3.612256007738165e-01 9.811932537968647e-02 -4.113791523577960e-02 1.007228644993357e-01 -4.878036287016468e-02
152515000.0000000000 7.625861856221416e-02 -3.987143023579838e-02 7.669313494266108e-02 -3.938849744325446e-02 -6.153450656613702e-04 -3.847765688112278e-01 -5.596698600841864e-01 -5.763621562450860e-02
            7.680834462419700e-02 -3.940150787009917e-02 7.624644969183149e-02 -3.983415234250311e-02 -5.596974942105872e-01 -5.757668944720488e-02 -6.374818437489932e-04 -3.847912203565437e-01
            -5.839349202055928e-04 -3.847555738553723e-01 -5.596545714639879e-01 -5.759115674723422e-02 6.988143727509359e-02 -5.146117123515008e-02 6.638812722581315e-02 -4.245048213035570e-02
            -5.597017947813652e-01 -5.757820895241941e-02 -6.863615476267233e-04 -3.847569004437310e-01 6.632224061516145e-02 -4.246775532977684e-02 6.993248578621669e-02 -5.151546476447840e-02
153347500.0000000000 5.156181443401668e-02 -2.268195592523799e-02 5.192165237300114e-02 -2.413966495574924e-02 -1.357624125041414e-01 -3.565737963931304e-01 -5.503367144942065e-01 1.402666755488657e-01
            5.191578252259545e-02 -2.423345559001364e-02 5.151590117521228e-02 -2.266866270956509e-02 -5.503739634770195e-01 1.402826280863762e-01 -1.357271374881624e-01 -3.565361926641702e-01
            -1.357832805934415e-01 -3.565793934491978e-01 -5.502793436269663e-01 1.402461364069298e-01 4.422174756324942e-02 -3.319207171053160e-02 4.069131113163094e-02 -2.221366381626349e-02
            -5.502628140759097e-01 1.402581493713238e-01 -1.357249177857683e-01 -3.565917606881182e-01 4.061795480230718e-02 -2.208068300708046e-02 4.415748258065255e-02 -3.307649402655945e-02
154180000.0000000000 4.451638713782296e-02 6.954549898563504e-03 4.397908219129243e-02 3.777689456514700e-03 -2.489209911427091e-01 -2.814882192722655e-01 -4.702629856977004e-01 3.256991861001573e-01
            4.399631315893210e-02 3.800740316857505e-03 4.456538874119256e-02 6.995977931154054e-03 -4.701458009974518e-01 3.257087330264596e-01 -2.488657959721267e-01 -2.814993551129882e-01
            -2.488449303257271e-01 -2.814263072363207e-01 -4.702925415199524e-01 3.257142105525974e-01 3.674036984756868e-02 -2.384400870245689e-03 3.475753547567907e-02 1.090786701461654e-02
            -4.701443662967170e-01 3.257678046451590e-01 -2.489438743896520e-01 -2.815515660585020e-01 3.476452646690080e-02 1.082053665224780e-02 3.680374619648958e-02 -2.419573421930853e-03
155012500.0000000000 5.913575215511767e-02 3.380461949397063e-02 5.702206518879661e-02 2.931172212690230e-02 -3.247255719168859e-01 -1.744659688768254e-01 -3.271332121628339e-01 4.711190922168125e-01
            5.704368289122369e-02 2.935922987640038e-02 5.913408176276381e-02 3.381745076277250e-02 -3.271275375077710e-01 4.711690396752081e-01 -3.247105976307805e-01 -1.744062860077549e-01
            -3.247477144463882e-01 -1.743664203701130e-01 -3.270455657891648e-01 4.711584682990698e-01 5.129576182319763e-02 2.501065945021311e-02 5.192857616932386e-02 3.953764578832885e-02
            -3.270699456427726e-01 4.712015047543079e-01 -3.246837790625078e-01 -1.744075624612077e-01 5.200298601956731e-02 3.955640510717186e-02 5.124630502622063e-02 2.491902702685565e-02
155845000.0000000000 8.739443695104546e-02 4.389720402399476e-02 8.336576364167256e-02 3.902958245375073e-02 -3.582934190795083e-01 -5.270254802568116e-02 -1.418527147077220e-01 5.546966998744813e-01
            8.343284419343318e-02 3.901634667153692e-02 8.746367001397017e-02 4.396318429052399e-02 -1.418759743633267e-01 5.547479932246214e-01 -3.582389529271461e-01 -5.281750910674619e-02
            -3.582835248440470e-01 -5.282625396959820e-02 -1.418849260014492e-01 5.547549815248115e-01 7.930171653768428e-02 3.558444806309978e-02 8.349386694054461e-02 4.976845216627952e-02
            -1.419036079156088e-01 5.546654540043954e-01 -3.583174295412465e-01 -5.272263975935361e-02 8.339486643070119e-02 4.978564888045712e-02 7.922829440286126e-02 3.554208998998554e-02
156677500.0000000000 1.149712603639406e-01 3.340030346431339e-02 1.089722450009901e-01 2.890912185442769e-02 -3.509364959675252e-01 6.999918355346345e-02 5.808108077834324e-02 5.674409077353211e-01
            1.090606389922896e-01 2.886696795236207e-02 1.149304238098885e-01 3.334331105068294e-02 5.816192524383763e-02 5.675354852300106e-01 -3.509095138014466e-01 6.987284449829308e-02
            -3.510023069359137e-01 6.989138960394882e-02 5.803711334283142e-02 5.675045431437123e-01 1.061279691098688e-01 2.547420639467488e-02 1.132929866031042e-01 3.757609180084908e-02
            5.807180592679662e-02 5.674788527759826e-01 -3.509470958532440e-01 6.999202150798990e-02 1.132627980483222e-01 3.754188682224186e-02 1.060760665608497e-01 2.545562003394146e-02
157510000.0000000000 1.289348021657547e-01 7.850920599110038e-03 1.215790004853588e-01 4.647336779968113e-03 -3.054334782328095e-01 1.831230183171185e-01 2.474894984515197e-01 5.121928240992341e-01
            1.216060213885136e-01 4.703922142623762e-03 1.289442060923630e-01 7.896446781995844e-03 2.474700442941277e-01 5.122476676628656e-01 -3.052411077680085e-01 1.832128401343316e-01
            -3.052764364939237e-01 1.831475781088555e-01 2.475129002437264e-01 5.121555427553424e-01 1.193193351843948e-01 9.010816794671435e-04 1.280500915769703e-01 9.836787324862281e-03
            2.475044961751359e-01 5.122224674184824e-01 -3.053296925290006e-01 1.831614641823236e-01 1.280290181408922e-01 9.809136955820155e-03 1.193655062801385e-01 9.683956471284331e-04
158342500.0000000000 1.233914272665929e-01 -2.057333112429162e-02 1.151432593299200e-01 -2.197860218588149e-02 -2.243270030081970e-01 2.762494041980681e-01 4.066775276693137e-01 3.983116402667750e-01
            1.151757546043397e-01 -2.196531748863081e-02 1.233119722902353e-01 -2.065190092979637e-02 4.067390691811633e-01 3.983737198213750e-01 -2.242536503496902e-01 2.762766701685843e-01
            -2.242937716553901e-01 2.762855976870895e-01 4.066554485022885e-01 3.983290637747914e-01 1.133332386474279e-01 -2.597463318969544e-02 1.218233295347748e-01 -2.059588070351446e-02
            4.066511110474099e-01 3.982789645413228e-01 -2.242576015500453e-01 2.762347448434909e-01 1.217408688610151e-01 -2.059394924151631e-02 1.133252665841088e-01 -2.601502406491767e-02
159175000.0000000000 1.005399237761681e-01 -3.906182219713202e-02 9.248990209076519e-02 -3.841612672894083e-02 -1.140355221094055e-01 3.369978593672376e-01 5.202140911772126e-01 2.380358414272043e-01
            9.259493455249192e-02 -3.841373402516091e-02 1.005591391746631e-01 -3.906864042614818e-02 5.202732350742799e-01 2.380018219840772e-01 -1.140352318900281e-01 3.369458741060234e-01
            -1.139756201080252e-01 3.369343895663819e-01 5.202026614111801e-01 2.380279797202663e-01 9.070008745213974e-02 -4.269623273029061e-02 9.737875916144752e-02 -3.963791583019577e-02
            5.202225301189558e-01 2.379629200020228e-01 -1.139994294005519e-01 3.369913776526730e-01 9.730857368592051e-02 -3.965718192187398e-02 9.059408484838254e-02 -4.270491948550992e-02
160007500.0000000000 7.079932097707392e-02 -3.804892277381127e-02 6.377231479399546e-02 -3.584334842296796e-02 1.233606892931355e-02 3.539181966230688e-01 5.749000339937705e-01 4.609761572600408e-02
            6.389461468035863e-02 -3.570603686993302e-02 7.070297093025429e-02 -3.809758893208537e-02 5.748830519727242e-01 4.612196888925445e-02 1.231014958489109e-02 3.538954022012962e-01
            1.234089137031990e-02 3.538425902659392e-01 5.749199853427610e-01 4.602422990181453e-02 6.166536432633359e-02 -4.014482481428311e-02 6.614866395222002e-02 -3.795406639989107e-02
            5.748954104128153e-01 4.609622386144463e-02 1.236258507010068e-02 3.539105039868209e-01 6.615708803087063e-02 -3.802221485419970e-02 6.163760676166413e-02 -4.019448419201212e-02
160840000.0000000000 4.849958643546123e-02 -1.743281940068618e-02 4.354747452786852e-02 -1.414702900977806e-02 1.354577829356305e-01 3.226343807933605e-01 5.599387660184955e-01 -1.571141922540281e-01
            4.360730444133135e-02 -1.402687579635794e-02 4.860240672932012e-02 -1.739855123115107e-02 5.599922993046235e-01 -1.571245468812882e-01 1.354626029275452e-01 3.225937730803874e-01
            1.355155129221942e-01 3.226688948494394e-01 5.598631051652767e-01 -1.571654137028643e-01 4.090400404291746e-02 -1.815657213102440e-02 4.364254822125190e-02 -1.563676589734471e-02
            5.598473910803214e-01 -1.571523399746924e-01 1.355409927949403e-01 3.225824441524710e-01 4.374206207941744e-02 -1.559796577601609e-02 4.098425469947379e-02 -1.819324814278921e-02
161672500.0000000000 4.589856566361589e-02 1.307146609561262e-02 4.304475363333137e-02 1.637688398082062e-02 2.357046017223046e-01 2.496829607084338e-01 4.720853158218510e-01 -3.448558209411477e-01
            4.304299494890824e-02 1.634211043089979e-02 4.590400483155537e-02 1.309593003564055e-02 4.720749092856807e-01 -3.448184087043351e-01 2.357177910848716e-01 2.497172176807122e-01
            2.357201892968069e-01 2.497484549583775e-01 4.721559568925258e-01 -3.448573028141499e-01 3.996436942777846e-02 1.264790298579194e-02 4.223466356150272e-02 1.630048980673940e-02
            4.720592169858819e-01 -3.448196168834854e-01 2.357563584488509e-01 2.496753546321441e-01 4.217888430323470e-02 1.627655424486534e-02 3.993210143392919e-02 1.261752948587504e-02
162505000.0000000000 6.398204069773969e-02 3.740373155480051e-02 6.308561067650080e-02 3.952803319209094e-02 3.008413809338040e-01 1.501006773031665e-01 3.216137789216156e-01 -4.886725677464502e-01
            6.323435185089170e-02 3.954427585325451e-02 6.400990307350130e-02 3.741105438658911e-02 3.216255281005306e-01 -4.886155687962446e-01 3.008003991020618e-01 1.500062848612609e-01
            3.007655762135960e-01 1.500887209876682e-01 3.216439250637455e-01 -4.886775518966297e-01 5.960570778262105e-02 3.649136571068722e-02 6.262113361547603e-02 4.099916268425229e-02
            3.215943470238615e-01 -4.886548071393508e-01 3.008792742791190e-01 1.500809420336590e-01 6.266607212969627e-02 4.097686108851088e-02 5.942751047072712e-02 3.651297575106961e-02
163337500.0000000000 9.312518177552039e-02 4.358128791563028e-02 9.335435202928787e-02 4.372758907139249e-02 3.279314125894410e-01 3.902986392184980e-02 1.310631703237677e-01 -5.682591075570260e-01
            9.339637945143837e-02 4.369072870775336e-02 9.312642735556062e-02 4.351525531834493e-02 1.310731399267069e-01 -5.682107532747996e-01 3.279219328819769e-01 3.903666233513924e-02
            3.278757511089626e-01 3.902969236592148e-02 1.310820747211469e-01 -5.681772614072365e-01 8.935731098183090e-02 4.194842663973748e-02 9.401598740617340e-02 4.593830354584652e-02
            1.310749871537501e-01 -5.682516444067452e-01 3.279497097926000e-01 3.910134263474383e-02 9.402446904699670e-02 4.593839877591181e-02 8.934838694522390e-02 4.192529080001157e-02
164170000.0000000000 1.186613367222185e-01 2.970246140353113e-02 1.189368531070386e-01 2.743153851183287e-02 3.186905612168058e-01 -7.207814520610351e-02 -7.193788672711190e-02 -5.761286500907814e-01
            1.189432639138305e-01 2.745516608021382e-02 1.186014665521671e-01 2.969701731683933e-02 -7.197415748142068e-02 -5.760603646017738e-01 3.186546463556448e-01 -7.206061277866774e-02
            3.186562349221835e-01 -7.207279062667868e-02 -7.192947031660177e-02 -5.761287446490067e-01 1.150623097268498e-01 2.733033104751330e-02 1.207532121005343e-01 2.946780845961190e-02
            -7.192282273285955e-02 -5.761348994883715e-01 3.186179305765836e-01 -7.206662754276799e-02 1.208126681452582e-01 2.952519736348863e-02 1.150463673136426e-01 2.739185689783315e-02
165002500.0000000000 1.291267989981622e-01 3.173615338258163e-03 1.282274400199137e-01 -1.275922433843952e-03 2.748476564576326e-01 -1.746090255232113e-01 -2.629088131902199e-01 -5.160504432485151e-01
            1.282932305292960e-01 -1.359011839489911e-03 1.291748472190268e-01 3.167071880989048e-03 -2.629208272021396e-01 -5.159758460945612e-01 2.747723810505390e-01 -1.746438304798171e-01
            2.748205182920094e-01 -1.746019872240806e-01 -2.628728795857540e-01 -5.160034761764771e-01 1.252943772013397e-01 6.465957672500956e-04 1.309128470556251e-01 -8.810445945889576e-05
            -2.629750449035475e-01 -5.160642880781824e-01 2.747790870984994e-01 -1.745680159201058e-01 1.309218663979612e-01 -7.050386958517526e-05 1.253068695017367e-01 6.636381213676882e-04
165835000.0000000000 1.202673570080282e-01 -2.391358642718144e-02 1.173148182165042e-01 -2.964605183685174e-02 1.983849038158387e-01 -2.584422159187763e-01 -4.224632204120770e-01 -3.971501629793892e-01
            1.172798371716297e-01 -2.968560819793552e-02 1.202875487261780e-01 -2.396433437668347e-02 -4.225478314557060e-01 -3.972099979321863e-01 1.984067893686679e-01 -2.584152116377600e-01
            1.984328300063312e-01 -2.584364038100209e-01 -4.224995341673549e-01 -3.972162460573787e-01 1.162788588769585e-01 -2.619136330767709e-02 1.200946023668475e-01 -2.946378297940259e-02
            -4.225123841446260e-01 -3.971770263176471e-01 1.984582134000732e-01 -2.584961467505656e-01 1.201295859945959e-01 -2.944979881583141e-02 1.162204995151575e-01 -2.611487246015107e-02
166667500.0000000000 9.580966814232232e-02 -3.905910506434945e-02 9.032290972971647e-02 -4.493258155709668e-02 9.529177211560179e-02 -3.114373361019834e-01 -5.351447047291462e-01 -2.315265001394551e-01
            9.036261110153485e-02 -4.484491165872753e-02 9.581803529130320e-02 -3.898615203400112e-02 -5.352333080222843e-01 -2.315672967985813e-01 9.523979226731513e-02 -3.114450538381958e-01
            9.538250336497567e-02 -3.114288056491766e-01 -5.352201999359071e-01 -2.315757829648926e-01 9.202883179061819e-02 -4.049419054732024e-02 9.277852647294894e-02 -4.538043418781486e-02
            -5.351945059513197e-01 -2.315342822600254e-01 9.526834261529356e-02 -3.113831685636130e-01 9.280230701719522e-02 -4.542170814426765e-02 9.208321146576100e-02 -4.057076995558118e-02
167500000.0000000000 6.691432508459590e-02 -3.440043697682273e-02 5.932556106407409e-02 -3.908758458582742e-02 -2.147372274796661e-02 -3.229752633541291e-01 -5.869047239275604e-01 -3.436222840034708e-02
            5.927646700669923e-02 -3.903416216250867e-02 6.696025269441390e-02 -3.439913768587372e-02 -5.869737249577269e-01 -3.437716034935059e-02 -2.154508554589980e-02 -3.229294616638482e-01
            -2.152472717531766e-02 -3.229672589179975e-01 -5.869729728162195e-01 -3.441294057305712e-02 6.392052760991518e-02 -3.529996361450456e-02 6.121654171549955e-02 -3.987246501835549e-02
            -5.868905887225200e-01 -3.442154128145018e-02 -2.151835899489945e-02 -3.229569095934993e-01 6.124730920683152e-02 -3.985799772091264e-02 6.397126764925117e-02 -3.527616448619280e-02
168332500.0000000000 4.816461439455179e-02 -1.138330436301333e-02 3.928658890723285e-02 -1.403302874686688e-02 -1.330310202101224e-01 -2.899781603175988e-01 -5.667273912040027e-01 1.728206558077666e-01
            3.931005391730783e-02 -1.392522383545824e-02 4.818676679020963e-02 -1.133752103705035e-02 -5.667472217416386e-01 1.727300668232518e-01 -1.331012781404428e-01 -2.899673509061852e-01
            -1.330441462670773e-01 -2.899360629699050e-01 -5.667346240091328e-01 1.726761170247685e-01 4.651155556478480e-02 -1.213818534102534e-02 4.089284697383017e-02 -1.478225622361317e-02
            -5.667818890900175e-01 1.728090009814020e-01 -1.330451764091997e-01 -2.898678093473592e-01 4.092047979290550e-02 -1.478624423894797e-02 4.642460156595377e-02 -1.218850895600598e-02
169165000.0000000000 4.975931154167391e-02 1.835820581476679e-02 4.090986308890685e-02 1.808249529406380e-02 -2.215564880632445e-01 -2.200077630124256e-01 -4.724514475246387e-01 3.615867955209794e-01
            4.085670387165617e-02 1.813663905444746e-02 4.978152451616959e-02 1.844368496203519e-02 -4.725591953193498e-01 3.615979076841805e-01 -2.214868360372468e-01 -2.200050599074796e-01
            -2.215179358063559e-01 -2.199554475187274e-01 -4.724933621590213e-01 3.616663417473478e-01 4.927153484472452e-02 1.710307750203952e-02 4.255504677845762e-02 1.736301584517602e-02
            -4.724515231117806e-01 3.616589131755975e-01 -2.215246163381166e-01 -2.199913481504900e-01 4.257498352616045e-02 1.735536272826579e-02 4.923101838753507e-02 1.707895082337915e-02
169997500.0000000000 7.068883930045655e-02 3.923357369253603e-02 6.303188614419394e-02 4.076623170480007e-02 -2.771542458773408e-01 -1.277496049309948e-01 -3.160081839849289e-01 5.039135383849275e-01
            6.296732805517596e-02 4.086178505817836e-02 7.072745688377036e-02 3.925825946493548e-02 -3.159390267558947e-01 5.039618730025655e-01 -2.771950075496908e-01 -1.277370583229533e-01
            -2.771232047357785e-01 -1.277559192826640e-01 -3.159618389877412e-01 5.039605729256196e-01 7.081726419690160e-02 3.691557817590765e-02 6.479072897480186e-02 3.970686433219400e-02
            -3.159742625061909e-01 5.039785140674120e-01 -2.770703100229199e-01 -1.277076671200660e-01 6.486781175007189e-02 3.972537791994565e-02 7.095553652838554e-02 3.679742070617902e-02
170830000.0000000000 9.955759152279349e-02 4.096715715119398e-02 9.389518806683730e-02 4.335644626224990e-02 -2.984729867908013e-01 -2.664526803774534e-02 -1.210014516497698e-01 5.800327764657740e-01
            9.388453256422634e-02 4.343011441508809e-02 9.949465618756971e-02 4.097628450578631e-02 -1.210158981998993e-01 5.800421854249059e-01 -2.983651959174921e-01 -2.662740373204822e-02
            -2.983490320372257e-01 -2.665372811747619e-02 -1.209692716256326e-01 5.800997949833848e-01 9.984533324236319e-02 3.742357752920045e-02 9.557952586752025e-02 4.170887873093255e-02
            -1.210462231143052e-01 5.800702790175540e-01 -2.983765205372786e-01 -2.659161350256321e-02 9.554961359278037e-02 4.179680459153179e-02 9.983191492252218e-02 3.740470252998549e-02
171662500.0000000000 1.220271295514966e-01 2.382340856511758e-02 1.183869204553284e-01 2.584740180200030e-02 -2.872186975227672e-01 7.398970839335585e-02 8.492251935759275e-02 5.839357901727478e-01
            1.183489785282625e-01 2.576956329787458e-02 1.220844246782756e-01 2.379468440956233e-02 8.500006650104383e-02 5.840016673834341e-01 -2.872895119698404e-01 7.400934018530653e-02
            -2.872375538031713e-01 7.387386619198927e-02 8.495493512620025e-02 5.839658876247409e-01 1.219558393010333e-01 1.937766621804778e-02 1.196614317660405e-01 2.358713822486546e-02
            8.497974671718887e-02 5.839063203060750e-01 -2.872247967633288e-01 7.394640125040640e-02 1.196697231439708e-01 2.356698159602773e-02 1.219866049691288e-01 1.934709281687332e-02
172495000.0000000000 1.281899082329907e-01 -3.605491742848243e-03 1.258367153117748e-01 -2.830982253999226e-03 -2.447666893244724e-01 1.661893244242945e-01 2.777936166468268e-01 5.194190346731752e-01
            1.257960688042970e-01 -2.877452277424310e-03 1.281329654742087e-01 -3.660675019304242e-03 2.777774203562348e-01 5.194298496819814e-01 -2.447883536361107e-01 1.661676943846507e-01
            -2.447551185758113e-01 1.661650746955078e-01 2.777676930130702e-01 5.194674647830417e-01 1.273584098824808e-01 -8.273266848489320e-03 1.260992459875042e-01 -5.440711549355717e-03
            2.778036573060647e-01 5.194697073073458e-01 -2.446570491714537e-01 1.661068136961069e-01 1.261444062171589e-01 -5.492312854115020e-03 1.272986448183341e-01 -8.261445687710625e-03
173327500.0000000000 1.151148566498630e-01 -2.861320638903399e-02 1.131465109012645e-01 -2.957476686182613e-02 -1.724979478013579e-01 2.404759381691541e-01 4.381418268819369e-01 3.956356794453030e-01
            1.131140450997547e-01 -2.956966311718096e-02 1.151164776003293e-01 -2.859075717668709e-02 4.381961363129191e-01 3.955463058588623e-01 -1.724067541152701e-01 2.404789882553872e-01
            -1.723957774650317e-01 2.404454294144423e-01 4.381787639408974e-01 3.955845660407831e-01 1.138638966203791e-01 -3.299236042485190e-02 1.122578318887911e-01 -3.195797543329749e-02
            4.381537583181961e-01 3.955288281423980e-01 -1.724680289543527e-01 2.404532784093660e-01 1.123134374595913e-01 -3.198353330960049e-02 1.138555838969733e-01 -3.300674179339034e-02
174160000.0000000000 8.865675606021159e-02 -3.932639367713693e-02 8.595330341350844e-02 -4.181845272512499e-02 -7.642459966509205e-02 2.852180234720527e-01 5.499281153159561e-01 2.241869897851975e-01
            8.600017963430066e-02 -4.178815135381474e-02 8.862289970364139e-02 -3.937679877893423e-02 5.499527316528644e-01 2.242050762667211e-01 -7.644364363464572e-02 2.852605523674571e-01
            -7.652167369282356e-02 2.852500324636678e-01 5.499181160032761e-01 2.242381687098929e-01 8.736706479588900e-02 -4.318408463799926e-02 8.416654406551480e-02 -4.347485855157739e-02
            5.499577873730871e-01 2.241730218193029e-01 -7.650088684377669e-02 2.852205330995352e-01 8.412468062237584e-02 -4.342682918556696e-02 8.736547605050089e-02 -4.322691130201848e-02
174992500.0000000000 6.085331082647506e-02 -2.980132624560754e-02 5.685925950938960e-02 -3.290737415672001e-02 3.019208963839980e-02 2.909923099771846e-01 5.981814548859216e-01 2.147330863258916e-02
            5.692529695870813e-02 -3.293246249597535e-02 6.087334210344461e-02 -2.979279627586377e-02 5.981201079318539e-01 2.144812814732377e-02 3.022894025596341e-02 2.910003584486616e-01
            3.011645288181949e-02 2.909916720927997e-01 5.981701364440027e-01 2.145708292181213e-02 6.021400587097734e-02 -3.331942177359846e-02 5.488110692906392e-02 -3.315613698674074e-02
            5.981636419536104e-01 2.147090345912407e-02 3.011418059481469e-02 2.909430825062750e-01 5.485295693075039e-02 -3.325442244477867e-02 6.018800312814591e-02 -3.325590955091268e-02
175825000.0000000000 4.620963560938490e-02 -3.518523852096182e-03 4.088114543641188e-02 -6.480257766580020e-03 1.294093275466208e-01 2.563612366377748e-01 5.719385174531199e-01 -1.892016376699974e-01
            4.091158010099920e-02 -6.521038929377964e-03 4.613729198007201e-02 -3.513323838282511e-03 5.719163660318307e-01 -1.893007470957952e-01 1.293145596086271e-01 2.563573465595391e-01
            1.293878083792116e-01 2.563292902948743e-01 5.719356557800021e-01 -1.892705154611237e-01 4.638939358938262e-02 -7.207080591007760e-03 3.953191380268865e-02 -5.579833714812054e-03
            5.719359485807588e-01 -1.892807455573423e-01 1.293557807141161e-01 2.563839515128332e-01 3.954485604558003e-02 -5.576260190528108e-03 4.638967707836070e-02 -7.199185497134590e-03
176657500.0000000000 5.295125013494521e-02 2.621716411882781e-02 4.682637579614227e-02 2.410531454943528e-02 2.055890463607237e-01 1.901523811471460e-01 4.705818947837129e-01 -3.784959915101306e-01
            4.687674864628796e-02 2.409877722393360e-02 5.290172124595528e-02 2.615371791209247e-02 4.706108276551516e-01 -3.785521098812316e-01 2.056052859465621e-01 1.901764857989361e-01
            2.056967537395560e-01 1.900938345099298e-01 4.706476812170687e-01 -3.785354277838901e-01 5.381621331383245e-02 2.158622122983326e-02 4.669816623810834e-02 2.559412637425005e-02
            4.705460519549603e-01 -3.785610781797312e-01 2.056223881785885e-01 1.902554577874274e-01 4.677079019345249e-02 2.555890919004144e-02 5.378070380712828e-02 2.158837798208374e-02
177490000.0000000000 7.741262948858704e-02 4.389106577048633e-02 7.161610182423012e-02 4.288347471003701e-02 2.515890881061981e-01 1.060820735062464e-01 3.081977556593925e-01 -5.180278004316884e-01
            7.155037836285422e-02 4.284615064841059e-02 7.743962144030868e-02 4.388436971457502e-02 3.081356679523677e-01 -5.179946312282891e-01 2.517311301623657e-01 1.061235419742122e-01
            2.516989348009319e-01 1.060922690398680e-01 3.080660396147852e-01 -5.179866707515730e-01 7.845415746355643e-02 3.800261215371302e-02 7.271730298027229e-02 4.404281190033123e-02
            3.080575363409379e-01 -5.180047763578894e-01 2.516704249060457e-01 1.061126579171137e-01 7.267568499897717e-02 4.396491767097915e-02 7.855191074007424e-02 3.799703712247730e-02
178322500.0000000000 1.073299237836779e-01 4.131738915235058e-02 1.022228426660874e-01 4.098131627925332e-02 2.677116922405030e-01 1.581279429312298e-02 1.094064829675422e-01 -5.899180953106337e-01
            1.022918354149684e-01 4.092424555754003e-02 1.072575044467181e-01 4.139119126654170e-02 1.093329450229806e-01 -5.898501128349195e-01 2.676802502372420e-01 1.578563621209333e-02
            2.677100071763353e-01 1.578683638668883e-02 1.094335626446098e-01 -5.899211588750861e-01 1.077159733092630e-01 3.451409664021901e-02 1.041268343571658e-01 4.094292438303376e-02
            1.093470383276143e-01 -5.898741534287798e-01 2.677331990069267e-01 1.579876707352105e-02 1.040281909538908e-01 4.089582305594169e-02 1.076026907250496e-01 3.441461183655330e-02
179155000.0000000000 1.282981514629324e-01 2.066148091141940e-02 1.245964084093643e-01 1.993970995120081e-02 2.554073812274885e-01 -7.351620346568177e-02 -9.846074705521494e-02 -5.891033991723775e-01
            1.244634127581555e-01 1.987876437756242e-02 1.282696533223777e-01 2.069154189222371e-02 -9.846781444966712e-02 -5.891021933437753e-01 2.554085340978651e-01 -7.349347396348406e-02
            2.554542369922141e-01 -7.353178824284590e-02 -9.847137100471243e-02 -5.891242394307341e-01 1.275283363288610e-01 1.333167946421874e-02 1.261728775750611e-01 1.867819068463708e-02
            -9.851234170599202e-02 -5.890455981930981e-01 2.554445883126988e-01 -7.354907077843632e-02 1.262151932451249e-01 1.862189555421207e-02 1.274772299850609e-01 1.325146283133750e-02
179987500.0000000000 1.316111159618663e-01 -8.247949809048537e-03 1.286375038016591e-01 -1.037916155273091e-02 2.153331046357118e-01 -1.553130649124682e-01 -2.918528091959047e-01 -5.200160223899913e-01
            1.286030222535247e-01 -1.030876918480520e-02 1.315222061816085e-01 -8.290831676508365e-03 -2.918175373677832e-01 -5.200422957734296e-01 2.153835740250145e-01 -1.553724974813685e-01
            2.153297062168849e-01 -1.553617830625054e-01 -2.918612603158333e-01 -5.199832827437555e-01 1.296958122507582e-01 -1.530442143802595e-02 1.293706671075115e-01 -1.254578531177767e-02
            -2.917955746361068e-01 -5.200323489677862e-01 2.153216019704179e-01 -1.553608637646436e-01 1.293553620006449e-01 -1.249189203423275e-02 1.297035355511502e-01 -1.530284008414679e-02
180820000.0000000000 1.159755982565677e-01 -3.283607631736178e-02 1.129427857541957e-01 -3.665514509865091e-02 1.483850224382768e-01 -2.206852700415774e-01 -4.518168236629824e-01 -3.916144409177900e-01
            1.128787802209436e-01 -3.666746950998526e-02 1.158898468292695e-01 -3.279335364831975e-02 -4.516681749464532e-01 -3.917272952646499e-01 1.483922875373893e-01 -2.206464175358139e-01
            1.484088601075816e-01 -2.206848010065275e-01 -4.517249112661636e-01 -3.916227924919842e-01 1.135699128521591e-01 -3.891840961331419e-02 1.122405641136319e-01 -3.905126301176037e-02
            -4.517344858840547e-01 -3.916935216968767e-01 1.484579809307493e-01 -2.207946518175095e-01 1.122451737170263e-01 -3.896992257216457e-02 1.136355549867572e-01 -3.882065503583430e-02
181652500.0000000000 8.816433383431999e-02 -4.195175844505881e-02 8.363195263512095e-02 -4.758318816291961e-02 6.039714063553821e-02 -2.584643157209388e-01 -5.616058349347864e-01 -2.158493192844086e-01
            8.373916917674198e-02 -4.751799654389463e-02 8.824027706176563e-02 -4.191511880568018e-02 -5.614928391324612e-01 -2.158970264992693e-01 6.031678404952472e-02 -2.585087270123944e-01
            6.032949517549543e-02 -2.585176467382505e-01 -5.615348786541032e-01 -2.159661847539624e-01 8.611375517020842e-02 -4.686637504507280e-02 8.194573358860428e-02 -4.902539983097744e-02
            -5.614915040923907e-01 -2.159250070955907e-01 6.037430276335400e-02 -2.584674897850922e-01 8.197094062309959e-02 -4.909839535121813e-02 8.604946320649934e-02 -4.690066568621327e-02
182485000.0000000000 6.100824854231954e-02 -3.073669648669322e-02 5.404654348061735e-02 -3.730166509810549e-02 -3.619300227289633e-02 -2.601753375051495e-01 -6.061354376249614e-01 -9.570007463740787e-03
            5.414603013725469e-02 -3.729213979999811e-02 6.088952432733506e-02 -3.066056106520967e-02 -6.062078545764498e-01 -9.551280035911373e-03 -3.619375602929240e-02 -2.600732026193758e-01
            -3.612594031591304e-02 -2.601605098317474e-01 -6.061974268823870e-01 -9.520032113373442e-03 5.997991674687987e-02 -3.515336325201212e-02 5.208358709046813e-02 -3.734386898948569e-02
            -6.061606761136600e-01 -9.553461635228380e-03 -3.613986219075797e-02 -2.601140316037213e-01 5.207449972116290e-02 -3.733547764098271e-02 5.995680942807270e-02 -3.507127085332912e-02
183317500.0000000000 4.802928653665977e-02 -4.337384214897150e-03 3.831794944675732e-02 -1.040376775185317e-02 -1.242515476237392e-01 -2.254064919020451e-01 -5.751253787556068e-01 2.031949778324751e-01
            3.834747237589885e-02 -1.048134773358767e-02 4.802323909799629e-02 -4.286424410244813e-03 -5.751532707636289e-01 2.031920854538741e-01 -1.242754985055909e-01 -2.253470389634962e-01
            -1.242171129440348e-01 -2.252839289731576e-01 -5.750630926175702e-01 2.031788801900299e-01 4.835403370951435e-02 -9.000575088263778e-03 3.699567049170131e-02 -9.291133340895742e-03
            -5.751426286376685e-01 2.031346698577175e-01 -1.242962310995044e-01 -2.253088000495438e-01 3.696952076806459e-02 -9.276817036850633e-03 4.840822224708927e-02 -8.937634143708146e-03
184150000.0000000000 5.612614213566759e-02 2.359791421448682e-02 4.384771194167047e-02 1.937399488891574e-02 -1.902267826979100e-01 -1.630627723898413e-01 -4.688759668106536e-01 3.922771124303407e-01
            4.380946349851106e-02 1.940283748425520e-02 5.610218746338958e-02 2.349611524729746e-02 -4.688732832223679e-01 3.923317690135345e-01 -1.902121744162952e-01 -1.630477629507126e-01
            -1.902798899020171e-01 -1.629840167007545e-01 -4.688314216423621e-01 3.923022488341458e-01 5.757000042396554e-02 1.750373680495516e-02 4.398051217531775e-02 2.099003626905605e-02
            -4.688271511401498e-01 3.923799568616038e-01 -1.901939295060378e-01 -1.630703915277392e-01 4.394971672603350e-02 2.094041405884553e-02 5.757738046120597e-02 1.764107825844495e-02
184982500.0000000000 8.043624689105021e-02 3.823435746379189e-02 6.656325148277099e-02 3.722314322840526e-02 -2.283499372392043e-01 -8.609622258362516e-02 -3.020651150071418e-01 5.303029712680756e-01
            6.662574386608024e-02 3.728158671200603e-02 8.039636639929680e-02 3.825634567040653e-02 -3.020495591897873e-01 5.302634765823394e-01 -2.283612092579884e-01 -8.603731435147899e-02
            -2.283163283816561e-01 -8.610139044565764e-02 -3.022197236308846e-01 5.302496400377501e-01 8.189151196366304e-02 3.047399884039836e-02 6.808421590542561e-02 3.822612220991082e-02
            -3.021099324649918e-01 5.302092504023879e-01 -2.283183157062383e-01 -8.605091615249100e-02 6.809829876348222e-02 3.817774637967151e-02 8.187843881168498e-02 3.055864260281603e-02
185815000.0000000000 1.075481447048477e-01 3.311550520469891e-02 9.395132091546285e-02 3.571461375050980e-02 -2.392822902560541e-01 -4.448270883936167e-03 -9.995365956893242e-02 5.997740345972008e-01
            9.390106161351260e-02 3.564004324998273e-02 1.076749072743848e-01 3.314199242972994e-02 -9.991847111690608e-02 5.996667764101236e-01 -2.393094268566258e-01 -4.487030323825249e-03
            -2.392524010906232e-01 -4.441397941645262e-03 -9.998183834815118e-02 5.997211746729759e-01 1.080549547994302e-01 2.374788208881215e-02 9.609084323816570e-02 3.509068269377092e-02
            -9.990907599722236e-02 5.997083499817686e-01 -2.393532834132906e-01 -4.477274950193347e-03 9.607155440703827e-02 3.507569636355657e-02 1.080834523277729e-01 2.381674027996948e-02
186647500.0000000000 1.243972720008786e-01 1.151310809023313e-02 1.123214712874149e-01 1.744772564506132e-02 -2.248650438673563e-01 7.523571609848889e-02 1.108240374606645e-01 5.958973791144019e-01
            1.123690206967428e-01 1.733011134438233e-02 1.244823933352913e-01 1.148843136974956e-02 1.107802202164602e-01 5.958789494325739e-01 -2.248083470375972e-01 7.517268715697298e-02
            -2.248498008762332e-01 7.514869673768332e-02 1.107550725841185e-01 5.959035267559438e-01 1.232165335837540e-01 1.517300015663708e-03 1.141980261164448e-01 1.510627404143023e-02
            1.107709398431642e-01 5.958835840525106e-01 -2.247988455235194e-01 7.519315206501943e-02 1.141227371707368e-01 1.514675463783410e-02 1.231533696507452e-01 1.511839498933231e-03
187480000.0000000000 1.230660283895886e-01 -1.597207639304277e-02 1.138378294010106e-01 -7.788872854398966e-03 -1.851054468499533e-01 1.469516812406441e-01 3.066680257338044e-01 5.225646306741356e-01
            1.138397430350430e-01 -7.692415820586567e-03 1.229924097801246e-01 -1.595165205345694e-02 3.066647695705312e-01 5.226325061697178e-01 -1.850924979648737e-01 1.468782780465648e-01
            -1.851155346326433e-01 1.468933520517169e-01 3.066000377133120e-01 5.225818397410961e-01 1.201119551043604e-01 -2.544621531466560e-02 1.141388748121834e-01 -1.109889402381097e-02
            3.066368477887652e-01 5.225998319543744e-01 -1.850536079394125e-01 1.469406403381565e-01 1.141632063585588e-01 -1.105801704359344e-02 1.201322827251335e-01 -2.553183008199670e-02
188312500.0000000000 1.037481658980701e-01 -3.637798243015081e-02 9.819713186274960e-02 -2.720511407752207e-02 -1.217437055157816e-01 2.018597660602870e-01 4.676767608199187e-01 3.884037115391693e-01
            9.817380494917113e-02 -2.723877628510621e-02 1.038386928690574e-01 -3.637868990431060e-02 4.675959369131162e-01 3.884462607955758e-01 -1.218070352578301e-01 2.019432450147062e-01
            -1.217997846968690e-01 2.019229289182547e-01 4.675741643329009e-01 3.884541236387176e-01 9.991107429388581e-02 -4.469232080364426e-02 9.655895878883633e-02 -3.058050479815703e-02
            4.676039556596812e-01 3.885130990436583e-01 -1.217289849128641e-01 2.019498354283794e-01 9.663939192980213e-02 -3.056949120120521e-02 9.991749724726467e-02 -4.472937684809236e-02
189145000.0000000000 7.509485700243479e-02 -3.957362380443715e-02 7.291935556199318e-02 -3.079403934098625e-02 -4.131485337937132e-02 2.303688051591647e-01 5.757945844543185e-01 2.059693743092590e-01
            7.300881537274756e-02 -3.087288545717977e-02 7.505554409376146e-02 -3.956878186486562e-02 5.757514622097326e-01 2.059952288531654e-01 -4.130295916376997e-02 2.303202551673863e-01
            -4.136106756823396e-02 2.303333360532973e-01 5.758140892095437e-01 2.060301348305384e-01 7.121620015796187e-02 -4.633582911357777e-02 6.981606599754143e-02 -3.301207495030882e-02
            5.758248020116780e-01 2.061071363048503e-01 -4.125945578183941e-02 2.302400131514416e-01 6.974337922599552e-02 -3.302312737463845e-02 7.129576218097269e-02 -4.637938762320735e-02
189977500.0000000000 5.035190612302235e-02 -2.289082322557115e-02 5.129193458777408e-02 -1.573538203101118e-02 4.362645657330941e-02 2.258250351507796e-01 6.152866151523880e-01 -6.046728937083909e-03
            5.124678263283270e-02 -1.578143277021197e-02 5.032279865580752e-02 -2.283917877016850e-02 6.153034220371909e-01 -6.026341743720075e-03 4.357007696293493e-02 2.257834922995437e-01
            4.351597978730135e-02 2.258120136076451e-01 6.152084346846907e-01 -6.095394204027198e-03 4.787745691423855e-02 -2.865751587861354e-02 4.764501628141347e-02 -1.603044928406197e-02
            6.153074842906365e-01 -6.113118329187531e-03 4.353657735212303e-02 2.257380591783318e-01 4.768895082566236e-02 -1.597842390769594e-02 4.794743390526831e-02 -2.865353080748560e-02
190810000.0000000000 4.241824483477547e-02 6.316645985113385e-03 4.552965382407545e-02 1.100993064467932e-02 1.178313804465112e-01 1.903171186813736e-01 5.765459541772218e-01 -2.211392115386653e-01
            4.555219010871432e-02 1.096492537818388e-02 4.252011250636210e-02 6.316751794213556e-03 5.765332931638196e-01 -2.211485574383194e-01 1.177528615589426e-01 1.903655334620394e-01
            1.177034887755142e-01 1.902819955380305e-01 5.765853461145453e-01 -2.211704326413467e-01 4.179713504248551e-02 3.144096350194501e-04 4.278369786746922e-02 1.246761218649544e-02
            5.764606425593222e-01 -2.211777602391441e-01 1.178073594009054e-01 1.903240979227331e-01 4.282575724572902e-02 1.245732600490181e-02 4.178450368629361e-02 2.727271605012630e-04
191642500.0000000000 5.554499482182358e-02 3.340007468653531e-02 5.962796796959167e-02 3.532255329698281e-02 1.709024915945097e-01 1.335540108515998e-01 4.626594559710647e-01 -4.085556193688674e-01
            5.983373326876996e-02 3.524674034126615e-02 5.539167423433122e-02 3.355181701808150e-02 4.626777107720180e-01 -4.084515813254574e-01 1.708745841094881e-01 1.335266936662708e-01
            1.709367459439353e-01 1.334873541124457e-01 4.627591006744066e-01 -4.085842659622197e-01 5.620389505567344e-02 2.579639336891724e-02 5.880304412811602e-02 3.752055964130772e-02
            4.628110732355080e-01 -4.085441338199982e-01 1.708756705005783e-01 1.335314640821716e-01 5.882527406448621e-02 3.758596355395744e-02 5.625794225522252e-02 2.562557646383507e-02
192475000.0000000000 8.220690994290211e-02 4.528814077974442e-02 8.670173271418087e-02 4.425703285338081e-02 2.002845922584091e-01 6.640637683030493e-02 2.909270409996615e-01 -5.418733050781203e-01
            8.668159818265869e-02 4.438347179733321e-02 8.225726218251017e-02 4.525949645721273e-02 2.909855401909769e-01 -5.418605608388289e-01 2.002302777331561e-01 6.647970650226576e-02
            2.002726287311569e-01 6.643586022287284e-02 2.909138191342112e-01 -5.418681437633246e-01 8.298690562551993e-02 3.509337152986226e-02 8.778974996107361e-02 4.592039214137021e-02
            2.909473756070944e-01 -5.418682321265661e-01 2.002881537299263e-01 6.648397456516822e-02 8.771930486946397e-02 4.598260794382338e-02 8.301835265725692e-02 3.508365378100310e-02
193307500.0000000000 1.092917289505875e-01 3.744997656657539e-02 1.132579028842985e-01 3.381249687838160e-02 2.072548692214699e-01 -3.584990322864732e-03 8.645638553648566e-02 -6.059483906468438e-01
            1.132922979254860e-01 3.391332577201832e-02 1.092386559349273e-01 3.737799649382298e-02 8.645868619410954e-02 -6.059544194599799e-01 2.072534125460884e-01 -3.547135677525935e-03
            2.072479672417935e-01 -3.614851598605542e-03 8.642805057170497e-02 -6.060386449754980e-01 1.085152462957885e-01 2.493081591753090e-02 1.153107028753628e-01 3.356115389435365e-02
            8.646181689247022e-02 -6.059653443231601e-01 2.072388457598997e-01 -3.616744912745376e-03 1.153452562559985e-01 3.351056948774295e-02 1.084925560303191e-01 2.482960991704055e-02
194140000.0000000000 1.243890367694517e-01 1.500651269539113e-02 1.271824653219396e-01 9.125658863419876e-03 1.927748757089321e-01 -7.218570674959970e-02 -1.247075943809190e-01 -5.974053121634855e-01
            1.271528173573088e-01 9.067247698502427e-03 1.243992399832052e-01 1.493925371381525e-02 -1.246549380427600e-01 -5.974532558360115e-01 1.928177307958654e-01 -7.216292712249592e-02
            1.927818792002729e-01 -7.213389042135983e-02 -1.247591909097659e-01 -5.974173393718941e-01 1.209524282725383e-01 1.150451494622749e-03 1.287502601470535e-01 6.479628030743657e-03
            -1.246987169720364e-01 -5.973570991365226e-01 1.928205940338186e-01 -7.215457596438829e-02 1.288212518468903e-01 6.467624145971494e-03 1.209991212815715e-01 1.099733115794094e-03
194972500.0000000000 1.213631189816882e-01 -1.125375714233674e-02 1.225940697577915e-01 -1.886361694473508e-02 1.562676696832752e-01 -1.339043982633670e-01 -3.199592824434421e-01 -5.199138782646807e-01
            1.226078213354343e-01 -1.882079180739979e-02 1.214224473325059e-01 -1.130591227101641e-02 -3.199457821823883e-01 -5.198618979606852e-01 1.562454342953783e-01 -1.338916348259832e-01
            1.562162345155036e-01 -1.338928226082342e-01 -3.199751475977410e-01 -5.198875464242676e-01 1.150320946503353e-01 -2.483675179949215e-02 1.222454688033063e-01 -2.333306067820163e-02
            -3.199408966329997e-01 -5.199089547246568e-01 1.562784391157752e-01 -1.338312791152024e-01 1.222687319412803e-01 -2.333111668937934e-02 1.150005434421779e-01 -2.481643911016538e-02
195805000.0000000000 1.019726678561910e-01 -2.894726969502199e-02 1.012705549607764e-01 -3.772458185170821e-02 9.866080141074807e-02 -1.802077203132044e-01 -4.797311484332100e-01 -3.817327779947646e-01
            1.013352058222606e-01 -3.770268703518064e-02 1.020280675463569e-01 -2.894326925583668e-02 -4.797870876273301e-01 -3.816737782014492e-01 9.864198748270496e-02 -1.801543119192942e-01
            9.869495064578893e-02 -1.801953294872231e-01 -4.797776807142820e-01 -3.816417432676395e-01 9.323474199915877e-02 -4.084459148627592e-02 9.798399209324908e-02 -4.265021619250720e-02
            -4.797634870024893e-01 -3.817981945249820e-01 9.871805460452091e-02 -1.801173688431627e-01 9.808078186936819e-02 -4.270515860155608e-02 9.323103083781810e-02 -4.083576725902355e-02
196637500.0000000000 7.548359940420453e-02 -2.921915985200429e-02 7.285459387665238e-02 -3.846679093314671e-02 2.666534452167174e-02 -2.016042171382845e-01 -5.851986515972308e-01 -1.952536122575740e-01
            7.283373144855436e-02 -3.853958150350148e-02 7.550753210847957e-02 -2.926572415104622e-02 -5.852107999285980e-01 -1.952145241257176e-01 2.664197393093526e-02 -2.016411226765304e-01
            2.660025776424137e-02 -2.015962110761575e-01 -5.851748892405402e-01 -1.952081226572771e-01 6.559897415449401e-02 -3.856649425551031e-02 6.644034092007746e-02 -4.192716420675718e-02
            -5.852211875836401e-01 -1.951646892197794e-01 2.663533180335970e-02 -2.016272415118932e-01 6.649586480012230e-02 -4.201670966032969e-02 6.562579196039067e-02 -3.850266698002636e-02
197470000.0000000000 5.529100878799563e-02 -1.113015941756841e-02 5.076699131124060e-02 -2.031921414305417e-02 -4.737153909819646e-02 -1.932367836522589e-01 -6.202118141111839e-01 1.998800544004120e-02
            5.073447514928286e-02 -2.027716973403836e-02 5.535792658548869e-02 -1.109656023491241e-02 -6.201394704738344e-01 2.001455828677569e-02 -4.731324784449935e-02 -1.932191546350027e-01
            -4.728067379323821e-02 -1.933090499338255e-01 -6.201322621019065e-01 1.995679744586032e-02 4.586703261514339e-02 -1.792801468035254e-02 4.253437399041159e-02 -2.070572463538761e-02
            -6.201770602253686e-01 1.996641232945076e-02 -4.731928526403040e-02 -1.932051786937038e-01 4.252696988112548e-02 -2.071990809658408e-02 4.587897672758565e-02 -1.789866776744641e-02
198302500.0000000000 5.267926675501110e-02 1.643029135277445e-02 4.662595724602981e-02 7.843241506954342e-03 -1.095166201230041e-01 -1.583721794959529e-01 -5.756711927488540e-01 2.360035077294980e-01
            4.661537713119838e-02 7.785817842023336e-03 5.269429064647593e-02 1.651321339087306e-02 -5.757302422097771e-01 2.359883322825531e-01 -1.094775064702566e-01 -1.584631368597525e-01
            -1.094724979846221e-01 -1.584352960068113e-01 -5.756513991573243e-01 2.360608569417844e-01 4.493065039378451e-02 1.117526508842825e-02 3.853335485546214e-02 1.121739391896760e-02
            -5.756396712296342e-01 2.359940879670117e-01 -1.095025593935328e-01 -1.584062181626603e-01 3.848886775914450e-02 1.119430858572433e-02 4.493003594313499e-02 1.110183770298257e-02
199135000.0000000000 6.956339246980667e-02 3.888044143573174e-02 6.240644769415887e-02 3.109656917146088e-02 -1.517801933109908e-01 -1.069839452402749e-01 -4.563588328833381e-01 4.215864021885716e-01
            6.237771828051699e-02 3.107146485213738e-02 6.955612636077331e-02 3.891195412600245e-02 -4.563167184041397e-01 4.215676254623677e-01 -1.518372280162634e-01 -1.068910214276744e-01
            -1.518219690259612e-01 -1.069844905662751e-01 -4.564039703912318e-01 4.215155514224919e-01 6.362270946001777e-02 3.350296244243518e-02 5.624836073902354e-02 3.772069057309246e-02
            -4.563256349116475e-01 4.215419722311332e-01 -1.518320692884028e-01 -1.069199345404840e-01 5.628976330896742e-02 3.770464227493053e-02 6.356567651151290e-02 3.346340072294076e-02
199967500.0000000000 9.685882970993030e-02 4.464591228284934e-02 8.919771047424892e-02 3.757237779090161e-02 -1.734821417833086e-01 -4.862964521413921e-02 -2.807361452841669e-01 5.512399414983858e-01
            8.921178790611040e-02 3.758731766900530e-02 9.687464076409413e-02 4.464439202283257e-02 -2.806636006412991e-01 5.512398143290220e-01 -1.733668009907698e-01 -4.865527918841323e-02
            -1.734887555904538e-01 -4.864314081151734e-02 -2.807258386232254e-01 5.511796636139634e-01 9.186751757051072e-02 3.796314019593901e-02 8.626945382525052e-02 4.583079494239627e-02
            -2.806887551000347e-01 5.512101458401786e-01 -1.734547010325201e-01 -4.859425133703438e-02 8.632704509248902e-02 4.589864208353851e-02 9.194571214859602e-02 3.791559904008269e-02
200800000.0000000000 1.211970843314061e-01 3.163893622806867e-02 1.131972838689345e-01 2.500434147639046e-02 -1.765861174942805e-01 1.104752399779296e-02 -7.425299915682300e-02 6.111590624199678e-01
            1.133084089485395e-01 2.508145490057644e-02 1.212291844165940e-01 3.168386051922484e-02 -7.423283816609491e-02 6.111664429006275e-01 -1.766494077643923e-01 1.107756968827782e-02
            -1.766288410021753e-01 1.108735801197653e-02 -7.426906565917300e-02 6.112315187921809e-01 1.158370726894751e-01 2.308992338780854e-02 1.139222352067073e-01 3.322354815937432e-02
            -7.423716127867316e-02 6.111712409848218e-01 -1.767423784009384e-01 1.107293260322444e-02 1.138631354970531e-01 3.321532359550126e-02 1.158227989501843e-01 2.316161930462656e-02
201632500.0000000000 1.316604164093683e-01 6.461439773577808e-03 1.234158607906581e-01 9.248327628672771e-07 -1.618161857043171e-01 6.919803910646119e-02 1.376290049979965e-01 5.984229276998480e-01
            1.233970996342151e-01 -8.714769245172783e-05 1.316009462704628e-01 6.397112246141537e-03 1.377159171667403e-01 5.984833007899863e-01 -1.617648097402016e-01 6.913633034571520e-02
            -1.617863260161183e-01 6.915793317461505e-02 1.376981415905198e-01 5.984682968536804e-01 1.245387046976067e-01 -3.098429732036115e-03 1.266922131048463e-01 6.381985727528908e-03
            1.376589234688891e-01 5.985123451540230e-01 -1.618001649057271e-01 6.919370025649631e-02 1.266521388269133e-01 6.365035042412452e-03 1.244292698340272e-01 -3.104527749312036e-03
202465000.0000000000 1.237084305983824e-01 -1.958082737611306e-02 1.150446594303104e-01 -2.607002531926771e-02 -1.278542925113392e-01 1.208224958508113e-01 3.328669517417056e-01 5.169072522011229e-01
            1.149954119801722e-01 -2.610139645246706e-02 1.237842610174675e-01 -1.954376579400640e-02 3.327943046046952e-01 5.169574815019016e-01 -1.278791206907094e-01 1.208295426111828e-01
            -1.278212133654027e-01 1.207447010836480e-01 3.328812772116866e-01 5.169069735065037e-01 1.142647476735704e-01 -2.875540358377229e-02 1.196886964865313e-01 -2.223047108049797e-02
            3.328740249919629e-01 5.168977839234001e-01 -1.278814037869659e-01 1.207698419570527e-01 1.195974084586323e-01 -2.219477391284906e-02 1.141918376628610e-01 -2.871030875624152e-02
203297500.0000000000 1.010312057015640e-01 -3.441108153357254e-02 9.140364388421081e-02 -4.092020863623737e-02 -7.593374486333372e-02 1.580819098820939e-01 4.911790785092071e-01 3.742874082532297e-01
            9.136686590533766e-02 -4.092937930860152e-02 1.011197499745834e-01 -3.436649146083352e-02 4.912527403046628e-01 3.743433879770225e-01 -7.599083875820277e-02 1.581264620550885e-01
            -7.589174434780351e-02 1.580425906924824e-01 4.911957895773736e-01 3.743054693205937e-01 8.943156389503377e-02 -4.187075584916416e-02 9.577593926449546e-02 -3.959874893475230e-02
            4.912261738292786e-01 3.743354099884856e-01 -7.588644566675792e-02 1.580657842077331e-01 9.582780701427816e-02 -3.951798842056480e-02 8.948240959788763e-02 -4.184662119786828e-02
204130000.0000000000 7.386569880713881e-02 -3.071101898457027e-02 6.316847593414249e-02 -3.689105496269055e-02 -1.259052844126401e-02 1.724011369116307e-01 5.936436911242668e-01 1.836211961375613e-01
            6.314622759697525e-02 -3.689241039006862e-02 7.391637241661808e-02 -3.063462787507410e-02 5.935789291679777e-01 1.837097146929588e-01 -1.267053921012203e-02 1.723919508258623e-01
            -1.254331503868398e-02 1.725605149206750e-01 5.936452015845873e-01 1.836406244058341e-01 6.159948942190885e-02 -3.545839586874026e-02 6.617383768674059e-02 -3.715636747101920e-02
            5.936144666418293e-01 1.836331724197393e-01 -1.262940159889396e-02 1.724247265138699e-01 6.617063504687903e-02 -3.713188124874837e-02 6.153758323641974e-02 -3.543240855080867e-02
204962500.0000000000 5.594900980038005e-02 -9.606456174624474e-03 4.412263333034370e-02 -1.480161840109206e-02 5.000954771233058e-02 1.605271952409026e-01 6.235680453857922e-01 -3.432396461874017e-02
            4.418895522866702e-02 -1.483614696521923e-02 5.592430828324736e-02 -9.529159162739744e-03 6.235355543298056e-01 -3.429422977435344e-02 5.001557073113504e-02 1.605079584489964e-01
            4.999170917337076e-02 1.605084822655440e-01 6.234416197496747e-01 -3.436778848814950e-02 4.440282706465706e-02 -1.151495029514074e-02 4.550641250034451e-02 -1.541000199828070e-02
            6.235191230627146e-01 -3.433594052866851e-02 4.996208037232416e-02 1.604741551034812e-01 4.547874442259423e-02 -1.535175348598374e-02 4.443478216597636e-02 -1.153278562082768e-02
205795000.0000000000 5.707605359071610e-02 1.823558202380057e-02 4.455674164957254e-02 1.452548853814031e-02 9.999876635197011e-02 1.268190476800057e-01 5.730885611359555e-01 -2.504617105930521e-01
            4.451641434373117e-02 1.448581148992838e-02 5.700837473076492e-02 1.827809425066782e-02 5.730125480925539e-01 -2.504980919381283e-01 9.998486836096004e-02 1.268756594028891e-01
            9.995485466119566e-02 1.268865270059719e-01 5.731000610571295e-01 -2.504091149814267e-01 4.755379240398677e-02 1.826855305132605e-02 4.473032915859933e-02 1.449978288449901e-02
            5.730036050179017e-01 -2.504645180420276e-01 9.994580065029718e-02 1.268435440288002e-01 4.482587571549251e-02 1.447937356931206e-02 4.750675506365334e-02 1.832740184338782e-02
206627500.0000000000 7.656807462709332e-02 3.803097139522389e-02 6.414531485021108e-02 3.591223243100856e-02 1.317560479058187e-01 8.134102319571550e-02 4.485674730523366e-01 -4.335619497252926e-01
            6.411074528420618e-02 3.596943221796249e-02 7.657652648542237e-02 3.798104642989766e-02 4.485637546013857e-01 -4.335057696110733e-01 1.317060642474712e-01 8.135178183221770e-02
            1.317427218125637e-01 8.134446881165032e-02 4.486666321744982e-01 -4.335300460040208e-01 6.966389763388742e-02 3.856529450386968e-02 6.401644657228643e-02 3.699484636926516e-02
            4.485682830243881e-01 -4.335637651480833e-01 1.316715906449940e-01 8.131221311341588e-02 6.401412533358014e-02 3.699527942260043e-02 6.966066147452001e-02 3.855288783315869e-02
207460000.0000000000 1.041517222054531e-01 3.985063329890899e-02 9.251403682214425e-02 3.922137570087984e-02 1.462329885707096e-01 3.211416949227737e-02 2.696473255820598e-01 -5.591037382819711e-01
            9.251275964678558e-02 3.917406828341067e-02 1.041103724459415e-01 3.976276995977986e-02 2.696587804462629e-01 -5.591835425777713e-01 1.462035236527729e-01 3.209648202568682e-02
            1.462461429997840e-01 3.211393223536720e-02 2.696557689088725e-01 -5.591275637284383e-01 9.915949186339747e-02 3.945350018061872e-02 9.283613828354050e-02 4.115350780212249e-02
            2.696823765033204e-01 -5.591379538104930e-01 1.462503180106751e-01 3.209679651265662e-02 9.276555220178061e-02 4.113988218055901e-02 9.921412053727993e-02 3.945908290115113e-02
208292500.0000000000 1.259903795169609e-01 2.348619490978769e-02 1.157420036348089e-01 2.349457629692622e-02 1.459716105702112e-01 -1.731978059088168e-02 6.172387298736634e-02 -6.148071097932535e-01
            1.157438000952103e-01 2.351181547885819e-02 1.259740351101868e-01 2.343110344388118e-02 6.180863686120728e-02 -6.147517790369729e-01 1.459250874343521e-01 -1.733913265514928e-02
            1.459882008643986e-01 -1.725447658741352e-02 6.176104503091837e-02 -6.147562951262173e-01 1.220147407196387e-01 2.159585675484451e-02 1.169850500495658e-01 2.599632231294220e-02
            6.179446298517586e-02 -6.148300851359397e-01 1.460313848304592e-01 -1.727473033321218e-02 1.169348753112030e-01 2.594426441696112e-02 1.219407560027309e-01 2.160500893889471e-02
209125000.0000000000 1.322742767718759e-01 -3.136438663343428e-03 1.235418418191447e-01 -3.127649899631137e-03 1.311339896132442e-01 -6.489493495401487e-02 -1.503848810458041e-01 -5.980296044717962e-01
            1.235897870087206e-01 -3.149854720777623e-03 1.323160146357916e-01 -3.056561929979128e-03 -1.504054679336637e-01 -5.979721543593053e-01 1.311155631324070e-01 -6.489589773329260e-02
            1.310867518816409e-01 -6.497868667944619e-02 -1.504222502106294e-01 -5.978489924104883e-01 1.280278428418760e-01 -6.133301377852992e-03 1.257828035478703e-01 -9.051246499353680e-04
            -1.503629489384094e-01 -5.979752143180639e-01 1.310723052105375e-01 -6.497827558658709e-02 1.257689006586166e-01 -9.914993160375818e-04 1.279991886921553e-01 -6.183794902133064e-03
209957500.0000000000 1.203050570167616e-01 -2.765523435573287e-02 1.125447232191508e-01 -2.873709919941186e-02 1.001656741861574e-01 -1.067265243376986e-01 -3.448667763916229e-01 -5.123326850090336e-01
            1.125260868704428e-01 -2.877586528742477e-02 1.203643493674715e-01 -2.776960853263812e-02 -3.449053220152303e-01 -5.123219596608132e-01 1.001603800052224e-01 -1.067137048114289e-01
            1.002144465418780e-01 -1.066889398286479e-01 -3.448564261659334e-01 -5.122867773975240e-01 1.152707089528953e-01 -3.136843375213288e-02 1.155819851617214e-01 -2.730561779231355e-02
            -3.449116656496601e-01 -5.123426896966267e-01 1.002016511961581e-01 -1.066631892206048e-01 1.156150855046857e-01 -2.733502184917623e-02 1.152898809967658e-01 -3.132314450970203e-02
210790000.0000000000 9.497043706827629e-02 -3.912598457883036e-02 8.726156336512837e-02 -4.163002916432655e-02 5.430223633590943e-02 -1.352320830677416e-01 -5.014242572208076e-01 -3.656911698937929e-01
            8.726702794152541e-02 -4.172891952070830e-02 9.489480064051299e-02 -3.917687903047734e-02 -5.013816638001294e-01 -3.657030300500057e-01 5.437361714810623e-02 -1.352285300015470e-01
            5.431190199273471e-02 -1.352028567379507e-01 -5.014764467787884e-01 -3.656759477435492e-01 8.933016276929082e-02 -4.232270715412351e-02 9.083068776641584e-02 -4.101497953211082e-02
            -5.013813503700920e-01 -3.657043340293380e-01 5.425976554386244e-02 -1.352433248872982e-01 9.070813026685424e-02 -4.101615953813783e-02 8.927324673858771e-02 -4.232634161626041e-02
211622500.0000000000 6.775532710710827e-02 -3.145649409937082e-02 5.908849410292597e-02 -3.509434163375740e-02 1.025639309244520e-04 -1.431034373326605e-01 -6.003381285961030e-01 -1.714245078603409e-01
            5.903170863503948e-02 -3.500753872689431e-02 6.774265383062492e-02 -3.145049093086856e-02 -6.001797122636362e-01 -1.714550660175344e-01 5.874827892717021e-05 -1.430119469834819e-01
            2.751400235392452e-05 -1.430520329545896e-01 -6.002630295977300e-01 -1.714903639096850e-01 6.215568683819973e-02 -3.352536789716598e-02 6.265139296737758e-02 -3.531608560189246e-02
            -6.002094088122183e-01 -1.714587164047871e-01 7.587924564558305e-05 -1.430421507799117e-01 6.275393368044693e-02 -3.531119071125671e-02 6.217180679952506e-02 -3.351787243705630e-02
212455000.0000000000 5.219930868118324e-02 -7.226558264859749e-03 4.191813785024016e-02 -1.111065880480888e-02 -5.110899802890304e-02 -1.281992166848221e-01 -6.250333531705005e-01 4.837044190579896e-02
            4.186158993193729e-02 -1.116477090082438e-02 5.221898706772090e-02 -7.228286573426983e-03 -6.250114624410443e-01 4.833244749150598e-02 -5.119592911357734e-02 -1.282231645469085e-01
            -5.116912763782225e-02 -1.282757201874061e-01 -6.250504202791609e-01 4.833574537178389e-02 4.768836338094560e-02 -8.550755388304620e-03 4.546038447870118e-02 -1.231393453859562e-02
            -6.250121636567190e-01 4.836881459773502e-02 -5.110171372982457e-02 -1.282423057547502e-01 4.562113801628158e-02 -1.234759131802780e-02 4.773473448328686e-02 -8.549175086775902e-03
213287500.0000000000 5.665613930669189e-02 2.114440214756158e-02 4.462038071252210e-02 1.807967177148931e-02 -8.943502340650032e-02 -9.640578708064812e-02 -5.689793141310534e-01 2.638842914487278e-01
            4.464469982400586e-02 1.804009269772790e-02 5.665878370319079e-02 2.119643477337874e-02 -5.690033184786547e-01 2.638587336952486e-01 -8.944885462936999e-02 -9.648709874976277e-02
            -8.942876242847654e-02 -9.640527455751513e-02 -5.689427732022478e-01 2.639239145124960e-01 5.393464643590495e-02 1.976103993034079e-02 4.835980753763541e-02 1.583655221356888e-02
            -5.689742784459952e-01 2.638368008458004e-01 -8.954145389647181e-02 -9.646512505004841e-02 4.825345794288016e-02 1.587073036741129e-02 5.392130901219282e-02 1.975578997241414e-02
214120000.0000000000 7.860821760005443e-02 3.934101689909826e-02 6.557788659205017e-02 3.780150076340181e-02 -1.114219090664878e-01 -5.699963537873270e-02 -4.400630248943738e-01 4.440028915840780e-01
            6.553465092049708e-02 3.776783797851677e-02 7.862270646597856e-02 3.938554198951673e-02 -4.400696641408081e-01 4.440404991624857e-01 -1.113719454641039e-01 -5.701636432108191e-02
            -1.113673987085474e-01 -5.702368162972010e-02 -4.400675047063887e-01 4.440534877251251e-01 7.749361933109059e-02 3.641822463062300e-02 6.895193458846442e-02 3.443023691368161e-02
            -4.400545608251433e-01 4.440952188090467e-01 -1.113975158742102e-01 -5.695528754764284e-02 6.890503605860376e-02 3.432845123608721e-02 7.746853048631812e-02 3.636742753771349e-02
214952500.0000000000 1.065348663516036e-01 3.849804988367423e-02 9.343644376979747e-02 3.919249358115137e-02 -1.191304714303238e-01 -1.653436206258829e-02 -2.584298367976739e-01 5.657602334018264e-01
            9.343489551492819e-02 3.910512287638616e-02 1.065788808323948e-01 3.859073315599641e-02 -2.584503196295478e-01 5.657607605042463e-01 -1.191852528789789e-01 -1.653786637040957e-02
            -1.191789721387543e-01 -1.641898227104420e-02 -2.585101708317947e-01 5.657523359057910e-01 1.060341008564302e-01 3.331875591501279e-02 9.598103627627749e-02 3.435639697528957e-02
            -2.584689686478044e-01 5.657263376392240e-01 -1.192658792003445e-01 -1.650741563758169e-02 9.594846907983032e-02 3.438982535441393e-02 1.058787418537178e-01 3.335111774557230e-02
215785000.0000000000 1.269581386028560e-01 2.020870148060165e-02 1.149704073517166e-01 2.286067517958362e-02 -1.157616602750115e-01 2.303679998215186e-02 -4.945431388492606e-02 6.173840512515091e-01
            1.149707060345894e-01 2.282700648059104e-02 1.268445042614573e-01 2.022008498176785e-02 -4.939309712471168e-02 6.174405682685618e-01 -1.156441658022684e-01 2.299774716834581e-02
            -1.156935770207697e-01 2.294835299539500e-02 -4.935296679850655e-02 6.174330970361327e-01 1.254400201720905e-01 1.269821523681014e-02 1.159545311858558e-01 1.677442578990020e-02
            -4.944252088980865e-02 6.173943733372751e-01 -1.157926368159543e-01 2.297923762665846e-02 1.160328959318122e-01 1.665174457350180e-02 1.253801481692166e-01 1.267963799144912e-02
216617500.0000000000 1.307408864138415e-01 -6.401323534635929e-03 1.207774533040431e-01 -2.750540077983680e-03 -1.006947192897271e-01 6.045219421489947e-02 1.629884246789692e-01 5.966435928281866e-01
            1.207782938633683e-01 -2.771191008913754e-03 1.307033031201851e-01 -6.532451818820788e-03 1.630070965556551e-01 5.966276914587842e-01 -1.006694836546174e-01 6.032779176570011e-02
            -1.007255539101608e-01 6.043918584277537e-02 1.630143730668173e-01 5.966593428499366e-01 1.271404937204074e-01 -1.565196849215489e-02 1.197071750126721e-01 -9.699655819316694e-03
            1.629884833518986e-01 5.966792273849364e-01 -1.006785595497765e-01 6.041353878742271e-02 1.196657328223808e-01 -9.735392099629288e-03 1.271826066693340e-01 -1.559063044520129e-02
217450000.0000000000 1.166423645180587e-01 -2.933580568331476e-02 1.089753559347259e-01 -2.578850068152683e-02 -7.257452519562085e-02 9.213253207819812e-02 3.567675696561762e-01 5.068635598392600e-01
            1.089900195334448e-01 -2.572565500705301e-02 1.167094971044682e-01 -2.933762547006358e-02 3.567622284796569e-01 5.068522238327570e-01 -7.266785905923724e-02 9.218419282525282e-02
            -7.261070988193964e-02 9.213398910943453e-02 3.567913077796016e-01 5.068742042075564e-01 1.103956429184008e-01 -3.888127523131570e-02 1.052082472958833e-01 -3.266596631438488e-02
            3.567690832141647e-01 5.068594412179043e-01 -7.255540287912539e-02 9.220023942059451e-02 1.051614020196254e-01 -3.271518368610368e-02 1.104514991431308e-01 -3.891494426065130e-02
218282500.0000000000 9.088579699464037e-02 -3.777683447645717e-02 8.513171619844170e-02 -3.533558619934733e-02 -3.287963956545173e-02 1.116244957953524e-01 5.111775188838266e-01 3.558775984956600e-01
            8.518212312896974e-02 -3.542193250801551e-02 9.095470280170115e-02 -3.779471018880057e-02 5.110963240907300e-01 3.559397723517914e-01 -3.282944443516030e-02 1.116195426885842e-01
            -3.285658438312326e-02 1.116584822926207e-01 5.111676667170961e-01 3.559727862178197e-01 8.211659304549414e-02 -4.613125234359754e-02 7.832513182284419e-02 -4.108287048459630e-02
            5.110947206491568e-01 3.559313316815447e-01 -3.282220995179901e-02 1.116601339491301e-01 7.827521207134962e-02 -4.102059104117746e-02 8.215262748464865e-02 -4.613218289793194e-02
219115000.0000000000 6.557804624020369e-02 -2.713275117462191e-02 6.083014865134351e-02 -2.672209090911926e-02 1.172256170631534e-02 1.128187738457986e-01 6.058817108049244e-01 1.581065935335837e-01
            6.082376724018036e-02 -2.660720470029340e-02 6.564541485111626e-02 -2.702724368626399e-02 6.058609322971265e-01 1.581231858662042e-01 1.176971567314792e-02 1.128584262777293e-01
            1.170054877062379e-02 1.127810773341514e-01 6.058346351732948e-01 1.581620925045515e-01 5.555705836952487e-02 -3.317632944465117e-02 5.159972865100081e-02 -2.961237297942380e-02
            6.058296420170973e-01 1.582455556043315e-01 1.176913606006930e-02 1.128359000762037e-01 5.165105120358972e-02 -2.959547655169569e-02 5.542316077481118e-02 -3.309558751373439e-02
219947500.0000000000 5.381561830674321e-02 -1.943284104286293e-03 4.885445977856541e-02 -3.611959323811471e-03 5.112997827961512e-02 9.534032213780852e-02 6.248161100676848e-01 -6.315861736102629e-02
            4.890858061323843e-02 -3.637480598250033e-03 5.372758853746437e-02 -1.966749525410617e-03 6.248485075072511e-01 -6.309482258628601e-02 5.110586585079446e-02 9.544849157399496e-02
            5.105229072710677e-02 9.542785546097862e-02 6.248111961721844e-01 -6.310089642278592e-02 4.389929523807049e-02 -5.503900367070776e-03 3.864091555171087e-02 -2.799615970289135e-03
            6.248006033466010e-01 -6.321462514841046e-02 5.110108658980734e-02 9.543592170804241e-02 3.861777104391201e-02 -2.704650357815162e-03 4.382769739496457e-02 -5.559875081782835e-03
220780000.0000000000 6.182233754943900e-02 2.462835378517425e-02 5.580557571081574e-02 2.131840152080878e-02 7.743115098039735e-02 6.618096056960401e-02 5.629479267289936e-01 -2.772317372058204e-01
            5.589300007698073e-02 2.144815447815042e-02 6.185781585863877e-02 2.470765749938558e-02 5.629091520106773e-01 -2.771450250766642e-01 7.742518049959182e-02 6.610845856831808e-02
            7.736383132106964e-02 6.608861045706403e-02 5.629368187995072e-01 -2.773032202650396e-01 5.346588515625267e-02 2.265476007523503e-02 4.651053704637399e-02 2.607089945244456e-02
            5.628926198844911e-01 -2.771806736283485e-01 7.741554868535297e-02 6.620925880431465e-02 4.642734203115023e-02 2.609631742492127e-02 5.350979437315533e-02 2.269510345758712e-02
221612500.0000000000 8.538703227252120e-02 3.910513232274051e-02 7.777736304170937e-02 3.484866910767379e-02 8.978079580973285e-02 3.352117299929910e-02 4.297629987817962e-01 -4.536130861548216e-01
            7.776085542294005e-02 3.479289560289563e-02 8.532659097178388e-02 3.910220787534080e-02 4.296718709143496e-01 -4.536221242113882e-01 8.962520148392412e-02 3.350486320431338e-02
            8.969818632803490e-02 3.349943828690059e-02 4.296615991795190e-01 -4.535793504653693e-01 7.898062763955552e-02 3.713157368275188e-02 7.076932917987055e-02 4.265660874084740e-02
            4.297282846121233e-01 -4.536538326344478e-01 8.977084646692819e-02 3.346361203744773e-02 7.081932487932199e-02 4.271745824695607e-02 7.896416798929955e-02 3.706886349808912e-02
222445000.0000000000 1.121616035277213e-01 3.454040814730586e-02 1.029556473851825e-01 3.012135902942967e-02 9.149216191220801e-02 2.228631066595328e-03 2.460639395753467e-01 -5.707581353761180e-01
            1.029531258632140e-01 3.017331716623054e-02 1.121179326626125e-01 3.452465681587837e-02 2.460961386328818e-01 -5.707407529454892e-01 9.144095146146221e-02 2.225569275169163e-03
            9.147980337664366e-02 2.340220060070288e-03 2.461193000747867e-01 -5.707594837006186e-01 1.069996153134021e-01 3.141906562338884e-02 9.937793438205424e-02 3.975562510356761e-02
            2.460584562101773e-01 -5.707287996645668e-01 9.149774322946827e-02 2.229430286199576e-03 9.940983058756671e-02 3.979051773097254e-02 1.069356957656110e-01 3.137666225419415e-02
223277500.0000000000 1.292532617647743e-01 1.411570076608591e-02 1.188982024793422e-01 1.018239505910447e-02 8.535138656438884e-02 -2.715676136409216e-02 3.662121730877153e-02 -6.181177716960505e-01
            1.188591782058644e-01 1.021323335769196e-02 1.293954127130031e-01 1.416442140692957e-02 3.655175015608718e-02 -6.180714346591768e-01 8.534741126621308e-02 -2.713740690188115e-02
            8.529438300531625e-02 -2.707266683168543e-02 3.662478290142662e-02 -6.180435627412477e-01 1.241428759174099e-01 9.239554584571583e-03 1.189334739067753e-01 2.009160732976759e-02
            3.661442250511266e-02 -6.180247096118728e-01 8.528482572528975e-02 -2.712323996188205e-02 1.189273503322408e-01 2.006161844722923e-02 1.241103160383020e-01 9.245443681641256e-03
224110000.0000000000 1.295064643480980e-01 -1.233105696315477e-02 1.182549225933808e-01 -1.561578662289069e-02 7.066338400936704e-02 -5.443419924326175e-02 -1.752937841099811e-01 -5.933573785762740e-01
            1.181802903458223e-01 -1.561042388781763e-02 1.295580172481234e-01 -1.233400487265152e-02 -1.752829294841859e-01 -5.933743471140297e-01 7.065132461002091e-02 -5.447539979144708e-02
            7.062598859511930e-02 -5.442433063998369e-02 -1.753029657158259e-01 -5.932822547094694e-01 1.229674655373478e-01 -1.863356078250854e-02 1.214144780392292e-01 -6.908113306074817e-03
            -1.753017936904197e-01 -5.934352111460907e-01 7.055613353873087e-02 -5.448951543251544e-02 1.214234237838588e-01 -6.937964892112995e-03 1.228935849381493e-01 -1.852684373438884e-02
224942500.0000000000 1.126714113389834e-01 -3.288549305618707e-02 1.008040534944410e-01 -3.548963483191767e-02 4.586582750886335e-02 -7.648487216091615e-02 -3.677419581952194e-01 -4.996697001310304e-01
            1.007661285892168e-01 -3.538344801341570e-02 1.126668527598565e-01 -3.283917478381385e-02 -3.678314712723002e-01 -4.996947516572591e-01 4.590516810713273e-02 -7.644117018027510e-02
            4.591360430032422e-02 -7.645981233842825e-02 -3.677976623186620e-01 -4.996457580288758e-01 1.038989305064671e-01 -3.914334262501996e-02 1.061598938164012e-01 -2.899243416360171e-02
            -3.677739387283221e-01 -4.996338678691882e-01 4.584483580899487e-02 -7.641010469028810e-02 1.062451111725756e-01 -2.901296013179617e-02 1.039164580620638e-01 -3.912073862358315e-02
225775000.0000000000 8.628580737356244e-02 -3.756641469457987e-02 7.385086081764643e-02 -3.952812656940979e-02 1.265883666040310e-02 -8.727944149664375e-02 -5.193952294755678e-01 -3.448483406432239e-01
            7.386018125490382e-02 -3.953010325839447e-02 8.633340201366597e-02 -3.762233196024844e-02 -5.193830814426456e-01 -3.448249223212882e-01 1.278142661541335e-02 -8.720816494953315e-02
            1.274585859224761e-02 -8.715085287945259e-02 -5.194048678906255e-01 -3.448463371573402e-01 7.547959058238826e-02 -4.251826968651352e-02 8.037247005062827e-02 -3.567463556027108e-02
            -5.193679330826386e-01 -3.449262709035967e-01 1.272847419507842e-02 -8.722554570614138e-02 8.039466894568542e-02 -3.562763792798807e-02 7.555148815393162e-02 -4.250342606593788e-02
226607500.0000000000 6.293799439472746e-02 -2.358848110093154e-02 5.012754925638386e-02 -2.473087065817485e-02 -2.212189146423279e-02 -8.214328347107626e-02 -6.094970608020021e-01 -1.441861161701437e-01
            5.016899651385882e-02 -2.485663719048380e-02 6.291278871390213e-02 -2.351825848492684e-02 -6.095055380540025e-01 -1.441924873561034e-01 -2.207689074618728e-02 -8.217345685413874e-02
            -2.204817289751035e-02 -8.225471190768119e-02 -6.094925887973760e-01 -1.441852647983470e-01 5.130648521669191e-02 -2.599575487015147e-02 5.661354631568846e-02 -2.326699353045621e-02
            -6.094726930753600e-01 -1.442899594679498e-01 -2.215933205228172e-02 -8.217285208449680e-02 5.658562423682829e-02 -2.327877650462273e-02 5.127220806722692e-02 -2.597632977541276e-02
227440000.0000000000 5.500058649706167e-02 2.930032337823842e-03 4.171416985850138e-02 2.407307206197834e-03 -4.951910569420766e-02 -6.296540295102046e-02 -6.226567294271819e-01 7.774255928990693e-02
            4.182685697629346e-02 2.469180913805753e-03 5.505271910789553e-02 2.828344211375230e-03 -6.225579983922561e-01 7.769251959468426e-02 -4.945331765942473e-02 -6.297420952278940e-02
            -4.939582549293845e-02 -6.294194669816608e-02 -6.225853340887927e-01 7.780834341543980e-02 4.407925429809988e-02 2.905768222274843e-03 4.741989295612462e-02 2.082978879788152e-03
            -6.225727148036124e-01 7.773345138434477e-02 -4.949614526475994e-02 -6.292716854051303e-02 4.742580761493741e-02 2.120427687232644e-03 4.403010213831089e-02 2.919818386038923e-03
228272500.0000000000 6.708417373999957e-02 2.765165776070424e-02 5.349612138001464e-02 2.845103080677093e-02 -6.405872893176012e-02 -3.678604511086103e-02 -5.551338524851419e-01 2.894596857687084e-01
            5.338100865965412e-02 2.844202967787944e-02 6.703313164423153e-02 2.760833713556331e-02 -5.550664239553051e-01 2.895045310095233e-01 -6.406306395038816e-02 -3.680365765194146e-02
            -6.409609438611216e-02 -3.684042568768926e-02 -5.551248706530612e-01 2.895515884920769e-01 5.781531209331902e-02 2.962884457472826e-02 5.802506901220658e-02 2.688411931203534e-02
            -5.550330338066635e-01 2.894858828444827e-01 -6.411264662227328e-02 -3.677635405603980e-02 5.805966157696978e-02 2.681903913579111e-02 5.785118911737007e-02 2.953778229752646e-02
229105000.0000000000 9.231603730911583e-02 3.814375695868340e-02 7.897441555636331e-02 4.034747322649310e-02 -6.723952995350395e-02 -1.126169800477817e-02 -4.182293363325785e-01 4.617051610930827e-01
            7.890277914308420e-02 4.034290898889104e-02 9.220350119206677e-02 3.814148197062045e-02 -4.182767960579635e-01 4.616939316042591e-01 -6.714021568639986e-02 -1.125351152717815e-02
            -6.717884903167488e-02 -1.129603449008571e-02 -4.181416272101350e-01 4.616785191434853e-01 8.548461542240000e-02 4.059724925796864e-02 8.238119816445431e-02 3.791516296867838e-02
            -4.181717128149985e-01 4.616127095004535e-01 -6.719259028500175e-02 -1.125318413103525e-02 8.241104856749648e-02 3.794078122399450e-02 8.543156760250910e-02 4.054223891599364e-02
229937500.0000000000 1.178763577915430e-01 2.952422728028063e-02 1.053776638436596e-01 3.313240789311152e-02 -6.329390887939934e-02 1.052291905215905e-02 -2.330630031543562e-01 5.739181493724781e-01
            1.053924610179937e-01 3.317700442711445e-02 1.177827060859532e-01 2.958076334123935e-02 -2.330628623756421e-01 5.739777567017192e-01 -6.327522796577333e-02 1.049807681790049e-02
            -6.333386078216843e-02 1.049146746022992e-02 -2.331162364939351e-01 5.739712618378001e-01 1.131099646343057e-01 3.110195609386495e-02 1.078672574769730e-01 3.035454373421809e-02
            -2.330772235422348e-01 5.740257194216896e-01 -6.341246944798584e-02 1.048495985191657e-02 1.077599461610093e-01 3.028986040554553e-02 1.132140610686394e-01 3.117396416206834e-02
230770000.0000000000 1.319255242056048e-01 6.675514746584606e-03 1.209712476821652e-01 1.114405627657498e-02 -5.509011539427445e-02 2.984095811157554e-02 -2.370608348223216e-02 6.169495839778011e-01
            1.209469812136237e-01 1.110709500951227e-02 1.318767226597752e-01 6.627964312468990e-03 -2.372608845455399e-02 6.168691362326196e-01 -5.502245439930388e-02 2.976140999566872e-02
            -5.508985161650025e-02 2.974481043204360e-02 -2.376037835221276e-02 6.168637070745469e-01 1.282778893924855e-01 6.586432567742399e-03 1.223004814337616e-01 8.292466266087803e-03
            -2.379200059977557e-02 6.168715762626282e-01 -5.509420405239798e-02 2.973846467861323e-02 1.222885785072747e-01 8.207023901076171e-03 1.282512203588120e-01 6.666405958869732e-03
231602500.0000000000 1.282633659514232e-01 -1.983755765277211e-02 1.191142108980370e-01 -1.553796304607479e-02 -4.129545405671134e-02 4.698836927623263e-02 1.869367199818212e-01 5.882998230541434e-01
            1.190888923059990e-01 -1.552052459513462e-02 1.281769711014278e-01 -1.990337497255404e-02 1.869823963940802e-01 5.882186287474265e-01 -4.135859259124041e-02 4.696714835626201e-02
            -4.128243165285106e-02 4.701295130746180e-02 1.869104336172911e-01 5.882485681781314e-01 1.244806582975994e-01 -2.152847051288712e-02 1.195152106243450e-01 -1.816424511582540e-02
            1.869253716697314e-01 5.882070000186426e-01 -4.128186591062413e-02 4.708475979030472e-02 1.195438686255105e-01 -1.817655574795387e-02 1.244334251437782e-01 -2.154836258148848e-02
232435000.0000000000 1.082395313291221e-01 -3.826061940561450e-02 1.007566990655213e-01 -3.485799882773361e-02 -2.060673164028775e-02 5.958078486358450e-02 3.773163241943671e-01 4.909885667510915e-01
            1.006874518314999e-01 -3.485635069376151e-02 1.082745892092045e-01 -3.820528300046845e-02 3.772598365404397e-01 4.910072206635138e-01 -2.058233679112938e-02 5.965055182305781e-02
            -2.050836631481404e-02 5.957241075602158e-02 3.773639287556394e-01 4.909796178011829e-01 1.035277130303335e-01 -4.087629474419937e-02 1.003799187625251e-01 -3.721957119655205e-02
            3.772274245313211e-01 4.909809326323913e-01 -2.056263451478932e-02 5.960635774875159e-02 1.004360019818788e-01 -3.721678985533695e-02 1.035127209933420e-01 -4.085581325059786e-02
233267500.0000000000 8.077705193125265e-02 -3.952843081518004e-02 7.404667116300589e-02 -3.790430175823522e-02 5.509233138859234e-03 6.229804519624264e-02 5.255944401314696e-01 3.331136030192916e-01
            7.409457217783233e-02 -3.792069129539681e-02 8.083218330128783e-02 -3.949385660539683e-02 5.256140441563035e-01 3.330676182016519e-01 5.607599735621169e-03 6.240912570362171e-02
            5.542032500391295e-03 6.234603938287320e-02 5.256148246374276e-01 3.330851583496247e-01 7.494555868504174e-02 -4.211918645050965e-02 7.310429572907351e-02 -3.967925832391506e-02
            5.256514237015028e-01 3.331144394199266e-01 5.476801768808852e-03 6.230640348482563e-02 7.313784534499615e-02 -3.965715054125227e-02 7.489671851015813e-02 -4.210405440147390e-02
234100000.0000000000 5.882277184008097e-02 -2.237961534701068e-02 5.171062384416197e-02 -2.250869235393746e-02 3.051667154914133e-02 5.216953355453718e-02 6.110126004374681e-01 1.304661512657046e-01
            5.181414646122984e-02 -2.257799352603182e-02 5.878044838930469e-02 -2.230472055224887e-02 6.110031064197683e-01 1.305411169750921e-01 3.051102755271275e-02 5.224454545629990e-02
            3.050217413860504e-02 5.231064709529786e-02 6.109893991049502e-01 1.304843732013335e-01 5.243354784544126e-02 -2.404788603807956e-02 5.060101387427952e-02 -2.371867627700914e-02
            6.109941331930515e-01 1.305592583998238e-01 3.061439708470104e-02 5.224714796043159e-02 5.060958768943028e-02 -2.365679440762230e-02 5.243928613762590e-02 -2.408213965738474e-02
234932500.0000000000 5.369128779364242e-02 5.232617427570212e-03 4.534361013787627e-02 3.584055024758805e-03 4.663929058922370e-02 3.193888579970190e-02 6.187322705752288e-01 -9.107056080996098e-02
            4.526929968402710e-02 3.603008042626497e-03 5.373328887876459e-02 5.308934852158766e-03 6.186989904797308e-01 -9.111459861436225e-02 4.660862925517370e-02 3.194226108278209e-02
            4.660453667357282e-02 3.196635964583641e-02 6.187207828350240e-01 -9.109209050663448e-02 4.773689876952166e-02 4.441518473302159e-03 4.430565807507238e-02 3.095448534397147e-03
            6.188020525913868e-01 -9.109285169543924e-02 4.673417541613568e-02 3.191436693491102e-02 4.425179604080848e-02 3.019950568930676e-03 4.770818888637093e-02 4.526068266358355e-03
235765000.0000000000 6.816218366237566e-02 2.907581613344580e-02 5.769003153008616e-02 2.692307453703599e-02 5.067152641780744e-02 9.128762285025108e-03 5.466832165652946e-01 -3.002917224465294e-01
            5.768740921925081e-02 2.693006961805087e-02 6.816268972048144e-02 2.913682340462340e-02 5.466993580926575e-01 -3.002674368205249e-01 5.064562774346947e-02 9.053817520640151e-03
            5.061627671201213e-02 9.053681560385302e-03 5.466359149449507e-01 -3.003149763395055e-01 6.336947908579521e-02 2.854225612816613e-02 5.710580456669805e-02 2.668854251629501e-02
            5.466562378632933e-01 -3.002495073444756e-01 5.061878457486207e-02 9.119284778048100e-03 5.710595426531529e-02 2.661023634275235e-02 6.331216963553114e-02 2.851476911132228e-02
236597500.0000000000 9.422240313193522e-02 3.726331555222906e-02 8.178561113895619e-02 3.586195801756228e-02 4.541043690165179e-02 -9.674397378766318e-03 4.067490542880614e-01 -4.684972117085067e-01
            8.181368918883254e-02 3.587102979927563e-02 9.420466770535739e-02 3.729318414499274e-02 4.068362706486317e-01 -4.685264588672936e-01 4.543899141061179e-02 -9.632473585565323e-03
            4.542236548442676e-02 -9.655522520944768e-03 4.068444755651202e-01 -4.685300112489257e-01 9.069968539131570e-02 3.593011096982418e-02 8.163896229176053e-02 3.541907062093146e-02
            4.067763825042007e-01 -4.684943871607565e-01 4.537148575633705e-02 -9.762152626268497e-03 8.168966752349434e-02 3.539517883854096e-02 9.075036522717077e-02 3.606063389340351e-02
237430000.0000000000 1.187853672557011e-01 2.676322083871233e-02 1.050518550602175e-01 2.700021283092350e-02 3.615956104865238e-02 -2.303325025090065e-02 2.204459446144990e-01 -5.766056953120723e-01
            1.050507833449470e-01 2.707111393261441e-02 1.187673025978521e-01 2.685599419675118e-02 2.204671537793289e-01 -5.766086803716935e-01 3.612098492021588e-02 -2.297916850866962e-02
            3.607858643453454e-02 -2.294411355263379e-02 2.204437985020090e-01 -5.765915328711401e-01 1.157799106051991e-01 2.373318396218312e-02 1.051124935489288e-01 2.592638320849643e-02
            2.205152348507886e-01 -5.765634984435971e-01 3.610488255523477e-02 -2.296350526111422e-02 1.050102422467135e-01 2.586867496496818e-02 1.158125234079747e-01 2.365047486825426e-02
238262500.0000000000 1.305267121861156e-01 3.419314373553681e-03 1.165827592578600e-01 5.673975090085109e-03 2.525865046517087e-02 -3.262530336601737e-02 1.100485716505512e-02 -6.153562018157683e-01
            1.165747386943077e-01 5.683932638030119e-03 1.306360378673097e-01 3.452151822842867e-03 1.102917390526777e-02 -6.154513572907178e-01 2.530011520098276e-02 -3.265044046279218e-02
            2.519479593336955e-02 -3.261421373965173e-02 1.099309089967740e-02 -6.154531116349693e-01 1.268013257653372e-01 -1.840926587119147e-03 1.160578565971626e-01 3.804329986485066e-03
            1.105696959257208e-02 -6.154676627122945e-01 2.535464133942877e-02 -3.262034292849957e-02 1.160696545234046e-01 3.732781124340973e-03 1.268120402404854e-01 -1.786930081536809e-03
239095000.0000000000 1.247805141308603e-01 -2.186102834604081e-02 1.114242265636883e-01 -1.761936971194423e-02 1.182986235302489e-02 -3.982047639920214e-02 -1.989607542136199e-01 -5.827950307595947e-01
            1.114487234930953e-01 -1.760321858387053e-02 1.246999427976124e-01 -2.190957697912039e-02 -1.988995134867930e-01 -5.827805097989845e-01 1.185064001998266e-02 -3.980941162794810e-02
            1.184482873812505e-02 -3.992078496646745e-02 -1.989594837137882e-01 -5.827924395306284e-01 1.188053347531517e-01 -2.871481792189196e-02 1.099543890801044e-01 -2.022473022941471e-02
            -1.989645444504664e-01 -5.828213283343483e-01 1.179140032650580e-02 -3.975907087055167e-02 1.098464739366241e-01 -2.018456455466881e-02 1.187925374025387e-01 -2.872324564033382e-02
239927500.0000000000 1.040010416672182e-01 -3.728277808837053e-02 9.227005266964863e-02 -3.186967981546478e-02 -5.418323791830899e-03 -4.238816702870969e-02 -3.874249389127058e-01 -4.813305713093199e-01
            9.228001283882387e-02 -3.190249902643725e-02 1.040498990926481e-01 -3.729901312071938e-02 -3.874128363586083e-01 -4.814017881955656e-01 -5.390593605977251e-03 -4.240958429869708e-02
            -5.442813958228356e-03 -4.231785214849097e-02 -3.873707657742177e-01 -4.813942631715553e-01 9.505387285745046e-02 -4.438415809315776e-02 8.905037589180231e-02 -3.461623947381694e-02
            -3.874096530894305e-01 -4.813652112866574e-01 -5.360057561171644e-03 -4.234120406193587e-02 8.899103765584973e-02 -3.461998561421451e-02 9.501559559589426e-02 -4.442330695786845e-02
240760000.0000000000 7.802299957256131e-02 -3.543248439264991e-02 6.809981921833934e-02 -2.955535048721991e-02 -2.408083769988632e-02 -3.645231383559016e-02 -5.318513549427983e-01 -3.196834814235792e-01
            6.808936308364591e-02 -2.965825197861249e-02 7.806016768807582e-02 -3.541347908289927e-02 -5.318295411203022e-01 -3.195811411800799e-01 -2.414661602515270e-02 -3.647359485441484e-02
            -2.413690205482887e-02 -3.636023730453932e-02 -5.318698874767709e-01 -3.196327260846173e-01 6.602381520240061e-02 -4.103266831601778e-02 6.285005494552216e-02 -3.157338476201816e-02
            -5.318413799449559e-01 -3.195724141552763e-01 -2.414446728982798e-02 -3.637100202326120e-02 6.279053042249870e-02 -3.159199669236034e-02 6.596012306474072e-02 -4.097183505595482e-02
241592500.0000000000 5.989727674865007e-02 -1.654586206943169e-02 5.146897212836615e-02 -1.112996638137571e-02 -3.834484986376874e-02 -2.066294222518552e-02 -6.115031507784693e-01 -1.148688200477197e-01
            5.150165937772386e-02 -1.119716990547644e-02 5.989541793677789e-02 -1.653200040433805e-02 -6.114884964583054e-01 -1.149794150051825e-01 -3.835953971543887e-02 -2.071116666008256e-02
            -3.834919242424997e-02 -2.066190481319721e-02 -6.113469046541411e-01 -1.149552571634290e-01 4.581852116926107e-02 -1.896035459135869e-02 4.455313888190152e-02 -1.118186557972749e-02
            -6.114765505029360e-01 -1.148892171334479e-01 -3.837672007642132e-02 -2.069059720700806e-02 4.458072967897751e-02 -1.116233739037681e-02 4.582836816714529e-02 -1.896724095177249e-02
242425000.0000000000 5.925156568256105e-02 9.719678600973902e-03 5.192000357523383e-02 1.401561319635234e-02 -4.205305438876622e-02 2.267194108811986e-04 -6.126722878604777e-01 1.057483669356294e-01
            5.183817899048912e-02 1.401813619089920e-02 5.927949317554251e-02 9.762494669169850e-03 -6.126587214409976e-01 1.056586841122815e-01 -4.205011581934592e-02 1.307122851801448e-04
            -4.208615415256822e-02 1.739617873494070e-04 -6.127169639145637e-01 1.057471718824586e-01 4.514426823133914e-02 1.112392142094857e-02 4.412505675419483e-02 1.686849507274671e-02
            -6.127394356913708e-01 1.057956209864491e-01 -4.200099480177929e-02 1.568871621819011e-04 4.419147523733520e-02 1.699066788794182e-02 4.511578892079173e-02 1.108151007956620e-02
243257500.0000000000 7.657149439519467e-02 2.943801037449495e-02 6.955144297927479e-02 3.248294768845593e-02 -3.466042218078585e-02 1.850410216030527e-02 -5.352915285932140e-01 3.109939496817892e-01
            6.946748339834354e-02 3.251135786594782e-02 7.661362571848439e-02 2.936509215690033e-02 -5.353737964681203e-01 3.109915694679636e-01 -3.462565117981128e-02 1.849728646646674e-02
            -3.471038409163388e-02 1.855465978589467e-02 -5.352853104976439e-01 3.109717419189540e-01 6.422295188738700e-02 3.413332246631625e-02 6.242974464696723e-02 3.855998796455550e-02
            -5.352620587916518e-01 3.110106258035863e-01 -3.468394696519309e-02 1.854063868429811e-02 6.253834300326536e-02 3.861436025911027e-02 6.423646749453990e-02 3.404723062283099e-02
244090000.0000000000 1.024828905704348e-01 3.260758885442491e-02 9.533006212565097e-02 3.447250631091503e-02 -2.127938430431308e-02 2.924786961490762e-02 -3.927997881877955e-01 4.737631376782571e-01
            9.520085722046823e-02 3.447167047939771e-02 1.025462162028379e-01 3.258447129584280e-02 -3.927517227397043e-01 4.737434058650626e-01 -2.128514187460154e-02 2.918174135559776e-02
            -2.134578129985133e-02 2.932662296503110e-02 -3.928235119024837e-01 4.737587660251922e-01 9.301390248780467e-02 3.889927132264687e-02 9.016753006747075e-02 4.348263061982224e-02
            -3.928057557790567e-01 4.737132837259560e-01 -2.130709681718543e-02 2.927284605839674e-02 9.003711847251993e-02 4.346580740012539e-02 9.308934830549101e-02 3.897847952111647e-02
244922500.0000000000 1.239674323710566e-01 1.814785049450169e-02 1.161525563229392e-01 1.915235104860815e-02 -7.701278911104968e-03 3.282603412554407e-02 -2.062338485640929e-01 5.763761834562326e-01
            1.163189920529870e-01 1.910540954566391e-02 1.238863283370920e-01 1.815704499275227e-02 -2.063046466666625e-01 5.764124574037188e-01 -7.646528686045887e-03 3.284926365643264e-02
            -7.713327780161942e-03 3.288298807320932e-02 -2.062683832395418e-01 5.764498668612190e-01 1.175530134627594e-01 2.436668876247638e-02 1.141568143032861e-01 3.015082964096049e-02
            -2.063103687176480e-01 5.763709624357998e-01 -7.666579405926396e-03 3.276382311625695e-02 1.141192246244983e-01 3.008844923167039e-02 1.175981678356704e-01 2.435806800012411e-02
245755000.0000000000 1.312821717992474e-01 -6.810180915407500e-03 1.229409663377353e-01 -6.277534102384973e-03 4.300561349049609e-03 3.252189078073692e-02 1.810672549535307e-03 6.107361072121056e-01
            1.228380131938210e-01 -6.387185193947485e-03 1.312749221115022e-01 -6.847454336147169e-03 1.771737073192491e-03 6.107318239358730e-01 4.295884737944265e-03 3.255739230142023e-02
            4.187195820280095e-03 3.253868351308765e-02 1.753942741046779e-03 6.106335235411867e-01 1.270028808004491e-01 -1.955247179641544e-03 1.245046462554247e-01 5.307817086001368e-03
            1.737202282540565e-03 6.106669017233290e-01 4.318966721365768e-03 3.256402720592192e-02 1.243693375943528e-01 5.280596759315941e-03 1.270501481083907e-01 -1.884981131949676e-03
246587500.0000000000 1.209788713025451e-01 -3.095383900682440e-02 1.118898762792397e-01 -3.102617488524640e-02 1.585712822350636e-02 3.011368847159565e-02 2.092468639088687e-01 5.743593736404140e-01
            1.119695048942396e-01 -3.103221786734817e-02 1.210903160753221e-01 -3.092452639398914e-02 2.093765501913807e-01 5.744421594675719e-01 1.581606436376287e-02 3.018093893760194e-02
            1.583928477898736e-02 3.010601742787389e-02 2.093367968592570e-01 5.743881750211669e-01 1.175663546758579e-01 -2.795345018849589e-02 1.171910341052073e-01 -1.995512073624557e-02
            2.093366411044264e-01 5.744022975172390e-01 1.584274365095897e-02 3.011721066768979e-02 1.171628476458886e-01 -1.995416896993631e-02 1.176082527280226e-01 -2.802608980583745e-02
247420000.0000000000 9.761298412891097e-02 -4.323347427382257e-02 8.742979816669891e-02 -4.376376013065089e-02 2.834649522047489e-02 2.389475858362215e-02 3.945321752948730e-01 4.699179611360456e-01
            8.747740119756442e-02 -4.375823473944997e-02 9.768586064566598e-02 -4.322878361584784e-02 3.944846790927991e-01 4.700097686972343e-01 2.832576442578207e-02 2.400700687536344e-02
            2.835954451798696e-02 2.391803628659572e-02 3.945994867865035e-01 4.700353920945431e-01 9.347575736509822e-02 -4.206199907838192e-02 9.603893922772694e-02 -3.472173183465833e-02
            3.946327727795770e-01 4.700609446262638e-01 2.827106081669272e-02 2.388456149274268e-02 9.597336024722455e-02 -3.467250035240650e-02 9.353461233735938e-02 -4.202565890414348e-02
248252500.0000000000 7.133099786415717e-02 -3.751139687576507e-02 5.975128012692161e-02 -3.829371150627676e-02 3.958196124700995e-02 1.098213506828011e-02 5.348169232838239e-01 3.062549298552565e-01
            5.987308727349012e-02 -3.824200892947211e-02 7.137117317626150e-02 -3.747325406850696e-02 5.347953858147734e-01 3.062560712930926e-01 3.964999415135993e-02 1.101596121327596e-02
            3.964519260686516e-02 1.097194659905649e-02 5.348934000482231e-01 3.062971378434833e-01 6.578013473269950e-02 -3.703442027085621e-02 7.067039346053140e-02 -3.218701526713974e-02
            5.348381960157751e-01 3.063119312741564e-01 3.955048052770381e-02 1.097902376948840e-02 7.055832375430958e-02 -3.220142045358305e-02 6.578924354380161e-02 -3.703173089314869e-02
249085000.0000000000 5.514620423779160e-02 -1.580559058767475e-02 4.202426445236636e-02 -1.629602777348664e-02 4.389449421546874e-02 -8.657930354560434e-03 6.094621695055191e-01 1.011556077161575e-01
            4.198446246596034e-02 -1.619665621224627e-02 5.517983423791188e-02 -1.586444929732868e-02 6.094119894548657e-01 1.011937944944704e-01 4.392594254742795e-02 -8.596082877098713e-03
            4.400914415490145e-02 -8.618490598611540e-03 6.094686838332916e-01 1.011608297565936e-01 4.801159686481719e-02 -1.467892359145253e-02 5.378675884251438e-02 -1.379448723388703e-02
            6.094062209859241e-01 1.011869133235956e-01 4.388767906815032e-02 -8.604675609662629e-03 5.371728123091642e-02 -1.378563957657962e-02 4.806343546026917e-02 -1.470909855372185e-02
249917500.0000000000 5.768091647127673e-02 1.088035440779907e-02 4.262745854793525e-02 1.170666725597866e-02 3.705927333432681e-02 -2.944455838287666e-02 6.057441170240442e-01 -1.178033833797412e-01
            4.267248361202381e-02 1.157386307913696e-02 5.772079921147466e-02 1.090517448721171e-02 6.057261749851512e-01 -1.178444734943986e-01 3.701255673700750e-02 -2.953882801823642e-02
            3.705207443218012e-02 -2.954685692951633e-02 6.057233878474416e-01 -1.178068212633243e-01 4.947678051665078e-02 1.383563935825464e-02 5.395773829987596e-02 1.046079459108241e-02
            6.057623781173290e-01 -1.177948139463842e-01 3.706105984704116e-02 -2.948854240215237e-02 5.390788814017142e-02 1.048394244372105e-02 4.944425294787951e-02 1.377335343445743e-02
250750000.0000000000 7.717290314758850e-02 2.880706513377409e-02 6.065174056677839e-02 3.160039059637559e-02 2.007883890111887e-02 -4.399818946581450e-02 5.247368675960473e-01 -3.196599746870349e-01
            6.060370275972746e-02 3.152260878617392e-02 7.723212065116766e-02 2.872509057620280e-02 5.247200041635600e-01 -3.196626551502651e-01 2.004484028712987e-02 -4.400537324216702e-02
            2.019431702516235e-02 -4.410409161409731e-02 5.246902162642246e-01 -3.197289504870231e-01 6.917020011525692e-02 3.390110969982583e-02 7.025395813916067e-02 2.751417704092544e-02
            5.247604599984815e-01 -3.196622179899568e-01 2.006654306642442e-02 -4.406180659222086e-02 7.036629028275804e-02 2.751287739891221e-02 6.916468436584608e-02 3.394597573930123e-02
251582500.0000000000 1.031535593819202e-01 2.895780744555471e-02 8.593335371972646e-02 3.451446410973767e-02 -7.811680363600817e-04 -4.828479313034816e-02 3.802512713731804e-01 -4.781614545411124e-01
            8.591000813284094e-02 3.456577324181081e-02 1.032018939909024e-01 2.889204164271763e-02 3.803171130305891e-01 -4.782234738374884e-01 -7.028304698909201e-04 -4.832173642940805e-02
            -7.287165963256933e-04 -4.829830505644605e-02 3.803157570622948e-01 -4.781904945741094e-01 9.655107551558764e-02 3.618729770153498e-02 9.320869919948525e-02 2.873555538988330e-02
            3.803032351824995e-01 -4.782574748305879e-01 -7.151551463375237e-04 -4.816479229989715e-02 9.317192414094849e-02 2.865309703596450e-02 9.651938860341451e-02 3.624827984081611e-02
252415000.0000000000 1.227572686749950e-01 1.209971112265769e-02 1.058723514988191e-01 2.106912607718919e-02 -1.943573837553764e-02 -4.355045364595731e-02 1.931420982305159e-01 -5.766666474598082e-01
            1.058295754855894e-01 2.099753930357895e-02 1.226451865471714e-01 1.213323520866892e-02 1.931372964625629e-01 -5.767009211182259e-01 -1.941394172255912e-02 -4.355994271954580e-02
            -1.938597222272662e-02 -4.357691974342482e-02 1.931521860613117e-01 -5.766930151186848e-01 1.183030752850423e-01 2.059404409013947e-02 1.105660657424858e-01 1.428970931106992e-02
            1.930989008836528e-01 -5.767360039136027e-01 -1.942770528318924e-02 -4.353267894943753e-02 1.105307392460520e-01 1.430626325166008e-02 1.182833498998485e-01 2.058125927882798e-02
253247500.0000000000 1.264637872483707e-01 -1.339867986469080e-02 1.113637675178309e-01 -1.607333096623557e-03 -3.367813928730478e-02 -3.388696693835622e-02 -1.466260307528217e-02 -6.069672590719568e-01
            1.113549472746010e-01 -1.624157190978589e-03 1.264425117212346e-01 -1.344637236834927e-02 -1.456924545683160e-02 -6.070741234426372e-01 -3.381449048498853e-02 -3.383051713167375e-02
            -3.374492703365767e-02 -3.389263182507301e-02 -1.462568031811173e-02 -6.069410372703825e-01 1.247436368094363e-01 -4.717275272407055e-03 1.138759789923080e-01 -8.102422404014561e-03
            -1.455691823560691e-02 -6.069401941318445e-01 -3.371308149449932e-02 -3.390070591173609e-02 1.138103885193558e-01 -8.104283016482481e-03 1.248185108787680e-01 -4.745726634579457e-03
254080000.0000000000 1.128086013761606e-01 -3.578972366803877e-02 1.005985287888711e-01 -2.191790052944504e-02 -4.481253029261090e-02 -2.118977276493886e-02 -2.209112316601694e-01 -5.664185815646817e-01
            1.005792847375968e-01 -2.194393700208573e-02 1.128016014727063e-01 -3.573887477531269e-02 -2.208439765963447e-01 -5.664743932341761e-01 -4.484092400856385e-02 -2.126481374904101e-02
            -4.481572922057169e-02 -2.121473665513462e-02 -2.208738298705561e-01 -5.664538419691585e-01 1.134351194364107e-01 -2.792757600843047e-02 1.013765136561234e-01 -2.751889349084089e-02
            -2.208966796314837e-01 -5.663835862738301e-01 -4.477029713185209e-02 -2.124266616307001e-02 1.012981884970032e-01 -2.751624133048729e-02 1.134569658679073e-01 -2.796082693565262e-02
254912500.0000000000 8.730269732421760e-02 -4.426359227387183e-02 7.854797703844285e-02 -2.977967750649259e-02 -5.317028561997057e-02 -4.828302520747465e-03 -4.032595715223807e-01 -4.577276976420747e-01
            7.854685316767902e-02 -2.977746710010990e-02 8.726544446499510e-02 -4.427269978598129e-02 -4.032772924708845e-01 -4.577016095782304e-01 -5.313801805763481e-02 -4.869036874361605e-03
            -5.313034142598407e-02 -4.868709718982359e-03 -4.033127386800832e-01 -4.576665477389584e-01 8.977151498132256e-02 -3.813042674097845e-02 7.824923803282435e-02 -3.405282888912443e-02
            -4.032914887238633e-01 -4.576607485824863e-01 -5.312945855835018e-02 -4.849019241666364e-03 7.831931651909410e-02 -3.403071018522991e-02 8.977216117319793e-02 -3.819267866529012e-02
255745000.0000000000 6.178125731421649e-02 -3.420844694844888e-02 5.626107885495579e-02 -2.025116604745376e-02 -5.605673887116099e-02 1.655755057940156e-02 -5.385257783951465e-01 -2.904861749304763e-01
            5.631713773416824e-02 -2.018379707166177e-02 6.174234291429570e-02 -3.411302506615564e-02 -5.385471174549772e-01 -2.904988643924464e-01 -5.601138148562849e-02 1.657800452538744e-02
            -5.603110130080104e-02 1.655354127657747e-02 -5.384992185255890e-01 -2.905297597893706e-01 6.518576743729043e-02 -2.990300690905159e-02 5.574964923079451e-02 -2.333877924099377e-02
            -5.385669424721483e-01 -2.905829588800457e-01 -5.598792073209646e-02 1.649699769185399e-02 5.574991451734491e-02 -2.324018701805494e-02 6.517229072672472e-02 -2.995928682120623e-02
256577500.0000000000 4.884473454019810e-02 -9.508300825801480e-03 4.587271679903532e-02 2.794836683370945e-03 -4.877739400984094e-02 4.068608318767682e-02 -6.063318159419850e-01 -8.449512737208460e-02
            4.586285908341886e-02 2.824907007247738e-03 4.885339186609846e-02 -9.499897323979056e-03 -6.063036771090753e-01 -8.451118808732595e-02 -4.881849926419164e-02 4.059330792353511e-02
            -4.875055739497833e-02 4.061083840516117e-02 -6.064291940264194e-01 -8.451401564842059e-02 5.243202584459306e-02 -7.203891924449807e-03 4.556867505016012e-02 4.843010953825643e-04
            -6.063720441827080e-01 -8.453531523507445e-02 -4.873349298666425e-02 4.061185341192673e-02 4.561618469068371e-02 5.370638312749516e-04 5.246088594966489e-02 -7.258173368908051e-03
257410000.0000000000 5.536051472335541e-02 1.742849240469016e-02 5.373652775245071e-02 2.769186121541360e-02 -2.941902327171752e-02 6.061474304299501e-02 -5.959420146917951e-01 1.318151011055759e-01
            5.379162499092901e-02 2.763533066263324e-02 5.533556672640443e-02 1.736740361874267e-02 -5.959712987083809e-01 1.317825602715521e-01 -2.947771739164626e-02 6.067440362701728e-02
            -2.947274469611966e-02 6.060123367890282e-02 -5.959697797842036e-01 1.318384878199139e-01 5.846161766647946e-02 1.817327656152102e-02 5.391326887300728e-02 2.567669377600167e-02
            -5.958967579287577e-01 1.318120224316806e-01 -2.947363078557395e-02 6.062409109509349e-02 5.386982688933037e-02 2.569086170151846e-02 5.845852255580210e-02 1.816359846177918e-02
258242500.0000000000 7.730638912896003e-02 3.300923127459055e-02 7.630051147363064e-02 4.143440748087031e-02 -2.123761243413886e-03 6.951791224148314e-02 -5.104382910610550e-01 3.282534416778882e-01
            7.645341601527267e-02 4.137141132048423e-02 7.735635195876396e-02 3.306967142222307e-02 -5.103685550986113e-01 3.282591092800418e-01 -1.971833423928544e-03 6.937349111998212e-02
            -2.065231207977336e-03 6.945603392463306e-02 -5.104398762047171e-01 3.282680987162879e-01 7.972614526049990e-02 3.280846544503178e-02 7.684370118781199e-02 3.936469774385714e-02
            -5.104747494755424e-01 3.282012681983197e-01 -2.071212114049773e-03 6.946172341167797e-02 7.688314014706359e-02 3.936027212173884e-02 7.967981988333023e-02 3.273336539930689e-02
259075000.0000000000 1.035681627274738e-01 3.041768791672473e-02 1.025707505436854e-01 3.739523070457813e-02 2.569395946761543e-02 6.503047404787682e-02 -3.644875360578724e-01 4.805261721690044e-01
            1.025066294323566e-01 3.734476210945278e-02 1.035264461466693e-01 3.043862044986824e-02 -3.645050861670562e-01 4.805153825631314e-01 2.564137717953699e-02 6.506469549941726e-02
            2.568709602351456e-02 6.510208111052303e-02 -3.644893551884152e-01 4.805768668617109e-01 1.050703936768953e-01 2.974867081838887e-02 1.029778806388280e-01 3.510894640155506e-02
            -3.645071703721645e-01 4.805495794924031e-01 2.578392571055780e-02 6.507012416989738e-02 1.029943121627011e-01 3.505664158421722e-02 1.050322715736332e-01 2.973642421230666e-02
259907500.0000000000 1.212273260087575e-01 1.183441898514915e-02 1.201796735615566e-01 1.794676403000399e-02 4.771079659122091e-02 5.078745407664044e-02 -1.783116713999791e-01 5.734799307160993e-01
            1.201453666325501e-01 1.782975328422376e-02 1.211994125783327e-01 1.186382604218436e-02 -1.783090737831816e-01 5.734830531329148e-01 4.769004209478699e-02 5.077717426194218e-02
            4.781542379022926e-02 5.078807578661448e-02 -1.783377204387910e-01 5.735457475832384e-01 1.221315883604641e-01 1.111083030411145e-02 1.203633473843786e-01 1.536203416267834e-02
            -1.782553069771957e-01 5.734452541017755e-01 4.780457357160858e-02 5.079774888317857e-02 1.202840210467233e-01 1.537292964933423e-02 1.221268903688083e-01 1.114714106312108e-02
260740000.0000000000 1.226796302233758e-01 -1.344348225009959e-02 1.217932411364607e-01 -8.062775728807941e-03 6.246305041718355e-02 3.148495590349552e-02 2.708025003476830e-02 5.993373481092897e-01
            1.217484524208343e-01 -8.028837671534381e-03 1.227323814927289e-01 -1.337434588458958e-02 2.705971030867953e-02 5.993255104027433e-01 6.252568201208358e-02 3.148029179157632e-02
            6.249924587171884e-02 3.141422185571376e-02 2.704992260561179e-02 5.992893714093893e-01 1.230690197852939e-01 -1.398653777286566e-02 1.214689725688953e-01 -1.063404713881349e-02
            2.711801066211508e-02 5.993619587147789e-01 6.249476846411290e-02 3.143190618885943e-02 1.215249360855129e-01 -1.054808547884659e-02 1.231039438740144e-01 -1.398707565976647e-02
261572500.0000000000 1.072369474159623e-01 -3.368920798370971e-02 1.068926749045032e-01 -2.924733205577920e-02 7.126717185549820e-02 9.658893855907938e-03 2.302263740385722e-01 5.553889449616390e-01
            1.068349337425038e-01 -2.917174397886657e-02 1.072054650079685e-01 -3.372095838542683e-02 2.302390367765768e-01 5.553324832431979e-01 7.121893731797459e-02 9.606130548431084e-03
            7.126365179046197e-02 9.609302179052544e-03 2.302912871789436e-01 5.552894263933222e-01 1.076051110919094e-01 -3.398872640299778e-02 1.060401613904736e-01 -3.161471623297687e-02
            2.302731193006527e-01 5.553883014629819e-01 7.122426465216057e-02 9.573412573660851e-03 1.061017020132729e-01 -3.155330127732005e-02 1.075824220225874e-01 -3.395991107914484e-02
262405000.0000000000 8.170179385596012e-02 -3.911005624272126e-02 8.190672698344709e-02 -3.598188818694012e-02 7.427520478026206e-02 -1.524062634853003e-02 4.086028483736171e-01 4.438863929813990e-01
            8.191085803787773e-02 -3.596210152677728e-02 8.171783485085647e-02 -3.913903748604879e-02 4.086779454773595e-01 4.439604719212663e-01 7.431014175534739e-02 -1.514296166300068e-02
            7.425724926026621e-02 -1.517653961309136e-02 4.086927298954779e-01 4.439874885910880e-01 8.242830956900518e-02 -3.919047719198930e-02 8.071915305903116e-02 -3.791246521054952e-02
            4.086139135841106e-01 4.439457511273872e-01 7.434293991407659e-02 -1.516084528585476e-02 8.077016842076137e-02 -3.778657559039194e-02 8.230436620348558e-02 -3.914562616591492e-02
263237500.0000000000 5.837752693046201e-02 -2.609100154821762e-02 5.859677692185652e-02 -2.484606650996384e-02 6.905701440039161e-02 -4.304813816744382e-02 5.388465017000416e-01 2.753292469104838e-01
            5.856658104250775e-02 -2.473438468660438e-02 5.830304621535099e-02 -2.608443388453052e-02 5.388258349438860e-01 2.752646529782853e-01 6.908046995752350e-02 -4.298619420465243e-02
            6.904793671851253e-02 -4.297258250607159e-02 5.388454117942891e-01 2.752651888478087e-01 5.950369068298570e-02 -2.611303920175765e-02 5.741759555516220e-02 -2.615864595590827e-02
            5.387669582537267e-01 2.752906882379734e-01 6.903493183207249e-02 -4.297743286385731e-02 5.741622132207248e-02 -2.615636605608385e-02 5.945280331611312e-02 -2.611933064527533e-02
264070000.0000000000 4.919921761672323e-02 -3.544620685221330e-04 4.874635411528806e-02 -1.050698099536240e-03 5.150752958801671e-02 -7.008210846611133e-02 6.008286747368974e-01 6.997397576019034e-02
            4.867589435529145e-02 -1.068627237482138e-03 4.928414260561117e-02 -3.384670336619621e-04 6.008679641876924e-01 6.991825184584571e-02 5.157433071286281e-02 -7.009988543610614e-02
            5.148303325287611e-02 -7.021817000049084e-02 6.008683934402139e-01 6.989097467889405e-02 5.094345458010036e-02 -7.628586236044783e-04 4.767292623043427e-02 -2.037025415540502e-03
            6.008032706335014e-01 6.987800534049529e-02 5.156611934710099e-02 -7.011564859929445e-02 4.765777764360413e-02 -1.902719522859847e-03 5.095789501247980e-02 -7.555566870430991e-04
264902500.0000000000 5.951281656183088e-02 2.526991736409883e-02 5.743757683975557e-02 2.282481745872495e-02 2.144723633971413e-02 -8.886622598484736e-02 5.853754742439155e-01 -1.433355848866384e-01
            5.736071422942725e-02 2.285561876021737e-02 5.953772228827416e-02 2.521858164302950e-02 5.852735776740180e-01 -1.433554065526012e-01 2.156218721889327e-02 -8.887077663561675e-02
            2.147305237485139e-02 -8.894235156233164e-02 5.852657275145825e-01 -1.433670284862189e-01 6.161734262091346e-02 2.408993060775725e-02 5.656817496964515e-02 2.220490986995765e-02
            5.853213837675536e-01 -1.433786779487840e-01 2.147817429946981e-02 -8.888932705807137e-02 5.656920664391964e-02 2.222773434109548e-02 6.171538097297517e-02 2.421117680487773e-02
265735000.0000000000 8.398271293194713e-02 3.770885948080255e-02 7.944532938164917e-02 3.444965833643517e-02 -1.507735423965876e-02 -9.279945581762557e-02 4.965303965469848e-01 -3.349204395330068e-01
            7.945692261948337e-02 3.447161556033596e-02 8.389905627358243e-02 3.768614594521506e-02 4.964396882258366e-01 -3.349206529109366e-01 -1.514631583985863e-02 -9.283340257948684e-02
            -1.501744121211906e-02 -9.276041005247060e-02 4.964196402139465e-01 -3.349168619043685e-01 8.606504109214226e-02 3.571960517620390e-02 7.886222366219164e-02 3.396579966543925e-02
            4.964120596648804e-01 -3.349055167669861e-01 -1.500417840345961e-02 -9.278559282779644e-02 7.879506045563303e-02 3.391418388234226e-02 8.603183630563672e-02 3.563209768711985e-02
266567500.0000000000 1.102327956759948e-01 3.143106892981769e-02 1.032377126604249e-01 2.871267086981301e-02 -4.932878500716042e-02 -8.097745716225670e-02 3.495162454158612e-01 -4.818139416719073e-01
            1.031977347791854e-01 2.869630463647615e-02 1.101475192671037e-01 3.143686867067458e-02 3.494804626043187e-01 -4.817663782059030e-01 -4.926252791148161e-02 -8.103265092428695e-02
            -4.936490255986533e-02 -8.101397405180583e-02 3.494435882522471e-01 -4.817718613829624e-01 1.119503776325288e-01 2.857016562760759e-02 1.026586644597185e-01 2.823163262391290e-02
            3.494869350884528e-01 -4.817754097393317e-01 -4.931433046863180e-02 -8.103063076013536e-02 1.026627824705472e-01 2.817364428808762e-02 1.118856477093704e-01 2.862954422653048e-02
267400000.0000000000 1.260868185445337e-01 1.015500849584622e-02 1.172871518051653e-01 8.983568009131734e-03 -7.500556015646970e-02 -5.795083417569933e-02 1.640864576406230e-01 -5.697317611791853e-01
            1.173266165008426e-01 9.013044099898990e-03 1.261000828558610e-01 1.021854690689264e-02 1.640608217355032e-01 -5.697914138712254e-01 -7.500547009784654e-02 -5.793143810562651e-02
            -7.501291922786069e-02 -5.792104532478436e-02 1.641120661165024e-01 -5.698291003753881e-01 1.271688292569429e-01 6.943413849370922e-03 1.168517630989728e-01 8.588076852581041e-03
            1.640734068662122e-01 -5.698193756849370e-01 -7.508898228537116e-02 -5.790061264058714e-02 1.168749675647961e-01 8.655706638837291e-03 1.271488136672873e-01 6.979829983625200e-03
268232500.0000000000 1.248519819459437e-01 -1.609786848255546e-02 1.153298781884358e-01 -1.527307509967655e-02 -9.060151416323947e-02 -2.920219124081853e-02 -3.930485615459035e-02 -5.912175920446096e-01
            1.154038012810601e-01 -1.523328133528280e-02 1.247992466975293e-01 -1.606555211251472e-02 -3.928478899741711e-02 -5.912928021159052e-01 -9.060782115988719e-02 -2.915699185247831e-02
            -9.067645723785998e-02 -2.920364482637881e-02 -3.925831324983540e-02 -5.912892601895604e-01 1.252930321053157e-01 -1.926231589850592e-02 1.149705120635366e-01 -1.533314438197127e-02
            -3.925276110663955e-02 -5.913011553076443e-01 -9.064639588156394e-02 -2.926693724456543e-02 1.150903215490516e-01 -1.538070111361989e-02 1.253917396357621e-01 -1.925049217784495e-02
269065000.0000000000 1.071463546432816e-01 -3.561292959298215e-02 9.812986402682809e-02 -3.282409508832338e-02 -9.742538549695769e-02 2.132180638090767e-03 -2.394037693636946e-01 -5.436091886691876e-01
            9.811502349663245e-02 -3.280563235624678e-02 1.072001519906000e-01 -3.558413032147253e-02 -2.393169438032815e-01 -5.435822843892242e-01 -9.727678869711635e-02 2.149019750345667e-03
            -9.732242840768728e-02 2.153977929165336e-03 -2.393951881461477e-01 -5.436154424867552e-01 1.072353775262844e-01 -3.835809940455148e-02 9.811790029260331e-02 -3.272706479311973e-02
            -2.393840999955808e-01 -5.435516958752151e-01 -9.729372062540757e-02 2.137536976475388e-03 9.811227069879053e-02 -3.271047416009430e-02 1.071727385043853e-01 -3.838948535725495e-02
269897500.0000000000 8.069617906373315e-02 -3.911179231414974e-02 7.323262366732779e-02 -3.505842484072477e-02 -9.500746941874724e-02 3.565429925676739e-02 -4.134546101926631e-01 -4.292146507622365e-01
            7.310595023727980e-02 -3.501931955410898e-02 8.077221986355422e-02 -3.907874768578548e-02 -4.134229164394797e-01 -4.292654832508586e-01 -9.504797344718850e-02 3.564635625995909e-02
            -9.513867890295895e-02 3.560672521491120e-02 -4.134895632781300e-01 -4.292174311557115e-01 8.101819601969204e-02 -4.131799196734828e-02 7.367935344743759e-02 -3.494510144556998e-02
            -4.134222126175633e-01 -4.292634517473748e-01 -9.499808235119500e-02 3.553160005880120e-02 7.365392243265134e-02 -3.494373054107432e-02 8.102273903254070e-02 -4.130461693565856e-02
270730000.0000000000 5.822992581582667e-02 -2.428429600052706e-02 5.232288252837694e-02 -2.024690002514157e-02 -8.126010513640058e-02 6.980374540648442e-02 -5.378826296240740e-01 -2.592552850610292e-01
            5.224192300190662e-02 -2.022642643781444e-02 5.825847831538877e-02 -2.431503843417266e-02 -5.379347647283773e-01 -2.592847950929828e-01 -8.117295901429059e-02 6.975907625565959e-02
            -8.128050263231594e-02 6.984537595747639e-02 -5.379994065249312e-01 -2.593486887929362e-01 5.919446483354282e-02 -2.631088173819892e-02 5.351495510679250e-02 -2.026825478060436e-02
            -5.379294218177546e-01 -2.593059581864989e-01 -8.133830548845031e-02 6.983308052611575e-02 5.347380542177561e-02 -2.029642910868069e-02 5.921536494052624e-02 -2.623755057847523e-02
271562500.0000000000 5.113353157036259e-02 1.838087552211219e-03 4.642341950778590e-02 4.855063800674814e-03 -5.312636420509585e-02 9.959952361526241e-02 -5.939121721541128e-01 -5.516372921306915e-02
            4.633459030276929e-02 4.956217188485121e-03 5.115409641073807e-02 1.695832691260925e-03 -5.940128738712188e-01 -5.517015363886615e-02 -5.312829381458652e-02 9.945306159952619e-02
            -5.315771901521339e-02 9.947515577472375e-02 -5.939042731235150e-01 -5.513226458317783e-02 5.301431765391441e-02 -5.050527237974507e-04 4.822835536130831e-02 4.222394490896631e-03
            -5.939040984711199e-01 -5.512411793187935e-02 -5.309735727531366e-02 9.957829858100913e-02 4.823617531063581e-02 4.183901872451874e-03 5.309831806066753e-02 -4.634284921274708e-04
272395000.0000000000 6.307316937773411e-02 2.588880329874639e-02 5.867408751155468e-02 2.756529595880170e-02 -1.252435482744361e-02 1.166218652317436e-01 -5.732329271576304e-01 1.542718809123965e-01
            5.864778212076124e-02 2.750206359221770e-02 6.298013021550955e-02 2.592124033478257e-02 -5.732734821160131e-01 1.544007004572964e-01 -1.254466928919140e-02 1.165882212533281e-01
            -1.256367761084249e-02 1.165056856655260e-01 -5.732917276896919e-01 1.543140364610874e-01 6.575236639095829e-02 2.253765692230625e-02 6.061116928379125e-02 2.586737818575995e-02
            -5.732380638310025e-01 1.543299693834205e-01 -1.249464309561275e-02 1.165349796817948e-01 6.063880103307034e-02 2.580559123531985e-02 6.578007822025111e-02 2.251183054683050e-02
273227500.0000000000 8.750843345396364e-02 3.603244931670077e-02 8.229195478674411e-02 3.635675682342734e-02 3.270094973422642e-02 1.151433084092893e-01 -4.815784485533799e-01 3.405602030418379e-01
            8.233332663272286e-02 3.636205788755788e-02 8.755844132315703e-02 3.591793789748853e-02 -4.814776595432116e-01 3.405843661943859e-01 3.269300740294753e-02 1.151280302968360e-01
            3.276352357405450e-02 1.151273761897747e-01 -4.815801732515640e-01 3.405497870219665e-01 9.029730359697948e-02 3.107689081186281e-02 8.402120908181079e-02 3.352841103689675e-02
            -4.815270187266157e-01 3.405607634048728e-01 3.261824148778918e-02 1.150835961698968e-01 8.398688222465293e-02 3.356784227714500e-02 9.032495407386612e-02 3.115414143470830e-02
274060000.0000000000 1.120866864798421e-01 2.780399649593616e-02 1.054169802714801e-01 2.760566042796703e-02 7.301635129569915e-02 9.568442139933350e-02 -3.339754070473518e-01 4.818776947109574e-01
            1.054846929179889e-01 2.767470881434216e-02 1.120927682387063e-01 2.781633008041994e-02 -3.340263084228287e-01 4.818431180929703e-01 7.309019595442366e-02 9.580006520287263e-02
            7.307547342868301e-02 9.581056887657276e-02 -3.339235248624924e-01 4.818610066324240e-01 1.141749999278571e-01 2.152252060519709e-02 1.062748335010840e-01 2.407024835557270e-02
            -3.340849525201979e-01 4.818532087889006e-01 7.304672254465097e-02 9.580199261297302e-02 1.061969388129963e-01 2.400603954231093e-02 1.141209386196028e-01 2.148944551577846e-02
274892500.0000000000 1.254441066103731e-01 6.065688985212492e-03 1.172799810983872e-01 6.595313743558951e-03 1.021683776462450e-01 6.402970967732642e-02 -1.497261143937859e-01 5.648241966595718e-01
            1.172268573768037e-01 6.517164888939555e-03 1.255330879429693e-01 6.034502107018539e-03 -1.497333224331376e-01 5.647998736050232e-01 1.021201149346561e-01 6.403618551651089e-02
            1.021344313851687e-01 6.402059948793523e-02 -1.496597905277796e-01 5.648027511460327e-01 1.261474196395107e-01 -1.003131146600745e-03 1.167729142304120e-01 2.653267197699073e-03
            -1.497145306683385e-01 5.647823241107310e-01 1.021373806280041e-01 6.404000834150136e-02 1.168643956643457e-01 2.652612821087474e-03 1.261357067245164e-01 -1.097217884907597e-03
275725000.0000000000 1.218437308760770e-01 -1.894536880463992e-02 1.127556078869422e-01 -1.706611142509870e-02 1.184411517558195e-01 2.608092056430574e-02 5.135218156324006e-02 5.820578562408275e-01
            1.127388018180791e-01 -1.700311676283601e-02 1.219312213158604e-01 -1.900779595762533e-02 5.135443308659874e-02 5.820436578840958e-01 1.184321570911571e-01 2.598494259111497e-02
            1.183909849779531e-01 2.611163309466710e-02 5.132548384737002e-02 5.820603461727191e-01 1.209892883187539e-01 -2.613496608722703e-02 1.112761381292485e-01 -2.068316421369027e-02
            5.136037875297321e-02 5.820281597834636e-01 1.184219821980634e-01 2.599672312556658e-02 1.112478435550146e-01 -2.072813703856141e-02 1.210143380701255e-01 -2.617126691842698e-02
276557500.0000000000 1.029517550296419e-01 -3.588453624092270e-02 9.402213638103847e-02 -3.222428681954166e-02 1.227351763918690e-01 -1.469907702824739e-02 2.480313380300663e-01 5.305506957732027e-01
            9.408309695261076e-02 -3.223751311444644e-02 1.030079198549180e-01 -3.594537823583471e-02 2.480520537844959e-01 5.305650786655269e-01 1.228123759903129e-01 -1.473154891060330e-02
            1.228057932270202e-01 -1.473738489846526e-02 2.479819147250163e-01 5.306408661724767e-01 1.008575706383989e-01 -4.213922704228763e-02 9.157886514043784e-02 -3.518863380479993e-02
            2.480459419967564e-01 5.306193669675715e-01 1.228141791802089e-01 -1.469187290583967e-02 9.168560673270558e-02 -3.517140449594284e-02 1.008698970445243e-01 -4.219555936005355e-02
277390000.0000000000 7.723978370910878e-02 -3.658704661148707e-02 6.958681353095642e-02 -3.146563027113259e-02 1.148019454089218e-01 -5.676822523948274e-02 4.172604312477737e-01 4.135458375563540e-01
            6.957631201177146e-02 -3.153684066209951e-02 7.730382191594644e-02 -3.664000037699063e-02 4.172277265305244e-01 4.135173513399257e-01 1.148152346425458e-01 -5.677212365994779e-02
            1.148419305222111e-01 -5.670829216741761e-02 4.172574046702203e-01 4.135019186365668e-01 7.487576874592664e-02 -4.161117176883270e-02 6.677336591047107e-02 -3.347823909973022e-02
            4.172842004771502e-01 4.135365556570783e-01 1.147996498616188e-01 -5.675694025269711e-02 6.677252115215306e-02 -3.347700319227837e-02 7.484579197011632e-02 -4.155066368608118e-02
278222500.0000000000 5.725135774980891e-02 -2.008925442292269e-02 5.146246797683355e-02 -1.455672543977001e-02 9.209995893787314e-02 -9.685803878618088e-02 5.357476142571078e-01 2.425884014952556e-01
            5.150411544926928e-02 -1.445980950526597e-02 5.728455116169681e-02 -2.018967232188520e-02 5.356991510005679e-01 2.426773811267000e-01 9.211768398079374e-02 -9.691341333833928e-02
            9.215304006257077e-02 -9.686673756225220e-02 5.356719945408170e-01 2.426669754250894e-01 5.556672644652540e-02 -2.378346510666226e-02 4.882702352610734e-02 -1.559379852122799e-02
            5.357279445318313e-01 2.427131255537853e-01 9.216689215913200e-02 -9.687766635438438e-02 4.889945489687482e-02 -1.563832368003815e-02 5.561278709733945e-02 -2.391602059041316e-02
279055000.0000000000 5.312973609582017e-02 5.495246353613055e-03 4.930609042901459e-02 1.047361718736832e-02 5.340828988010735e-02 -1.285618065359979e-01 5.853360760630494e-01 4.038200215538960e-02
            4.924101117007294e-02 1.044688796809628e-02 5.323315166339512e-02 5.451131751375041e-03 5.853428823049013e-01 4.035773160923831e-02 5.334717596503735e-02 -1.285885790653566e-01
            5.332332773822684e-02 -1.286472730907004e-01 5.852925473255224e-01 4.034122470243041e-02 5.292584728394479e-02 2.190115978246446e-03 4.721242963788954e-02 9.803821521939681e-03
            5.852823517566793e-01 4.031614471918442e-02 5.335474549015744e-02 -1.285579107491552e-01 4.719524539987136e-02 9.798620827016026e-03 5.303676456468998e-02 2.130420805723502e-03
279887500.0000000000 6.713619839662532e-02 2.712259532665025e-02 6.428973173636192e-02 3.050023088094689e-02 2.495244469299585e-03 -1.432918481022227e-01 5.596574356416057e-01 -1.647695776257111e-01
            6.429583906731490e-02 3.035888402277847e-02 6.699887089478544e-02 2.710294268699668e-02 5.597693539173940e-01 -1.646408766153962e-01 2.502604898521389e-03 -1.433326545627631e-01
            2.479619262188438e-03 -1.432309146291533e-01 5.597735535259192e-01 -1.646662042299107e-01 6.844342487988810e-02 2.293143582925741e-02 6.270702173911664e-02 2.972949870096022e-02
            5.597074043689652e-01 -1.647044589549707e-01 2.466986021732091e-03 -1.432709817165770e-01 6.270487573946641e-02 2.980993759219036e-02 6.845976717949458e-02 2.292815471122544e-02
280720000.0000000000 9.121840969572520e-02 3.397504148156172e-02 8.848338384340018e-02 3.541517162209233e-02 -5.105491245969882e-02 -1.362008440884868e-01 4.655963798985134e-01 -3.450655955425981e-01
            8.854133523855810e-02 3.540351570184179e-02 9.120997030721800e-02 3.407692758523294e-02 4.655519802801620e-01 -3.450240159910530e-01 -5.103264272597291e-02 -1.362457316925205e-01
            -5.097877793535323e-02 -1.361687933978410e-01 4.654870551674489e-01 -3.450377109939010e-01 9.352149116031787e-02 2.803668850964519e-02 8.709467216231767e-02 3.444414005198888e-02
            4.655416960118198e-01 -3.451011871865593e-01 -5.096508311783673e-02 -1.362024089152472e-01 8.707765917026497e-02 3.443040683684909e-02 9.356941451931282e-02 2.797451567814404e-02
281552500.0000000000 1.135561580742869e-01 2.382054393546023e-02 1.097383302577248e-01 2.356833703044316e-02 -9.693270773374062e-02 -1.093249954932268e-01 3.179554032408447e-01 -4.805840655597058e-01
            1.097767090764034e-01 2.349473295894672e-02 1.135455660809058e-01 2.383450171376346e-02 3.178699945505596e-01 -4.805512829282348e-01 -9.683430377192839e-02 -1.093608869132713e-01
            -9.685040722690409e-02 -1.092425120303039e-01 3.179231158910787e-01 -4.806301176244261e-01 1.154509823697929e-01 1.544522924478413e-02 1.081108849001578e-01 2.233143024104673e-02
            3.179460823782612e-01 -4.805588105990232e-01 -9.691403757360985e-02 -1.093011202710019e-01 1.080393508090782e-01 2.232087788550043e-02 1.155284586452918e-01 1.552228974692948e-02
282385000.0000000000 1.238126358388127e-01 1.983948087245187e-03 1.182904917796805e-01 9.544161830741385e-04 -1.289354973996859e-01 -6.897544764770389e-02 1.352067109369270e-01 -5.585092487856841e-01
            1.183502512517374e-01 9.072219218690069e-04 1.238396770984839e-01 1.977988077560201e-03 1.352321641115823e-01 -5.584885195160685e-01 -1.289765301909847e-01 -6.893154005857548e-02
            -1.289515044150538e-01 -6.894622258839243e-02 1.352198633537209e-01 -5.584378328766781e-01 1.241975602333250e-01 -8.037398133728358e-03 1.162213331947883e-01 -2.076084872274431e-04
            1.352280828020209e-01 -5.584814344913903e-01 -1.289780689863729e-01 -6.897553617896691e-02 1.162671322797923e-01 -2.158807388130951e-04 1.240916566662492e-01 -8.138540177703747e-03
283217500.0000000000 1.176174610438000e-01 -2.124148438337822e-02 1.105381517217247e-01 -2.191670205766729e-02 -1.455396365761089e-01 -2.177509765230767e-02 -6.314649082775470e-02 -5.713760587064891e-01
            1.103418801491783e-01 -2.190990452731608e-02 1.176095640562167e-01 -2.129187810709234e-02 -6.307254246746327e-02 -5.713335036841031e-01 -1.455948659768300e-01 -2.182066197823782e-02
            -1.455897908966980e-01 -2.178181691625524e-02 -6.316890769976753e-02 -5.713807211932374e-01 1.157036280405188e-01 -3.203657040833856e-02 1.079735758533221e-01 -2.255162622826255e-02
            -6.316611681863737e-02 -5.713312916374267e-01 -1.456218135450393e-01 -2.174086938049056e-02 1.080787278384311e-01 -2.251843021519820e-02 1.157382496063206e-01 -3.205507717394735e-02
284050000.0000000000 9.772968123874357e-02 -3.504456880634874e-02 8.951886910194441e-02 -3.448904182579750e-02 -1.472968398914458e-01 2.821532459417713e-02 -2.558896346661148e-01 -5.163712247089783e-01
            8.953216649841317e-02 -3.451606022888640e-02 9.770036694326975e-02 -3.507646304255242e-02 -2.558560966976220e-01 -5.163086152378183e-01 -1.472851514020765e-01 2.821433656585690e-02
            -1.472178018287582e-01 2.812532492080117e-02 -2.559044407215835e-01 -5.163471696710036e-01 9.375054775369702e-02 -4.528442138399683e-02 8.713904763367811e-02 -3.437020736217533e-02
            -2.558475284255596e-01 -5.162567448116824e-01 -1.473293752617159e-01 2.812534709575857e-02 8.715172259367955e-02 -3.444149372235006e-02 9.370798045230405e-02 -4.530025225824369e-02
284882500.0000000000 7.329194833231785e-02 -3.262561909175195e-02 6.497938212891362e-02 -3.050297066293228e-02 -1.332433309763602e-01 7.826642576205703e-02 -4.197848570055704e-01 -3.968202801938635e-01
            6.495379762622458e-02 -3.053207883687490e-02 7.332713937577282e-02 -3.261124272868045e-02 -4.197899190944539e-01 -3.967950305580434e-01 -1.331947179068702e-01 7.826172276516537e-02
            -1.332149516418288e-01 7.823931563924856e-02 -4.197093012030856e-01 -3.967890455125996e-01 6.820843781880211e-02 -4.112865871940626e-02 6.338698641309788e-02 -2.974226995269071e-02
            -4.197578128438609e-01 -3.968292973065857e-01 -1.332224340694302e-01 7.826590318719871e-02 6.332134712786275e-02 -2.973216429126108e-02 6.815887969013958e-02 -4.122103396362366e-02
285715000.0000000000 5.642596344027530e-02 -1.448652196978666e-02 4.886116070456831e-02 -1.114030903357144e-02 -1.015106856786728e-01 1.238871289678043e-01 -5.317643777254536e-01 -2.256458463062240e-01
            4.888741975691559e-02 -1.111388438018749e-02 5.634651075914390e-02 -1.454079842323937e-02 -5.317516862504258e-01 -2.256769751975918e-01 -1.015305317175704e-01 1.237831041209876e-01
            -1.015534061267080e-01 1.237517859389095e-01 -5.317867649005305e-01 -2.256039545243845e-01 5.154052070330542e-02 -2.138963176694364e-02 4.838856517205484e-02 -1.029197838406693e-02
            -5.317824425638400e-01 -2.256139654625919e-01 -1.015008015457514e-01 1.238040840184548e-01 4.837125036535044e-02 -1.033674258285943e-02 5.156154378384998e-02 -2.126296330011827e-02
286547500.0000000000 5.571792112678829e-02 1.035912503109539e-02 4.949929010792840e-02 1.422849554465931e-02 -5.234893812667882e-02 1.569227694345904e-01 -5.751943185774306e-01 -2.591481327953084e-02
            4.952319784233006e-02 1.421742388735139e-02 5.564661815000459e-02 1.044714564392854e-02 -5.751187073987863e-01 -2.589820172043081e-02 -5.233214683458050e-02 1.569050559949584e-01
            -5.227117263645869e-02 1.569456088523553e-01 -5.751549823591723e-01 -2.594680145010559e-02 5.234340580465523e-02 4.326208495102974e-03 5.017039001627010e-02 1.414263212055997e-02
            -5.751266795914239e-01 -2.588875835582201e-02 -5.233547991197342e-02 1.568210472950974e-01 5.022691325781222e-02 1.420283924882751e-02 5.234005819024950e-02 4.297300944929162e-03
287380000.0000000000 7.137334662475654e-02 2.923677447763904e-02 6.643734426514263e-02 3.267973076912545e-02 8.353539157122039e-03 1.689037582144132e-01 -5.450526247717308e-01 1.741487463842806e-01
            6.643437202815776e-02 3.264756980472797e-02 7.136091060432134e-02 2.924576089619772e-02 -5.450535888451309e-01 1.740820509959996e-01 8.371360465921945e-03 1.688747332106298e-01
            8.312155485106132e-03 1.689445452034741e-01 -5.449678756613553e-01 1.741998635407509e-01 6.987812048285690e-02 2.236974064520163e-02 6.787105269074681e-02 3.083765766000807e-02
            -5.450370508821137e-01 1.741755570364798e-01 8.309091081023540e-03 1.689281086681801e-01 6.788503680210492e-02 3.079912157852518e-02 6.989930836519996e-02 2.228153363037799e-02
288212500.0000000000 9.495955630217842e-02 3.321910192419698e-02 9.073157527378722e-02 3.546696515440748e-02 6.958477326684585e-02 1.561293245587995e-01 -4.488022848743436e-01 3.485781546017814e-01
            9.075609382980811e-02 3.546962553787244e-02 9.490467876033298e-02 3.321665354054578e-02 -4.487625623028897e-01 3.485165040276036e-01 6.944145569798502e-02 1.561883016138661e-01
            6.952150972818699e-02 1.561234981920789e-01 -4.488408976268949e-01 3.485262750646229e-01 9.454955508526768e-02 2.379963880846875e-02 9.174317226899023e-02 3.135818738628711e-02
            -4.488003203969483e-01 3.484934953539782e-01 6.956101229175912e-02 1.561445724309294e-01 9.178375321792531e-02 3.129397681216244e-02 9.450571921209637e-02 2.384688092513979e-02
289045000.0000000000 1.148778315665712e-01 2.141150581357780e-02 1.106604432832243e-01 2.242352281758105e-02 1.206604211509868e-01 1.218381948719523e-01 -3.014080193436977e-01 4.783406266609405e-01
            1.105414535936337e-01 2.236527268261139e-02 1.148751010752770e-01 2.141091888537169e-02 -3.014461141766927e-01 4.782265482899707e-01 1.207093515607842e-01 1.218108046614059e-01
            1.206403652285285e-01 1.218242449878636e-01 -3.014147897732432e-01 4.781853340797256e-01 1.136711362843957e-01 8.640868695817575e-03 1.097594757591687e-01 1.620492326220621e-02
            -3.014005813121908e-01 4.782941323784449e-01 1.207734876831833e-01 1.218124204012662e-01 1.097769138349424e-01 1.615227642448320e-02 1.137291854703163e-01 8.591342199307768e-03
289877500.0000000000 1.224155831087553e-01 1.514179647723796e-04 1.172554679873288e-01 1.275945865083031e-04 1.555104069902904e-01 7.309738977980394e-02 -1.204697429003757e-01 5.511034975445720e-01
            1.172180499112270e-01 1.617275872958096e-04 1.223754960710770e-01 1.925255968332304e-04 -1.204703479319568e-01 5.510386100358081e-01 1.554817848109444e-01 7.295077749759184e-02
            1.555284607312730e-01 7.308493419682577e-02 -1.204212055694023e-01 5.509890893314333e-01 1.182983840867142e-01 -1.562216857626382e-02 1.133794975969690e-01 -7.334885039043188e-03
            -1.205114876080671e-01 5.509972681361116e-01 1.555381344041891e-01 7.298687981949019e-02 1.133593461783080e-01 -7.239092177151466e-03 1.181329963263420e-01 -1.571590672794394e-02
290710000.0000000000 1.145680400993569e-01 -2.045825126806543e-02 1.081321063002008e-01 -2.075194468210151e-02 1.723679856868107e-01 1.664575271883272e-02 7.479582173568483e-02 5.594737426126289e-01
            1.081565919484736e-01 -2.070247505888823e-02 1.145281027504217e-01 -2.039489599829590e-02 7.488618952320791e-02 5.594746634548685e-01 1.723817565241086e-01 1.670299562005838e-02
            1.724176472974939e-01 1.666451718701147e-02 7.482400032229333e-02 5.593866160545055e-01 1.057924698487713e-01 -3.774246124835354e-02 1.007697752421547e-01 -2.781471815327743e-02
            7.474552229830950e-02 5.594827321034757e-01 1.724660332104895e-01 1.665111794414983e-02 1.008314556290752e-01 -2.781687914999709e-02 1.057684850792331e-01 -3.776174812487755e-02
291542500.0000000000 9.535244116468924e-02 -3.088094450858099e-02 8.801626037944049e-02 -3.049054429710156e-02 1.711085390325821e-01 -4.259351038834087e-02 2.632052462239716e-01 5.006768878316737e-01
            8.794132909783352e-02 -3.050181548138759e-02 9.546156597255336e-02 -3.083914771218496e-02 2.632124158172074e-01 5.006796531912312e-01 1.710877438035907e-01 -4.257601892313650e-02
            1.710641903270150e-01 -4.253366652135690e-02 2.632585196302384e-01 5.007676254553712e-01 8.113334356637129e-02 -4.698752144644466e-02 7.701364494976652e-02 -3.578988674442788e-02
            2.632254925692433e-01 5.007063011284114e-01 1.711761068012538e-01 -4.261079385510663e-02 7.697267008350929e-02 -3.579581490808265e-02 8.117272988458180e-02 -4.700889854454394e-02
292375000.0000000000 7.439305014419678e-02 -2.596161357866442e-02 6.651203192776137e-02 -2.446257447829649e-02 1.505208240180382e-01 -1.005431502948747e-01 4.212217157751493e-01 3.789057333389564e-01
            6.649391481474888e-02 -2.438433641047861e-02 7.438243781713044e-02 -2.595733473796191e-02 4.212083221126981e-01 3.789209863223258e-01 1.506420802205881e-01 -1.006318601845764e-01
            1.506378536967631e-01 -1.005977376609984e-01 4.212008822187459e-01 3.788482184478311e-01 5.548396889620078e-02 -3.816604280783002e-02 5.278638369666772e-02 -2.613754512455341e-02
            4.212391553712768e-01 3.788453348704401e-01 1.506275314099681e-01 -1.005448994271281e-01 5.274421429016990e-02 -2.617706050790739e-02 5.550256610676729e-02 -3.817401652412314e-02
293207500.0000000000 6.221527112034835e-02 -8.194992179703280e-03 5.485189127712086e-02 -5.287757297971864e-03 1.095103503618223e-01 -1.510749548497587e-01 5.263523669129392e-01 2.080187245176587e-01
            5.492174293688683e-02 -5.409928233769564e-03 6.228992022539580e-02 -8.178669182226971e-03 5.262591448960077e-01 2.079604198526882e-01 1.095460678084930e-01 -1.511545171367267e-01
            1.095168645717109e-01 -1.510867189456532e-01 5.262792191452411e-01 2.079180326313456e-01 4.126842663450629e-02 -1.449184633005791e-02 4.003586820958265e-02 -2.546561520163527e-03
            5.262708474670366e-01 2.080264060482147e-01 1.095411448363015e-01 -1.511343912783254e-01 4.005739304399911e-02 -2.560433178420132e-03 4.127603314205232e-02 -1.452684317965547e-02
294040000.0000000000 6.567340776727795e-02 1.282177659257958e-02 5.953622081267406e-02 1.637002975579565e-02 4.980223027023061e-02 -1.848051711263685e-01 5.631332705804810e-01 1.152072652919662e-02
            5.954972258200644e-02 1.642840893881467e-02 6.563384928157143e-02 1.282493853911893e-02 5.632066473898819e-01 1.152008910730452e-02 4.976933868246452e-02 -1.847542106075584e-01
            4.973290073685468e-02 -1.847774232309717e-01 5.631505569812273e-01 1.155163613749314e-02 4.567294173607998e-02 1.262825896164820e-02 4.552885312412273e-02 2.385282297013749e-02
            5.631924183100347e-01 1.151219979085755e-02 4.977250840890701e-02 -1.848943320793913e-01 4.543003590130575e-02 2.390440351497501e-02 4.561248423978366e-02 1.259972278282625e-02
294872500.0000000000 8.220384138998664e-02 2.562091673880679e-02 7.782520799462073e-02 2.898648201686552e-02 -2.033222526918292e-02 -1.935276543603347e-01 5.287553042630524e-01 -1.828724664923604e-01
            7.789423103353932e-02 2.905623210887904e-02 8.222108589558824e-02 2.562342704562807e-02 5.287448354533081e-01 -1.828298167101194e-01 -2.035888130549059e-02 -1.934407467017423e-01
            -2.038813511290723e-02 -1.934852854034844e-01 5.286663451288326e-01 -1.827386660092823e-01 6.607009977575738e-02 2.997673960154940e-02 6.617848555416833e-02 4.047143034739633e-02
            5.286832192846759e-01 -1.828407563263512e-01 -2.031498306742887e-02 -1.934239324011744e-01 6.617673605494928e-02 4.053803592017283e-02 6.609623651935413e-02 3.006753253663137e-02
295705000.0000000000 1.028684833459073e-01 2.367433797826089e-02 9.996202668734208e-02 2.584164227199628e-02 -8.871177992338157e-02 -1.747291934628191e-01 4.310955382267982e-01 -3.507275629699895e-01
            1.000131179307086e-01 2.595333146592601e-02 1.028972671608352e-01 2.363760796416035e-02 4.310487143746843e-01 -3.507276545598946e-01 -8.871667941414929e-02 -1.747453431247432e-01
            -8.870155029700363e-02 -1.747390342559581e-01 4.309873903623809e-01 -3.506519404616418e-01 9.189842890387805e-02 2.998763242194131e-02 9.160945419909122e-02 4.019237345458526e-02
            4.309671459833713e-01 -3.507373002102774e-01 -8.871206156277116e-02 -1.747744083071749e-01 9.160069131090096e-02 4.019121923734931e-02 9.192553519675072e-02 2.998910159489365e-02
296537500.0000000000 1.167760264708251e-01 8.517852885126445e-03 1.146238076995902e-01 8.577304197258101e-03 -1.444643914990776e-01 -1.329205479172661e-01 2.843112141583770e-01 -4.743709862027007e-01
            1.146204986391390e-01 8.682719468482907e-03 1.167094998102211e-01 8.551423713372667e-03 2.844004500028608e-01 -4.743682051909697e-01 -1.445123299720439e-01 -1.328982958528822e-01
            -1.444768964029116e-01 -1.329563380374075e-01 2.843578491164167e-01 -4.744654832012114e-01 1.108276604207722e-01 1.378450131861049e-02 1.100314922050244e-01 2.458509910380717e-02
            2.843836840388322e-01 -4.744541228555991e-01 -1.445228025584000e-01 -1.329588383453956e-01 1.100079625866860e-01 2.467001639693829e-02 1.107938864593967e-01 1.370880123486071e-02
297370000.0000000000 1.171343568712724e-01 -1.222493517529525e-02 1.146201757184113e-01 -1.452431053133191e-02 -1.817871421065404e-01 -7.578309071391473e-02 1.056339714618634e-01 -5.421115979162744e-01
            1.146006283974278e-01 -1.463620823220997e-02 1.171043035994526e-01 -1.221747086774969e-02 1.056006223352945e-01 -5.421101285774257e-01 -1.818637297880311e-01 -7.585257131641673e-02
            -1.818460011063809e-01 -7.578919497351513e-02 1.056439695577540e-01 -5.419839282240710e-01 1.143984287772591e-01 -1.024168881242368e-02 1.140361870494397e-01 2.191804920776319e-03
            1.056968429495482e-01 -5.419929568358087e-01 -1.817763069442738e-01 -7.577339941153428e-02 1.140422566949436e-01 2.131748514511763e-03 1.144504060094368e-01 -1.021552965607773e-02
298202500.0000000000 1.035167363495849e-01 -2.858011962189949e-02 9.915956602477990e-02 -3.313606242872776e-02 -1.985690189542124e-01 -1.039234936876442e-02 -8.629574271020510e-02 -5.460153864018751e-01
            9.912856472783681e-02 -3.311941971336271e-02 1.034296944255188e-01 -2.850966931799910e-02 -8.625945716787814e-02 -5.461345804059721e-01 -1.985644276893190e-01 -1.043370288526584e-02
            -1.985601379557568e-01 -1.040774848086487e-02 -8.631732176046020e-02 -5.460437125108538e-01 1.015193651587440e-01 -3.059596954671690e-02 1.025800864555780e-01 -1.658875658034329e-02
            -8.628487242279009e-02 -5.460517916244627e-01 -1.986280127321299e-01 -1.038304325240355e-02 1.025920518996984e-01 -1.656649157051811e-02 1.015152530886488e-01 -3.057877787394365e-02
299035000.0000000000 8.156423644028450e-02 -3.179499749588336e-02 7.443835130105966e-02 -3.778993748908568e-02 -1.940199177663141e-01 5.791315279401951e-02 -2.699784334503123e-01 -4.836507435521176e-01
            7.446367058751800e-02 -3.771470968878880e-02 8.156362891144034e-02 -3.181760275192333e-02 -2.698974702652573e-01 -4.836399232747689e-01 -1.940037373611428e-01 5.787387433651352e-02
            -1.940214117151985e-01 5.797980018206153e-02 -2.699115488319206e-01 -4.836012948626441e-01 7.816850753682983e-02 -3.751886711331501e-02 8.203139499734852e-02 -2.232651618090666e-02
            -2.698838648409718e-01 -4.836322994332136e-01 -1.940531735725683e-01 5.790948632044527e-02 8.199541733779925e-02 -2.233166011998732e-02 7.803896304255359e-02 -3.740277139459275e-02
299867500.0000000000 6.213230906857190e-02 -1.926114686472025e-02 5.171741629469381e-02 -2.520075832260527e-02 -1.666790299979101e-01 1.236934508643112e-01 -4.213561103317535e-01 -3.597211780082702e-01
            5.176680734194250e-02 -2.507019259730029e-02 6.214375176105710e-02 -1.926571531980419e-02 -4.214176471063386e-01 -3.596507322227764e-01 -1.666300574696216e-01 1.236956528306507e-01
            -1.666481306830352e-01 1.237916446724984e-01 -4.213809754967460e-01 -3.596540121475820e-01 5.560912040385719e-02 -2.698058561546212e-02 6.322894820265770e-02 -1.207957667825702e-02
            -4.214332410800217e-01 -3.596231060222874e-01 -1.666392148718520e-01 1.236899594728842e-01 6.317504909586308e-02 -1.207718856791191e-02 5.565139856817578e-02 -2.694425894460336e-02
300700000.0000000000 5.575254725972482e-02 3.757498458945815e-03 4.219940536998555e-02 -4.135424409862894e-04 -1.156985674406871e-01 1.786639655259702e-01 -5.188025890516614e-01 -1.893464507827749e-01
            4.226159024019525e-02 -3.924523669869637e-04 5.571721313258619e-02 3.899610902930902e-03 -5.188550619289614e-01 -1.894818622360611e-01 -1.157090581958436e-01 1.787763222956349e-01
            -1.156511862921932e-01 1.787068645107215e-01 -5.188789925186850e-01 -1.893973669575429e-01 4.565543081313338e-02 -3.881152508610735e-03 5.690340834575745e-02 9.090386398298126e-03
            -5.188668398176808e-01 -1.893574913919628e-01 -1.156137821359245e-01 1.786823952627696e-01 5.682933729440386e-02 9.053195932873679e-03 4.559622980090035e-02 -3.860688385169786e-03
301532500.0000000000 6.652822642732126e-02 2.585966214040763e-02 5.070516743912225e-02 2.458554182255447e-02 -4.525646696208509e-02 2.122641619223987e-01 -5.489371843230152e-01 2.893053963338309e-03
            5.070950730784674e-02 2.461397965216401e-02 6.650220153466173e-02 2.586276679671822e-02 -5.489440391185960e-01 2.870458839358491e-03 -4.523216310709101e-02 2.123274329167372e-01
            -4.523073566303109e-02 2.122895060117200e-01 -5.488947813704812e-01 2.838556020899954e-03 5.345483188867448e-02 2.007119927426586e-02 6.742191175048522e-02 2.949353424719279e-02
            -5.489221084561516e-01 2.865530600610336e-03 -4.523881333222977e-02 2.122964597935617e-01 6.740416706336577e-02 2.942351256177958e-02 5.340264501581962e-02 2.011244064774826e-02
302365000.0000000000 8.933807326055193e-02 3.563791930146193e-02 7.269458733887270e-02 3.816508392438776e-02 3.404378475109344e-02 2.168581599425762e-01 -5.101863667374134e-01 1.904409635369880e-01
            7.274663384462904e-02 3.809424556898126e-02 8.939507279549010e-02 3.564906306653616e-02 -5.102159529225850e-01 1.904992762969599e-01 3.419152461870138e-02 2.167007906481135e-01
            3.412182327619485e-02 2.168113921204433e-01 -5.102479018426318e-01 1.904690675527096e-01 7.472752940620334e-02 3.282880446181239e-02 8.980473534047864e-02 3.754230576673551e-02
            -5.102035504501684e-01 1.904826948463657e-01 3.420179008575071e-02 2.167837628761294e-01 8.984373236525038e-02 3.760603658450994e-02 7.469131951469046e-02 3.275986535130871e-02
303197500.0000000000 1.130332837354186e-01 2.834242036087058e-02 9.744387997824681e-02 3.476936697388536e-02 1.091417336373428e-01 1.913416574529425e-01 -4.115891054105148e-01 3.508629633703331e-01
            9.734367357425093e-02 3.474128578400230e-02 1.131347015830529e-01 2.832396149958816e-02 -4.115797049493184e-01 3.509577425784658e-01 1.091392999328906e-01 1.912446431016164e-01
            1.090108838673232e-01 1.912188838090272e-01 -4.115491269846392e-01 3.508447838607719e-01 9.849828795453272e-02 2.859998425889337e-02 1.128705869508769e-01 2.895823196598346e-02
            -4.114897376408641e-01 3.508461466347674e-01 1.091096487725860e-01 1.912223430327682e-01 1.128979624192370e-01 2.898795185846009e-02 9.858650561763872e-02 2.863910217590389e-02
304030000.0000000000 1.268230696440082e-01 7.747170743238132e-03 1.136169435098180e-01 1.737933998479462e-02 1.685568813848479e-01 1.415319277358719e-01 -2.667806842817827e-01 4.678541007123052e-01
            1.136391807008567e-01 1.738911363029988e-02 1.267810319525848e-01 7.676692363769025e-03 -2.666752416448958e-01 4.678892169730911e-01 1.686200387390439e-01 1.414833761224315e-01
            1.686133549881287e-01 1.415380119746195e-01 -2.667944783102095e-01 4.678479554573103e-01 1.134646769859019e-01 1.035649467119755e-02 1.256149089357699e-01 7.235385188824122e-03
            -2.667496732568364e-01 4.678830057675351e-01 1.685635181525058e-01 1.415357991252586e-01 1.256770278136154e-01 7.191531982961421e-03 1.135075682834149e-01 1.038492459580354e-02
304862500.0000000000 1.244508657715089e-01 -1.695681775641467e-02 1.149962138719759e-01 -5.385305406736486e-03 2.070749856761123e-01 7.601636313026368e-02 -9.166633887900184e-02 5.303263388912750e-01
            1.150257754837332e-01 -5.417825152151328e-03 1.244172022688339e-01 -1.694176726818104e-02 -9.166485438501322e-02 5.302862550538353e-01 2.071253612057199e-01 7.606665298846002e-02
            2.070797001984118e-01 7.604852878254514e-02 -9.160000037172610e-02 5.303051482851908e-01 1.129512590972893e-01 -1.285197373489800e-02 1.222500763232872e-01 -1.829646093214371e-02
            -9.165764904489755e-02 5.303204269830549e-01 2.070300280761624e-01 7.602171565297663e-02 1.221639463612822e-01 -1.829204502633812e-02 1.129882223109982e-01 -1.277194847112352e-02
305695000.0000000000 1.069375368353652e-01 -3.476817303785585e-02 1.017077505985243e-01 -2.316775968909311e-02 2.226213048919098e-01 2.306834097818792e-03 9.563756234480089e-02 5.305383944187076e-01
            1.016890094094336e-01 -2.315062779421213e-02 1.069761790708474e-01 -3.483148040822012e-02 9.565510828507442e-02 5.305305737021974e-01 2.225134165438885e-01 2.336168935932456e-03
            2.226309370768433e-01 2.310528678333717e-03 9.559044619206827e-02 5.305752717011748e-01 9.730204325221836e-02 -3.015248762308265e-02 1.036090036602255e-01 -3.662547927184029e-02
            9.564291514313442e-02 5.304172377771846e-01 2.225235848027627e-01 2.419385060256719e-03 1.035317320997549e-01 -3.662411812004220e-02 9.742196345910410e-02 -3.011130181056100e-02
306527500.0000000000 8.182607336651232e-02 -3.744210844994530e-02 8.029167935512947e-02 -2.740735595730657e-02 2.140732745454582e-01 -7.386924662778042e-02 2.736959001788976e-01 4.657344295786455e-01
            8.030316587451508e-02 -2.742936939106850e-02 8.183335054455486e-02 -3.741590721255846e-02 2.735938228506895e-01 4.656688747869712e-01 2.140827163257065e-01 -7.387900368459524e-02
            2.140732812132304e-01 -7.385798685357645e-02 2.736879491997384e-01 4.657354405590957e-01 7.353690088269194e-02 -3.266821470835121e-02 7.736196600214235e-02 -3.940540492863113e-02
            2.737115747823470e-01 4.656765545832607e-01 2.141194518509088e-01 -7.387649343152895e-02 7.728347307605621e-02 -3.947699244674974e-02 7.359368551792506e-02 -3.280970220636571e-02
307360000.0000000000 6.072216210458810e-02 -2.308825715761219e-02 6.191222345756082e-02 -1.615942764115890e-02 1.799277471391537e-01 -1.459496664602149e-01 4.187685821079312e-01 3.411311022791769e-01
            6.182882135911778e-02 -1.619760111846020e-02 6.064054207377879e-02 -2.302776276578484e-02 4.187694437768770e-01 3.411850709310921e-01 1.800351059728075e-01 -1.458359170327841e-01
            1.800255475544143e-01 -1.458880399651652e-01 4.187639688693084e-01 3.410866482805913e-01 5.350416733510282e-02 -1.838923513971782e-02 5.531601275665653e-02 -2.486978842047304e-02
            4.187191428236885e-01 3.411134191376288e-01 1.798883678526989e-01 -1.457774767125225e-01 5.530528146051613e-02 -2.478502968025087e-02 5.354836307014561e-02 -1.836327129333732e-02
308192500.0000000000 5.402694121043400e-02 1.769718432702860e-03 5.634412398564110e-02 4.885057437616491e-03 1.202886992434934e-01 -2.040517306745795e-01 5.096072169421370e-01 1.727618105733545e-01
            5.631263019662184e-02 4.904706695812319e-03 5.401983705896535e-02 1.698468976631680e-03 5.097370027515618e-01 1.727921331448792e-01 1.202625070910237e-01 -2.041128409642190e-01
            1.201782676085103e-01 -2.041042907658963e-01 5.096164494703481e-01 1.727704496131676e-01 4.793200447580105e-02 6.383328981940919e-03 4.822780432314811e-02 5.958376693931294e-05
            5.096287366751729e-01 1.727259901381808e-01 1.201894292321000e-01 -2.040835075335450e-01 4.822262546360263e-02 4.093627418591975e-05 4.786636668003266e-02 6.439596863385129e-03
309025000.0000000000 6.524255937602033e-02 2.465137147128219e-02 6.692891795699428e-02 2.403647889609559e-02 4.050903508386077e-02 -2.375130368461970e-01 5.343376252887114e-01 -1.516257530357605e-02
            6.690525650677789e-02 2.393224361859928e-02 6.518254699836663e-02 2.467780983807574e-02 5.342376224236481e-01 -1.506534587766186e-02 4.042334721653646e-02 -2.374500912296630e-01
            4.055096969325736e-02 -2.373479133136944e-01 5.342845385271181e-01 -1.505794085015197e-02 6.044100499342981e-02 2.916516921046738e-02 5.905657955170461e-02 2.276569845469638e-02
            5.342548974313500e-01 -1.506635166550456e-02 4.045688314944935e-02 -2.374985368701253e-01 5.905078043190203e-02 2.278664023923451e-02 6.043515116019246e-02 2.913617710621173e-02
309857500.0000000000 8.822876698560082e-02 3.447723218068154e-02 8.791667515230318e-02 3.084810904823671e-02 -4.704463934467499e-02 -2.382680930362226e-01 4.923774631165978e-01 -1.965025909899943e-01
            8.782448278495808e-02 3.076631950788546e-02 8.816512539760110e-02 3.441942626235821e-02 4.923756054896176e-01 -1.964772404187131e-01 -4.710244424921003e-02 -2.382761698283431e-01
            -4.708598230198263e-02 -2.383516126656132e-01 4.923843696121525e-01 -1.965562965978341e-01 8.480058318231797e-02 3.830198894064913e-02 8.142845536806827e-02 3.210503604953296e-02
            4.924159740451286e-01 -1.965713517777900e-01 -4.708322583540295e-02 -2.383355695579459e-01 8.139288934032265e-02 3.211114586636662e-02 8.484144539050169e-02 3.827516037659853e-02
310690000.0000000000 1.114058036720016e-01 2.717602305922422e-02 1.082522186514788e-01 2.194075202269585e-02 -1.281885756374279e-01 -2.069390904646211e-01 3.930120303072445e-01 -3.503129544650637e-01
            1.082273813102460e-01 2.201322915884792e-02 1.114691866501331e-01 2.728337900540356e-02 3.929735508680070e-01 -3.503088951360115e-01 -1.282113846633331e-01 -2.069951125285209e-01
            -1.281959327275142e-01 -2.069173755042084e-01 3.930061878789442e-01 -3.503691200317657e-01 1.092039266615695e-01 2.972021202953620e-02 1.034471465866981e-01 2.450123491474952e-02
            3.929888208419854e-01 -3.503525353473897e-01 -1.282051438779246e-01 -2.069242810861942e-01 1.034922349046182e-01 2.438987268789503e-02 1.092382306093005e-01 2.968518469471658e-02
311522500.0000000000 1.243595909496084e-01 7.493211132953456e-03 1.181955872767751e-01 1.813422482082536e-03 -1.915863446255499e-01 -1.499736760148552e-01 2.496415612172642e-01 -4.614471067343598e-01
            1.181876542093314e-01 1.713085412516276e-03 1.243253104097215e-01 7.491313434475539e-03 2.496170879431141e-01 -4.613677615321599e-01 -1.916941888737754e-01 -1.499722005303240e-01
            -1.917979750388652e-01 -1.500066574472598e-01 2.496543791209284e-01 -4.613634720934035e-01 1.225839926183634e-01 7.807045508530661e-03 1.148575866889116e-01 4.504035929659509e-03
            2.496877424733107e-01 -4.613439679381175e-01 -1.917412610875962e-01 -1.498603803789102e-01 1.148985260504602e-01 4.502915076373832e-03 1.226164166384512e-01 7.811202678933523e-03
312355000.0000000000 1.215859470860285e-01 -1.559088352900150e-02 1.129854738570541e-01 -2.054071685793397e-02 -2.318778106008851e-01 -7.632018188432922e-02 7.756443731372903e-02 -5.186094870458702e-01
            1.129518618725517e-01 -2.041599159686153e-02 1.215107924506626e-01 -1.559855970230407e-02 7.753940439786873e-02 -5.185271983501587e-01 -2.317987269304190e-01 -7.635531139954758e-02
            -2.318616922277474e-01 -7.632402893054978e-02 7.751675769592162e-02 -5.185966655770159e-01 1.192422264824207e-01 -1.742016376794388e-02 1.103115106885531e-01 -1.780045170319892e-02
            7.751700934433656e-02 -5.185228640236247e-01 -2.318605015630894e-01 -7.636331771861801e-02 1.102708690317113e-01 -1.779179293166865e-02 1.192483404388271e-01 -1.742963967941969e-02
313187500.0000000000 1.047457570067976e-01 -3.123217541767923e-02 9.449180354066614e-02 -3.467623356576923e-02 -2.462629914423292e-01 5.977199896602544e-03 -1.052961337493126e-01 -5.145130667194906e-01
            9.450759304292963e-02 -3.463745654035877e-02 1.047365847853627e-01 -3.122638674228587e-02 -1.052214227339014e-01 -5.145457413824390e-01 -2.463023206464399e-01 5.953713369736271e-03
            -2.463335098471501e-01 5.975336102572193e-03 -1.052932923141012e-01 -5.145637174886610e-01 1.006979110524269e-01 -3.477667275513105e-02 9.195106185017987e-02 -3.202870699906350e-02
            -1.052297021178240e-01 -5.145634847540211e-01 -2.463155610924771e-01 5.991542465844647e-03 9.197405313056242e-02 -3.206965495465566e-02 1.007397469467310e-01 -3.482275463064279e-02
314020000.0000000000 8.170340615269166e-02 -3.183898769484778e-02 7.091498079344059e-02 -3.366149328315916e-02 -2.336802730213040e-01 9.020913526931829e-02 -2.774248974930552e-01 -4.468583039949889e-01
            7.093421885229495e-02 -3.378413124735415e-02 8.176480221552206e-02 -3.185180421397419e-02 -2.774113828578202e-01 -4.468906145068103e-01 -2.337545081505017e-01 9.026826620757650e-02
            -2.338101697231476e-01 9.027022933094857e-02 -2.773907318460394e-01 -4.468224087989670e-01 7.514145608465891e-02 -3.615587781716215e-02 6.806438844559477e-02 -3.067929218583108e-02
            -2.774899757427934e-01 -4.468663634282510e-01 -2.337419311077879e-01 9.022246204759993e-02 6.804859314335997e-02 -3.071778621393320e-02 7.516362973742621e-02 -3.612353872370560e-02
314852500.0000000000 6.430903621776307e-02 -1.688060785746179e-02 5.334037009047551e-02 -1.757409906283764e-02 -1.924546356298012e-01 1.684581243206134e-01 -4.153395619687332e-01 -3.215930212926291e-01
            5.339670642943063e-02 -1.745596206369797e-02 6.428433535716288e-02 -1.689925092099129e-02 -4.154258561382053e-01 -3.216588609022642e-01 -1.924750855240124e-01 1.685111588310912e-01
            -1.923924659353497e-01 1.685006178425265e-01 -4.154722760552109e-01 -3.215804258842612e-01 5.477570161552368e-02 -2.031472966642623e-02 5.059761307053696e-02 -1.336483811032532e-02
            -4.153765411554468e-01 -3.216075604392583e-01 -1.924314330534382e-01 1.684191027895166e-01 5.053914509634352e-02 -1.349437549053369e-02 5.475440958742660e-02 -2.043337493363400e-02
315685000.0000000000 6.171121546949936e-02 6.121720288254365e-03 5.101779369100828e-02 6.260329477453043e-03 -1.235248575878905e-01 2.295868959422604e-01 -4.991396710805393e-01 -1.555793547909139e-01
            5.097659470458269e-02 6.282859068716229e-03 6.166873649421201e-02 6.099387963807865e-03 -4.991042967733488e-01 -1.555787677534163e-01 -1.235067725327702e-01 2.296166417107166e-01
            -1.234948066856168e-01 2.296033784889527e-01 -4.990814414932598e-01 -1.554798819690075e-01 4.987423484847905e-02 4.953056577022134e-03 4.874083189392241e-02 1.161283738923982e-02
            -4.991646317074500e-01 -1.555333630522454e-01 -1.234881913465916e-01 2.295771588328302e-01 4.870780731352665e-02 1.161355496047648e-02 4.987594482481660e-02 4.989658851284710e-03
316517500.0000000000 7.550392862689188e-02 2.485446387419957e-02 6.480841651634695e-02 2.526084298531588e-02 -3.447431944528712e-02 2.619073436809068e-01 -5.180053704312363e-01 2.710919906150910e-02
            6.488930421094216e-02 2.527325161498954e-02 7.543764820788688e-02 2.492024043738834e-02 -5.180881215242138e-01 2.707133711904039e-02 -3.454272485270098e-02 2.618882341007313e-01
            -3.450549334902391e-02 2.618086636163580e-01 -5.180314337658607e-01 2.705644256682074e-02 6.289062961614891e-02 2.699514077950806e-02 6.392592619363752e-02 3.180676736869465e-02
            -5.181011559211016e-01 2.707012697920905e-02 -3.448893999969001e-02 2.618174731527496e-01 6.400291950152286e-02 3.181887336238549e-02 6.275004221259194e-02 2.693998955821767e-02
317350000.0000000000 9.829204143525463e-02 2.947471494626805e-02 8.751774972519810e-02 3.004280785736727e-02 6.090771837558226e-02 2.586525141971167e-01 -4.732035796309473e-01 2.016793238882926e-01
            8.753374475245615e-02 2.996814439029937e-02 9.822576368392145e-02 2.947283954811177e-02 -4.732128435883184e-01 2.017318179018835e-01 6.092423535468057e-02 2.585784757295399e-01
            6.104657133634708e-02 2.586434165888359e-01 -4.732303472856157e-01 2.017631130464823e-01 8.655517653379602e-02 3.485680122685082e-02 8.858288504004778e-02 3.713335816300996e-02
            -4.731693653776224e-01 2.017261774483333e-01 6.094334351905593e-02 2.587001687594873e-01 8.856376322070590e-02 3.717582835724254e-02 8.645117282468011e-02 3.495727500297095e-02
318182500.0000000000 1.186381615977575e-01 1.796013549662953e-02 1.073621113348472e-01 1.883866310685974e-02 1.477372153658228e-01 2.210538593087897e-01 -3.736692770190755e-01 3.485647106884357e-01
            1.073910893694300e-01 1.872744188400048e-02 1.186252749709979e-01 1.791532472142654e-02 -3.737378032537771e-01 3.486093754184726e-01 1.477124913862926e-01 2.211668820696743e-01
            1.476090613099436e-01 2.211503343555593e-01 -3.736947100014896e-01 3.485420936561366e-01 1.091522310575830e-01 2.593591118876833e-02 1.103537020406888e-01 2.564148637788892e-02
            -3.736861839087828e-01 3.486142064535187e-01 1.476403749567123e-01 2.212163140948373e-01 1.103411822691268e-01 2.570483143931100e-02 1.092374511276863e-01 2.593751366316541e-02
319015000.0000000000 1.268441236558878e-01 -4.116788621306554e-03 1.152110049981386e-01 -2.676956741098350e-03 2.146026780952153e-01 1.569556450470120e-01 -2.323204580274487e-01 4.533320367729666e-01
            1.151463695836147e-01 -2.577426464658854e-03 1.268434764808219e-01 -4.059883438823507e-03 -2.322449818302793e-01 4.533890347974192e-01 2.146620654643492e-01 1.569665477215036e-01
            2.146549109048400e-01 1.570163622582347e-01 -2.323666799494785e-01 4.532960030224870e-01 1.206233416794120e-01 5.116843782700642e-03 1.196477149685752e-01 3.525303674353462e-03
            -2.322548139157371e-01 4.532477849416844e-01 2.145576350858362e-01 1.569554876791609e-01 1.197138464780466e-01 3.436772791402141e-03 1.205322286657399e-01 5.135255964481358e-03
319847500.0000000000 1.191461529938439e-01 -2.665609119122858e-02 1.072166201068206e-01 -2.428367320559278e-02 2.559403953736962e-01 7.540594266585805e-02 -6.380501130777222e-02 5.053386833790093e-01
            1.071912380844719e-01 -2.434555006207481e-02 1.191839994672430e-01 -2.673863403515339e-02 -6.381293057233059e-02 5.053372656908484e-01 2.558577979521043e-01 7.537096434641911e-02
            2.558591966431905e-01 7.536654410953146e-02 -6.382914320720422e-02 5.053695554895011e-01 1.161985935458011e-01 -1.780286059343213e-02 1.128964477096417e-01 -1.940260797329815e-02
            -6.379963519279994e-02 5.054150576176052e-01 2.558380227157759e-01 7.541437471850142e-02 1.129123404343426e-01 -1.942057511061616e-02 1.162701140298677e-01 -1.782719059788330e-02
320680000.0000000000 9.856093116604044e-02 -3.956159039760818e-02 8.666547534387502e-02 -3.613895405458697e-02 2.689855852758888e-01 -1.523424104091526e-02 1.140174393938663e-01 4.973303591205274e-01
            8.676764541228761e-02 -3.619368003103959e-02 9.860731637155111e-02 -3.959310094037135e-02 1.139764143056226e-01 4.973046463950183e-01 2.689262770612420e-01 -1.510233252214662e-02
            2.688866392418300e-01 -1.525838818177672e-02 1.141024494676187e-01 4.973192325447528e-01 9.814768582124024e-02 -3.231997809771330e-02 9.318528485832503e-02 -3.241828487792571e-02
            1.139672340842061e-01 4.973168674703384e-01 2.689534736697733e-01 -1.518423247746234e-02 9.325807565057756e-02 -3.240579213454547e-02 9.816512747294190e-02 -3.234165088398402e-02
321512500.0000000000 7.408626934976725e-02 -3.618242988309179e-02 6.276586273870076e-02 -3.202412146216029e-02 2.519417570354356e-01 -1.070440347675364e-01 2.797904493293167e-01 4.272196460077637e-01
            6.274672232605372e-02 -3.198916191234664e-02 7.413559285059954e-02 -3.621672133952837e-02 2.797406384441775e-01 4.271493178300005e-01 2.518512551808089e-01 -1.070324942866286e-01
            2.518552822717711e-01 -1.070807616964994e-01 2.797538130925779e-01 4.272345383963052e-01 7.512104959868744e-02 -3.150734408408778e-02 6.981357033156298e-02 -2.939328874416097e-02
            2.798455979520058e-01 4.271563409803440e-01 2.518893237041541e-01 -1.071049897093941e-01 6.978238066524342e-02 -2.942656238165265e-02 7.509108421292723e-02 -3.138762726883313e-02
322345000.0000000000 5.749532353886346e-02 -1.744358755223698e-02 4.676094309483241e-02 -1.298197191169843e-02 2.032708227905387e-01 -1.908145267188180e-01 4.104872173971279e-01 3.019531240150967e-01
            4.675805002950307e-02 -1.291517596179981e-02 5.746642577913823e-02 -1.746994441670042e-02 4.104750906380764e-01 3.019077172019785e-01 2.032668395632482e-01 -1.907932590942973e-01
            2.033432760967653e-01 -1.908058673058294e-01 4.105964698896284e-01 3.019378863355134e-01 5.851713294222011e-02 -1.543637043025161e-02 5.434052270533725e-02 -1.159368980082577e-02
            4.104971388105556e-01 3.019886948631644e-01 2.032374750286259e-01 -1.908609281312248e-01 5.443187818067224e-02 -1.154587071630151e-02 5.860799002345495e-02 -1.548662061785001e-02
323177500.0000000000 5.729038864023291e-02 7.497187094106167e-03 4.713767297729316e-02 1.199536922416628e-02 1.255641098973367e-01 -2.541170700416480e-01 4.872668753421877e-01 1.389067892135317e-01
            4.717625129519736e-02 1.197809343875143e-02 5.729375046553494e-02 7.510119422901407e-03 4.873143563495031e-01 1.388669652057939e-01 1.255306234860610e-01 -2.540926562975145e-01
            1.255165833709014e-01 -2.541897974792667e-01 4.872173049276025e-01 1.388948373044425e-01 5.728592892037280e-02 7.512819828536361e-03 5.515180606328429e-02 1.207953320843243e-02
            4.871610170324784e-01 1.389007529107389e-01 1.255387892735505e-01 -2.541052275553190e-01 5.516474501750653e-02 1.207206147621789e-02 5.716428479239450e-02 7.546528506312469e-03
324010000.0000000000 7.343601705607262e-02 2.615038076232339e-02 6.354172431150375e-02 3.037345756083799e-02 2.778799822303764e-02 -2.850715891435740e-01 5.008968457009029e-01 -3.826382847802917e-02
            6.350055295939801e-02 3.029093967629025e-02 7.351051840356194e-02 2.620313226214585e-02 5.009176345374490e-01 -3.825949846594872e-02 2.776698035700226e-02 -2.851445310966960e-01
            2.780076917103764e-02 -2.850846331461209e-01 5.009535562090283e-01 -3.819353451318844e-02 7.167321659282312e-02 2.513733511601088e-02 7.171968924709575e-02 2.878782854638057e-02
            5.009769599647355e-01 -3.821139924940460e-02 2.777224276741532e-02 -2.850558756128999e-01 7.164111295006223e-02 2.892438295389340e-02 7.151084275580161e-02 2.512377369822523e-02
324842500.0000000000 9.759934465178344e-02 2.954167727376849e-02 8.714751373434744e-02 3.354209684201141e-02 -7.487710138156713e-02 -2.777403779433265e-01 4.535913691189603e-01 -2.058567811096232e-01
            8.721473488043989e-02 3.351251900337452e-02 9.752742861393034e-02 2.956352015089833e-02 4.535783644086821e-01 -2.059523827448833e-01 -7.483217029168121e-02 -2.777765783019832e-01
            -7.487542162603351e-02 -2.777078742377772e-01 4.535328337536916e-01 -2.059940286850815e-01 9.387540038765808e-02 2.866400660554776e-02 9.519236538591304e-02 3.015617117993093e-02
            4.536479785019175e-01 -2.059616397271677e-01 -7.488136890197840e-02 -2.777581181832067e-01 9.511976666560283e-02 3.022666016796048e-02 9.379505154902647e-02 2.862753929742094e-02
325675000.0000000000 1.178771340624316e-01 1.675426246098870e-02 1.066527472095688e-01 2.110483409509361e-02 -1.668133199521611e-01 -2.343621823054708e-01 3.541253125400289e-01 -3.459024153003433e-01
            1.065412315446679e-01 2.108291226673219e-02 1.178823716654049e-01 1.671632363112333e-02 3.541879693855892e-01 -3.458153835755101e-01 -1.668692689633378e-01 -2.344321655084067e-01
            -1.668338339510054e-01 -2.343880627816851e-01 3.541188527811295e-01 -3.458946266253802e-01 1.125746084145905e-01 1.687623723519942e-02 1.139059691123024e-01 1.581338185939423e-02
            3.541639834085978e-01 -3.459581254749619e-01 -1.669045360664347e-01 -2.343191189952790e-01 1.138553633278091e-01 1.574352552494312e-02 1.127306668840654e-01 1.686263403472180e-02
326507500.0000000000 1.251746229576270e-01 -5.871726125470253e-03 1.132321121303255e-01 -4.154620642866736e-04 -2.370920001321539e-01 -1.630111700075616e-01 2.150135336097567e-01 -4.444019840310934e-01
            1.131695591941118e-01 -3.507111031572906e-04 1.252162331055752e-01 -5.852826532753289e-03 2.149350283423487e-01 -4.443960861585548e-01 -2.370710981082677e-01 -1.631151874112365e-01
            -2.370864081237725e-01 -1.630226850756080e-01 2.149187143236143e-01 -4.443992344913665e-01 1.193664067043006e-01 -4.190224562706645e-03 1.188888609106918e-01 -7.634371031094231e-03
            2.149310680081392e-01 -4.443797637343946e-01 -2.371174615848348e-01 -1.630777702275858e-01 1.188772310033002e-01 -7.504777299339568e-03 1.194208451678171e-01 -4.085043861915971e-03
327340000.0000000000 1.165486906490236e-01 -2.791123022051253e-02 1.042742987676287e-01 -2.065855787201936e-02 -2.794265871466460e-01 -7.366602140073063e-02 5.025650824696654e-02 -4.911751142779275e-01
            1.043816993490940e-01 -2.081685606135349e-02 1.165098205150381e-01 -2.787652228804925e-02 5.030169682458106e-02 -4.911793965002846e-01 -2.793988133447590e-01 -7.360983154650109e-02
            -2.794185000554254e-01 -7.369713127329795e-02 5.023368517300628e-02 -4.911450849788286e-01 1.110366079643696e-01 -2.460217875180688e-02 1.077741237804498e-01 -2.919166493807210e-02
            5.031051283368645e-02 -4.912279090939449e-01 -2.793086493072320e-01 -7.362752234346624e-02 1.077578927146065e-01 -2.909253960742851e-02 1.109371888002332e-01 -2.457665363779322e-02
328172500.0000000000 9.574529041817438e-02 -3.955329734550291e-02 8.428304300027363e-02 -3.039102327598227e-02 -2.907654358009498e-01 2.512076052144207e-02 -1.222963570118931e-01 -4.790827093094727e-01
            8.422907239616795e-02 -3.040760786157361e-02 9.587119750328356e-02 -3.954302145873553e-02 -1.222438878556405e-01 -4.790456581381173e-01 -2.907050417898918e-01 2.516817637719885e-02
            -2.908001557428957e-01 2.511553632343478e-02 -1.223055361102244e-01 -4.790700818852044e-01 9.118895701692570e-02 -3.488288697603026e-02 8.509990063493873e-02 -3.905267192870082e-02
            -1.222587304054787e-01 -4.789919348669405e-01 -2.906648133172499e-01 2.519116670078343e-02 8.513231112021359e-02 -3.913906020592192e-02 9.122349936729846e-02 -3.492184242876959e-02
329005000.0000000000 7.243696866432284e-02 -3.507680273418840e-02 6.257117639322238e-02 -2.430085936268087e-02 -2.688909541318803e-01 1.242924182419638e-01 -2.812780791439212e-01 -4.066064259447371e-01
            6.252095550870761e-02 -2.426426897319399e-02 7.241860963394726e-02 -3.512738387156017e-02 -2.812729977447196e-01 -4.066427410412438e-01 -2.688914734053905e-01 1.242926916999493e-01
            -2.688738362518562e-01 1.242627576766309e-01 -2.813487686402668e-01 -4.066831985890769e-01 6.917839181346766e-02 -2.961693429994946e-02 6.082942782546100e-02 -3.227980810030357e-02
            -2.812272045511989e-01 -4.067732847238586e-01 -2.688673139477806e-01 1.243291465119308e-01 6.081984759462128e-02 -3.225436467481716e-02 6.917735186254587e-02 -2.964858836838979e-02
329837500.0000000000 5.779598159124215e-02 -1.658827024634247e-02 5.039619867502824e-02 -4.801588973195516e-03 -2.128153001006353e-01 2.131267353025293e-01 -4.043789949508722e-01 -2.817801514380084e-01
            5.044362615759306e-02 -4.808123881318592e-03 5.776790177717515e-02 -1.657210237945279e-02 -4.044173503764341e-01 -2.818991401502756e-01 -2.129037532179099e-01 2.131073095279924e-01
            -2.128083007364227e-01 2.131025168800320e-01 -4.043807950077041e-01 -2.818112717639994e-01 5.610401314737677e-02 -1.089950812687449e-02 4.665907158453072e-02 -1.128729480165308e-02
            -4.044049214587683e-01 -2.818263021048095e-01 -2.128470432798102e-01 2.132118794953139e-01 4.650080556692737e-02 -1.125529502619238e-02 5.609819710163863e-02 -1.091259352207837e-02
330670000.0000000000 5.915641503700868e-02 6.530300925460372e-03 5.446576732016601e-02 1.800506801615087e-02 -1.262454164931077e-01 2.780997497698864e-01 -4.740464349849804e-01 -1.223317449985155e-01
            5.444993252445731e-02 1.793058488167413e-02 5.907845569596907e-02 6.539898733410016e-03 -4.740077630768069e-01 -1.224073272711709e-01 -1.263533645299512e-01 2.780971755268852e-01
            -1.263278834958527e-01 2.781062130130392e-01 -4.740413896840328e-01 -1.224029754607278e-01 5.901045584161874e-02 1.198165475203248e-02 4.932069345495850e-02 1.370782379189487e-02
            -4.740048368104979e-01 -1.224142581839773e-01 -1.263268843094438e-01 2.780926691328791e-01 4.931699693689826e-02 1.363338420923516e-02 5.899269324838903e-02 1.188411489129013e-02
331502500.0000000000 7.513317974959015e-02 2.225922403202074e-02 7.280683802336636e-02 3.226955862389079e-02 -2.034424643594252e-02 3.073322657875264e-01 -4.826844579393766e-01 4.871674906078840e-02
            7.279123252820073e-02 3.224257146791987e-02 7.515106279510791e-02 2.226151296899042e-02 -4.827226737195122e-01 4.862889746513657e-02 -2.031926225043955e-02 3.073033960329155e-01
            -2.023443492272949e-02 3.073386327723985e-01 -4.827319817097387e-01 4.865575111354824e-02 7.626770475968064e-02 2.696081577453488e-02 6.734638987622543e-02 3.023100478201380e-02
            -4.827538701589813e-01 4.862301488296895e-02 -2.030421361901464e-02 3.073151164428918e-01 6.734901241508801e-02 3.020465745587369e-02 7.631924527909045e-02 2.693278251334950e-02
332335000.0000000000 9.688486354604747e-02 2.323875665449289e-02 9.586244866653401e-02 3.084261511266116e-02 8.921804692140836e-02 2.957912888363255e-01 -4.332365753174737e-01 2.092600062051668e-01
            9.587693646989816e-02 3.082848126434542e-02 9.686490099466133e-02 2.313034604103502e-02 -4.332208813136373e-01 2.092416929762375e-01 8.917356392691961e-02 2.957134807598347e-01
            8.911530370565005e-02 2.957623841869687e-01 -4.331927719000889e-01 2.092427976285332e-01 9.898829870231703e-02 2.682201577661066e-02 9.085925929298710e-02 3.095771460336709e-02
            -4.332417279205114e-01 2.091977637527368e-01 8.909972041492270e-02 2.957588116492338e-01 9.087622144873217e-02 3.097050288865051e-02 9.904514306681525e-02 2.672895606541597e-02
333167500.0000000000 1.133066391181600e-01 9.622879310858545e-03 1.123982870018684e-01 1.480779014823823e-02 1.860862591654575e-01 2.464479106527242e-01 -3.342184541298091e-01 3.421279097085546e-01
            1.124553438352779e-01 1.472499736225950e-02 1.133459791783985e-01 9.667846719846961e-03 -3.342311279507500e-01 3.422727879844877e-01 1.860643101316961e-01 2.465929564028177e-01
            1.861541484146886e-01 2.465267667754334e-01 -3.342423720889350e-01 3.421436457021705e-01 1.160455572528928e-01 1.212158225024228e-02 1.085329794895257e-01 1.661183597802727e-02
            -3.342287331396823e-01 3.422093415051866e-01 1.861457032642921e-01 2.464831982651519e-01 1.085354102894210e-01 1.661540442506840e-02 1.161133163108338e-01 1.209582757742058e-02
334000000.0000000000 1.168441039309928e-01 -1.138089087036120e-02 1.148960805567576e-01 -8.181068760535728e-03 2.593302709241846e-01 1.682452437402062e-01 -1.973654372151026e-01 4.343672450664699e-01
            1.148741734740545e-01 -8.205173235918860e-03 1.168148908151315e-01 -1.124312582481318e-02 -1.973942279836885e-01 4.344783710018280e-01 2.593009667200667e-01 1.682817384500578e-01
            2.593032833397473e-01 1.681730317316146e-01 -1.974000817458065e-01 4.344846676374010e-01 1.198262683360580e-01 -9.959117293622883e-03 1.124489907856804e-01 -5.162821545229958e-03
            -1.974211225748927e-01 4.344191777679990e-01 2.593344732459353e-01 1.682695598961234e-01 1.124783009757419e-01 -5.188551496823196e-03 1.197728464246298e-01 -9.957652353008738e-03
334832500.0000000000 1.055578522925388e-01 -2.974157732846610e-02 1.019135173300009e-01 -2.766981731624538e-02 3.024760257703589e-01 7.099980392179497e-02 -3.678183570014246e-02 4.758832000023697e-01
            1.018935818953649e-01 -2.777995873915184e-02 1.055778933788693e-01 -2.973801025899713e-02 -3.675117828462457e-02 4.759454234911379e-01 3.024700359837333e-01 7.091386518443123e-02
            3.024834186135644e-01 7.095229768847275e-02 -3.676350312844093e-02 4.758952251749296e-01 1.088072766888297e-01 -2.935190595003906e-02 1.012567960165952e-01 -2.407200929559735e-02
            -3.667088305729568e-02 4.758952646127113e-01 3.024797779512390e-01 7.094212947689080e-02 1.011688551167232e-01 -2.401047137054357e-02 1.086616265391541e-01 -2.938729483849108e-02
335665000.0000000000 8.461524611965314e-02 -3.647926589398438e-02 7.908812350414136e-02 -3.461790035458049e-02 3.118069754430799e-01 -3.585057874404490e-02 1.300277989666019e-01 4.596672397389213e-01
            7.904194877108095e-02 -3.458356761172005e-02 8.462359414841297e-02 -3.656516360721095e-02 1.301563982485197e-01 4.596075940440107e-01 3.118034467047787e-01 -3.590625727631960e-02
            3.117275767277744e-01 -3.592753637973581e-02 1.300838787516564e-01 4.597699261082966e-01 8.774310841736956e-02 -3.720532515672789e-02 8.022019122208918e-02 -3.093410878353837e-02
            1.301468746410395e-01 4.596096906439950e-01 3.118288758114215e-01 -3.589496757566727e-02 8.028812121443171e-02 -3.099443819025692e-02 8.771245703764471e-02 -3.718473711892391e-02
336497500.0000000000 6.367385854954087e-02 -2.780743542223304e-02 5.668683943212319e-02 -2.500613198954999e-02 2.847245223732076e-01 -1.422872854436812e-01 2.818166300058119e-01 3.850667062665883e-01
            5.669210703954281e-02 -2.504515780180275e-02 6.373419719429523e-02 -2.783944870055965e-02 2.818224166615882e-01 3.850549530900625e-01 2.847263263402626e-01 -1.423145171265292e-01
            2.847524647347853e-01 -1.422777942395752e-01 2.817731945020376e-01 3.850920076753502e-01 6.672712909020626e-02 -2.944077668853687e-02 5.972540112957691e-02 -2.185058495699226e-02
            2.817977320421829e-01 3.851309727024680e-01 2.847732251157952e-01 -1.423167326825764e-01 5.964134173558474e-02 -2.202897289782146e-02 6.667952087596647e-02 -2.945325149104877e-02
337330000.0000000000 5.354099636708663e-02 -7.363353676315998e-03 4.582527673938704e-02 -3.088976936873029e-03 2.208786526456304e-01 -2.356750260349938e-01 3.968444827118088e-01 2.611336825778673e-01
            4.581360566879823e-02 -3.067970071288040e-03 5.350883949100792e-02 -7.315031148008643e-03 3.968550300516699e-01 2.611522748198978e-01 2.209937384706461e-01 -2.355919741441538e-01
            2.208742893876354e-01 -2.356193901255991e-01 3.968161561045363e-01 2.611818495770049e-01 5.621340890426114e-02 -9.941926474762369e-03 5.026142994123459e-02 -1.344072926154224e-03
            3.967902349705287e-01 2.610973174158683e-01 2.209664029986829e-01 -2.355445228121523e-01 5.016303292703653e-02 -1.288745518174637e-03 5.627089624346024e-02 -9.929019349001145e-03
338162500.0000000000 5.945955515072152e-02 1.484544426921533e-02 5.193530086320226e-02 2.046087507068609e-02 1.256127246289503e-01 -3.015801659337817e-01 4.592132902698228e-01 1.058206449253431e-01
            5.185618099270560e-02 2.042058695488798e-02 5.943830628648717e-02 1.480568144709451e-02 4.592702534971687e-01 1.057958249122665e-01 1.256257235091926e-01 -3.015567822829572e-01
            1.255615619365024e-01 -3.015287848606842e-01 4.591968419348280e-01 1.058623666075996e-01 6.146486666524027e-02 1.116818626422809e-02 5.714390192514073e-02 2.053316815724924e-02
            4.593070679054616e-01 1.058788257717559e-01 1.256502622034316e-01 -3.015985549479311e-01 5.701920269550615e-02 2.047320545526355e-02 6.138797508050235e-02 1.129767844790272e-02
338995000.0000000000 7.811948817418835e-02 2.734190113631867e-02 7.140883188004989e-02 3.403175284794579e-02 1.162967542163786e-02 -3.284434813943210e-01 4.631512803472374e-01 -5.855415793405399e-02
            7.143459258743007e-02 3.405352436875141e-02 7.810399464308519e-02 2.729528202305367e-02 4.632088944706230e-01 -5.852188068623099e-02 1.154017506212510e-02 -3.284790163339995e-01
            1.154257571167840e-02 -3.285452073243071e-01 4.631613607804066e-01 -5.852297570500557e-02 7.920318181699403e-02 2.297699989326046e-02 7.660840522771729e-02 3.231568823410889e-02
            4.631514769972446e-01 -5.847110281636759e-02 1.157255937911466e-02 -3.284601708293457e-01 7.659723553160019e-02 3.226284848122644e-02 7.919615286003159e-02 2.307203722927268e-02
339827500.0000000000 9.988376862112833e-02 2.438976020575040e-02 9.419374195647098e-02 3.170457470496080e-02 -1.040615876995449e-01 -3.123290597327643e-01 4.118617771790342e-01 -2.115473998829948e-01
            9.427024924817479e-02 3.160476394242166e-02 9.983394650664562e-02 2.450950699577367e-02 4.118550908026806e-01 -2.114980982104601e-01 -1.040803545597267e-01 -3.122608958733809e-01
            -1.042059839975002e-01 -3.123880988644334e-01 4.118822350987874e-01 -2.115720615459912e-01 9.987881808755049e-02 1.992672561698931e-02 9.880201195919749e-02 2.829282679514103e-02
            4.119516958479304e-01 -2.114988673689285e-01 -1.040332812197497e-01 -3.123310008608803e-01 9.886271746474899e-02 2.825622435461365e-02 9.986324003490248e-02 1.992923889821151e-02
340660000.0000000000 1.142201546079524e-01 8.248963089206548e-03 1.094740092649069e-01 1.544246802309197e-02 -2.054945449397946e-01 -2.572090475011661e-01 3.137226809492767e-01 -3.371954998482604e-01
            1.095169660614334e-01 1.558521509587665e-02 1.141979992502547e-01 8.176067671267044e-03 3.137326847198956e-01 -3.372631712806763e-01 -2.055110305757417e-01 -2.572176270212473e-01
            -2.055944583443348e-01 -2.572960665123735e-01 3.137330746378186e-01 -3.372613172623143e-01 1.131215760405656e-01 4.220105929970571e-03 1.130225192088683e-01 1.110636745290603e-02
            3.137313094583013e-01 -3.372119167948392e-01 -2.054437579669287e-01 -2.572528914168711e-01 1.130369360316817e-01 1.103829901628571e-02 1.131269792322113e-01 4.200522964926785e-03
341492500.0000000000 1.144122269644450e-01 -1.332994025971419e-02 1.103405862257692e-01 -6.158156895417740e-03 -2.813041521070085e-01 -1.720965139727942e-01 1.796439954419045e-01 -4.231910404200473e-01
            1.104003490794558e-01 -6.235675623008184e-03 1.144308435907202e-01 -1.330794021629553e-02 1.796722595299704e-01 -4.232131733068620e-01 -2.812268346615556e-01 -1.720974881431511e-01
            -2.812759260189420e-01 -1.720977204780162e-01 1.796259718614265e-01 -4.231011959071501e-01 1.127611925380377e-01 -1.638016237019540e-02 1.127950412699389e-01 -1.108614692265768e-02
            1.796523280456701e-01 -4.231795985091170e-01 -2.812556952891970e-01 -1.721118077214280e-01 1.128290795507718e-01 -1.102167117547680e-02 1.128316443489473e-01 -1.630401939083517e-02
342325000.0000000000 1.004294325734227e-01 -2.999748532739630e-02 9.679027080370042e-02 -2.317169195251294e-02 -3.249294231012989e-01 -6.702144846093290e-02 2.336933033574542e-02 -4.592406776501960e-01
            9.671296507048582e-02 -2.306830861387221e-02 1.004070586456770e-01 -2.994774814520033e-02 2.343373804233375e-02 -4.591845564006574e-01 -3.247833484239766e-01 -6.702703260706883e-02
            -3.248054538097284e-01 -6.704926009196552e-02 2.347916040654544e-02 -4.592477672611003e-01 9.896125432630400e-02 -3.185653585516280e-02 9.837841074195951e-02 -2.783288064590287e-02
            2.346475021219196e-02 -4.592740737881100e-01 -3.249012366694009e-01 -6.700767555913809e-02 9.835409375877452e-02 -2.783306029277519e-02 9.906059128920688e-02 -3.185935388966011e-02
343157500.0000000000 7.834553828161514e-02 -3.372263872550190e-02 7.489861449681472e-02 -2.687696154227170e-02 -3.317820117381762e-01 4.784409344146520e-02 -1.372863667780078e-01 -4.388823468399985e-01
            7.488858048923772e-02 -2.678886413281423e-02 7.822530473724357e-02 -3.366641966108170e-02 -1.372164620614817e-01 -4.388235378564451e-01 -3.317544856936601e-01 4.789528215152904e-02
            -3.317698076964434e-01 4.786668035194323e-02 -1.371862196237015e-01 -4.388480910143601e-01 7.800923572382926e-02 -3.454834799397043e-02 7.640735483179398e-02 -3.117612491946947e-02
            -1.371783635525334e-01 -4.388615025339273e-01 -3.317504384103612e-01 4.784564309496527e-02 7.638571569280957e-02 -3.113501424466271e-02 7.799293691660948e-02 -3.458370503294290e-02
343990000.0000000000 5.851578360796253e-02 -2.170814094287345e-02 5.570455935718550e-02 -1.474818895224689e-02 -2.990914234727977e-01 1.610174044714916e-01 -2.810918901706911e-01 -3.623777015351631e-01
            5.570108940080265e-02 -1.472859763361043e-02 5.848851759487623e-02 -2.165809914926953e-02 -2.810879275115286e-01 -3.623568009868633e-01 -2.991308112601311e-01 1.610762916588712e-01
            -2.991555756338045e-01 1.609942162446510e-01 -2.810809040079386e-01 -3.623188503881830e-01 6.028975693727426e-02 -2.246464338381070e-02 5.758892892663472e-02 -1.914374538586686e-02
            -2.810628506065040e-01 -3.623776848749459e-01 -2.990908365893837e-01 1.610468595535534e-01 5.769716855756312e-02 -1.909865988291785e-02 6.039118205321090e-02 -2.243318134264592e-02
344822500.0000000000 5.116577424747623e-02 6.830419004622932e-04 4.911674615176479e-02 7.866171973489345e-03 -2.271788028052527e-01 2.583793053138702e-01 -3.875688029202162e-01 -2.398038971453555e-01
            4.919068987195634e-02 7.855159344738431e-03 5.120772321261230e-02 5.993754577072115e-04 -3.875362084537567e-01 -2.398552518409355e-01 -2.270798698786656e-01 2.583955175155463e-01
            -2.271242779240331e-01 2.582690761115511e-01 -3.874820236035092e-01 -2.398881810518063e-01 5.531997200394556e-02 -1.292941294333261e-03 5.167937302114097e-02 2.510813815569358e-03
            -3.874866596392663e-01 -2.398157288277498e-01 -2.271821092123522e-01 2.583034099018990e-01 5.171570836124724e-02 2.453061867221714e-03 5.536046402085277e-02 -1.313022932375240e-03
345655000.0000000000 6.013061476080499e-02 2.239919163539407e-02 5.908985243524392e-02 2.960250191183691e-02 -1.230241404728057e-01 3.242890558792448e-01 -4.424897662830830e-01 -8.953732518151412e-02
            5.912926861366618e-02 2.955658399552940e-02 6.008360705987062e-02 2.240844853123210e-02 -4.424488846855454e-01 -8.963938346930259e-02 -1.230340891301332e-01 3.243793568478722e-01
            -1.229752874698686e-01 3.243482143800190e-01 -4.425123244466124e-01 -8.950712289394466e-02 6.609433587298887e-02 1.788465369377682e-02 6.207547611748331e-02 2.232358659121462e-02
            -4.425349435442069e-01 -8.952477514394977e-02 -1.230075710557377e-01 3.243302771972728e-01 6.204536329664646e-02 2.227272941805953e-02 6.615287139930974e-02 1.784119190190613e-02
346487500.0000000000 8.055618034370299e-02 3.301546969416806e-02 8.075959739413135e-02 3.980533450897398e-02 -1.378236168964030e-03 3.482590809977502e-01 -4.419387311827433e-01 6.728289682885277e-02
            8.077537039908220e-02 3.980279840359608e-02 8.055255463369559e-02 3.302864201919044e-02 -4.418800959115166e-01 6.731316242279607e-02 -1.329893949661296e-03 3.482401446332928e-01
            -1.314406737541569e-03 3.482023548032921e-01 -4.418976098866138e-01 6.724858859572524e-02 8.706054673089865e-02 2.472952632677100e-02 8.280052414884249e-02 2.999778843436087e-02
            -4.417806395785733e-01 6.730621451402401e-02 -1.320525746401754e-03 3.482184244590387e-01 8.278696437194660e-02 3.002085151707158e-02 8.705067732105336e-02 2.478330413273398e-02
347320000.0000000000 1.023191767615639e-01 2.821944716701453e-02 1.038179094783264e-01 3.417204229238968e-02 1.198980918290486e-01 3.268846159627669e-01 -3.892720199446676e-01 2.120393056263086e-01
            1.037206160483522e-01 3.409675727663121e-02 1.023500018419100e-01 2.820733426574766e-02 -3.893134160801626e-01 2.121575893423573e-01 1.199726617939469e-01 3.269545820336872e-01
            1.199814720912233e-01 3.268725897408314e-01 -3.894152374129404e-01 2.120532213338713e-01 1.075632172972568e-01 1.586762471516661e-02 1.033767383209768e-01 2.198291037436888e-02
            -3.892895937162196e-01 2.120373598964959e-01 1.199510853641008e-01 3.268899415398855e-01 1.033576784882971e-01 2.187648531339365e-02 1.074627694914352e-01 1.588186719957484e-02
348152500.0000000000 1.155988392816284e-01 1.122334754789567e-02 1.178118585154352e-01 1.572012515360614e-02 2.248283178839720e-01 2.655672251263573e-01 -2.927891553131550e-01 3.301876165571157e-01
            1.178189563347568e-01 1.584549025959595e-02 1.155866993567155e-01 1.131409527743219e-02 -2.928830470813090e-01 3.302147530245756e-01 2.247889685410964e-01 2.655715655782444e-01
            2.247354568298734e-01 2.656895027422058e-01 -2.928788695132358e-01 3.302283417122314e-01 1.175700437132202e-01 -4.537816938842453e-03 1.137594085786510e-01 2.206049825821228e-03
            -2.927981640261709e-01 3.301572531303493e-01 2.248069872412210e-01 2.656047311447430e-01 1.137453826797469e-01 2.227477015632280e-03 1.175528509303981e-01 -4.497520321814539e-03
348985000.0000000000 1.147894731688583e-01 -9.680867849468295e-03 1.174539960191391e-01 -6.607510490563610e-03 3.022387645085894e-01 1.737319082056266e-01 -1.625379006812222e-01 4.098196458113519e-01
            1.174032981411936e-01 -6.610080357213869e-03 1.148475825087086e-01 -9.729930370417457e-03 -1.625792188423653e-01 4.097941027401050e-01 3.022288069662692e-01 1.737316565814933e-01
            3.022103067363201e-01 1.736383325328588e-01 -1.626173152629645e-01 4.097209298313355e-01 1.121409813495013e-01 -2.732631755701664e-02 1.089050629463285e-01 -1.993994336311488e-02
            -1.625657807094689e-01 4.097585211217035e-01 3.022084605227890e-01 1.737702275276427e-01 1.088607865835888e-01 -1.984275873331177e-02 1.122527562935244e-01 -2.725923884980754e-02
349817500.0000000000 1.008072183451982e-01 -2.483627150954528e-02 1.034933562691294e-01 -2.325443046287378e-02 3.452303564737105e-01 6.161399378577911e-02 -1.172891072495690e-02 4.409112877762708e-01
            1.035081110019537e-01 -2.317100661949703e-02 1.008986181829453e-01 -2.485819310590894e-02 -1.170513537246856e-02 4.408781477927931e-01 3.452165038907675e-01 6.161281145008571e-02
            3.452597621971309e-01 6.154026546506603e-02 -1.168490926995806e-02 4.408881750991081e-01 9.318882088831595e-02 -4.208394615312581e-02 9.069775700679640e-02 -3.426078880661381e-02
            -1.170649494658322e-02 4.409085055980270e-01 3.452129668539802e-01 6.153689771774711e-02 9.063345756228848e-02 -3.433586038004231e-02 9.309796508477916e-02 -4.212182701084560e-02
350650000.0000000000 8.047663023571648e-02 -2.712891657455589e-02 8.256641545671138e-02 -2.668784042106574e-02 3.492227989844047e-01 -6.009616741920557e-02 1.421686518758438e-01 4.173584136311166e-01
            8.256014570868722e-02 -2.665699473431092e-02 8.050511323063614e-02 -2.708724295746659e-02 1.420732903796732e-01 4.173980830540452e-01 3.492052572312433e-01 -6.011168776418703e-02
            3.491151717837976e-01 -6.014456541095794e-02 1.421468317882027e-01 4.174236689722488e-01 6.827098828825057e-02 -4.168803535370289e-02 6.677351101838000e-02 -3.381827388776588e-02
            1.421169934021720e-01 4.173905142672835e-01 3.491999999967360e-01 -6.006694670101784e-02 6.675905418391059e-02 -3.375703772436813e-02 6.822076064561454e-02 -4.170388283234674e-02
351482500.0000000000 6.371796542726040e-02 -1.510304015980250e-02 6.525079249152221e-02 -1.553799516501543e-02 3.110600173688770e-01 -1.788639555139027e-01 2.781784481119233e-01 3.402311453464729e-01
            6.529537582075967e-02 -1.548206944394177e-02 6.367422861749393e-02 -1.516272282005295e-02 2.781573115188992e-01 3.402627741071306e-01 3.111261590192236e-01 -1.787667914001704e-01
            3.110632373126184e-01 -1.788259683157667e-01 2.781590509546763e-01 3.403081669814818e-01 4.892092947728589e-02 -2.528270589498754e-02 4.838514621731088e-02 -1.784358171345069e-02
            2.781937199177339e-01 3.402465610053262e-01 3.110587559962097e-01 -1.787601366819839e-01 4.843600427096160e-02 -1.784621729823502e-02 4.892257746804449e-02 -2.537432970068542e-02
352315000.0000000000 5.930267345825901e-02 4.947464287587886e-03 6.041423986024923e-02 4.078962231578826e-03 2.320728177542546e-01 -2.790226193235010e-01 3.768698561117613e-01 2.200810778753499e-01
            6.039612806824759e-02 4.158251324334720e-03 5.924912238581524e-02 4.956694745696509e-03 3.768223133615023e-01 2.199760547864717e-01 2.319452819102588e-01 -2.789689865053981e-01
            2.319600420147292e-01 -2.790344302273624e-01 3.769018132354777e-01 2.200232377623504e-01 4.456865484618785e-02 -3.940928666770811e-04 4.471948671792504e-02 6.135854388602082e-03
            3.768854499455041e-01 2.199958944453383e-01 2.319813898760414e-01 -2.790449755641441e-01 4.465471819368094e-02 6.136295768709973e-03 4.457549408867827e-02 -4.819882974288810e-04
353147500.0000000000 6.932164439804832e-02 2.271504320352445e-02 7.040076119920884e-02 2.134302049692740e-02 1.203116653123195e-01 -3.451312967196094e-01 4.255867261921388e-01 7.487509486314096e-02
            7.034199054299688e-02 2.127204325780947e-02 6.927815963062454e-02 2.267418800501145e-02 4.255967034310650e-01 7.487999827191666e-02 1.203665228455646e-01 -3.451723971689508e-01
            1.203044762756741e-01 -3.451892672521216e-01 4.256436860913348e-01 7.483576637493151e-02 5.709004494878493e-02 2.096504850442278e-02 5.726169311746868e-02 2.628792081507247e-02
            4.256546815807865e-01 7.482507330347050e-02 1.202415098538939e-01 -3.452108628539123e-01 5.725775328635766e-02 2.628141049361509e-02 5.703886394981966e-02 2.084675875171954e-02
353980000.0000000000 8.821764698502826e-02 2.915043289945910e-02 8.937946230973300e-02 2.708410915450127e-02 -8.084937365104921e-03 -3.664881389415544e-01 4.212080555222933e-01 -7.505472098481639e-02
            8.937418017285807e-02 2.710272357195976e-02 8.823463609274183e-02 2.907871600560934e-02 4.211909234420644e-01 -7.510154203508732e-02 -8.059694039407948e-03 -3.665842764618126e-01
            -8.093164948670141e-03 -3.665232347349498e-01 4.212179673357819e-01 -7.506494142114402e-02 7.973495417746825e-02 2.865004097441569e-02 7.905126645243572e-02 3.288959976912354e-02
            4.212011777316046e-01 -7.514820429045223e-02 -8.009308873103764e-03 -3.664995969083239e-01 7.908741221535674e-02 3.291808286752957e-02 7.974083283620316e-02 2.868812707551654e-02
354812500.0000000000 1.059581536812598e-01 2.165076445687100e-02 1.073740435067355e-01 1.862169326108550e-02 -1.347106246298755e-01 -3.410828457653815e-01 3.675913541213996e-01 -2.125491430697717e-01
            1.073791286087003e-01 1.860488991257046e-02 1.059562864909108e-01 2.169892219835559e-02 3.675780250119747e-01 -2.124880709215976e-01 -1.346413643846671e-01 -3.409685018101271e-01
            -1.346931655307306e-01 -3.411099403492984e-01 3.675113631700307e-01 -2.124901022153119e-01 1.011505510413225e-01 1.998030907071163e-02 9.888131156004488e-02 2.383581359398934e-02
            3.676054542330389e-01 -2.124887394005112e-01 -1.347748132110504e-01 -3.410106475991618e-01 9.888611232784214e-02 2.379801194776945e-02 1.012366141001961e-01 2.004021724919181e-02
355645000.0000000000 1.142681914209300e-01 4.908849964194904e-03 1.154282481026374e-01 2.104357504243762e-04 -2.435691748829216e-01 -2.742907860731011e-01 2.721868402724749e-01 -3.234875054875166e-01
            1.155119036219409e-01 2.854838273174941e-04 1.141954360941899e-01 4.890411477189205e-03 2.720949016264627e-01 -3.236261645962195e-01 -2.435718261310025e-01 -2.743055487127355e-01
            -2.435481051339168e-01 -2.743146814663063e-01 2.720931914425762e-01 -3.235744865721630e-01 1.114756229441622e-01 -6.904667224294119e-05 1.072218499345829e-01 4.351255329678063e-03
            2.721859325096822e-01 -3.235741549327555e-01 -2.435621603526174e-01 -2.742208865821243e-01 1.072258042254271e-01 4.420378608038052e-03 1.114765229779631e-01 -8.917267795651504e-05
356477500.0000000000 1.092081372408610e-01 -1.282188602078991e-02 1.097632486232196e-01 -1.933499408597938e-02 -3.233346963174593e-01 -1.756041509989097e-01 1.447706349196822e-01 -3.966668777137733e-01
            1.097754642956005e-01 -1.935023113491220e-02 1.093175646565876e-01 -1.274624945075977e-02 1.448289846424538e-01 -3.966620903811276e-01 -3.232018875938017e-01 -1.755516944685358e-01
            -3.233326094966336e-01 -1.755923270677627e-01 1.448174004781919e-01 -3.965975723108429e-01 1.061637721395988e-01 -2.188937986695438e-02 1.002050014330539e-01 -1.531805692539409e-02
            1.448123610029751e-01 -3.966192912002229e-01 -3.233195629797595e-01 -1.756659041179586e-01 1.002926493473670e-01 -1.534341902131341e-02 1.062856669671577e-01 -2.194561798461804e-02
357310000.0000000000 9.362219201439229e-02 -2.237539514995921e-02 9.261061485679883e-02 -3.090452729166569e-02 -3.663006241087629e-01 -5.568588074212250e-02 -1.189700674880056e-03 -4.220134262185371e-01
            9.260485093788443e-02 -3.080518060390881e-02 9.358430480210951e-02 -2.236105185390840e-02 -1.122777098660154e-03 -4.219855946495250e-01 -3.662873279182374e-01 -5.568506958401876e-02
            -3.662609057164469e-01 -5.567502408686770e-02 -1.109785423832931e-03 -4.219831334376088e-01 8.771622833281482e-02 -3.525309573822738e-02 8.123373141286847e-02 -2.552862381412221e-02
            -1.161730596750467e-03 -4.220315377288733e-01 -3.662163607816284e-01 -5.568765038683152e-02 8.131492049943859e-02 -2.550631815915996e-02 8.763985653472156e-02 -3.515071097172177e-02
358142500.0000000000 7.536774504802293e-02 -1.864030986607861e-02 7.170935103781710e-02 -2.854379473431468e-02 -3.670106379078868e-01 7.375582833841297e-02 -1.478407745410578e-01 -3.943387042186635e-01
            7.184094779233417e-02 -2.855161505764294e-02 7.521171093449136e-02 -1.865289293242333e-02 -1.478282130012560e-01 -3.943296628995145e-01 -3.669866609409863e-01 7.364626057667736e-02
            -3.669485999848856e-01 7.375668228696573e-02 -1.479049782076245e-01 -3.943546928555989e-01 6.446176989155634e-02 -3.317862125333209e-02 5.926766277267825e-02 -2.007814840610398e-02
            -1.477896193954903e-01 -3.942807898737733e-01 -3.669186422037308e-01 7.368730761808479e-02 5.936072667648385e-02 -2.003728201871314e-02 6.445989526241343e-02 -3.314252708047725e-02
358975000.0000000000 6.421377908800015e-02 -2.602255326158847e-03 5.764743460276633e-02 -1.307007485513118e-02 -3.223701359687599e-01 1.983699764366791e-01 -2.749005607731337e-01 -3.158152106358356e-01
            5.766166178268683e-02 -1.302485272322113e-02 6.420091084685427e-02 -2.629496690740171e-03 -2.748492042018002e-01 -3.158994872365505e-01 -3.223754211726436e-01 1.983476619954840e-01
            -3.222666698303085e-01 1.983515885867397e-01 -2.749383575792906e-01 -3.158810852111170e-01 4.799629992281336e-02 -1.614753934308081e-02 4.571507508045802e-02 -2.392264680812415e-04
            -2.748647330128316e-01 -3.158371868335532e-01 -3.223314474898028e-01 1.983776309485990e-01 4.573606985839827e-02 -2.009222422921878e-04 4.814152256751727e-02 -1.617134001226478e-02
359807500.0000000000 6.730474023934405e-02 1.763337982258612e-02 5.747933990783723e-02 7.661513157857119e-03 -2.347632053813717e-01 3.011874160495219e-01 -3.643049344824966e-01 -1.983243037499471e-01
            5.752090669913958e-02 7.800972392400136e-03 6.725666517941763e-02 1.751366866394630e-02 -3.643359095142292e-01 -1.983273376938177e-01 -2.347892868489784e-01 3.010801907543975e-01
            -2.347526633304737e-01 3.010714941964698e-01 -3.642191887375749e-01 -1.983814980162999e-01 4.667222710251948e-02 7.564517668683342e-03 4.854130542723397e-02 2.486996391516115e-02
            -3.642644880716362e-01 -1.982592975026076e-01 -2.347285876552011e-01 3.011580350749106e-01 4.851870763050910e-02 2.493420256934966e-02 4.669523025944011e-02 7.526405633533372e-03
360640000.0000000000 8.377536842220248e-02 3.083639247183635e-02 7.101987405430051e-02 2.316902456240714e-02 -1.147646006438102e-01 3.659394896494945e-01 -4.056690758109907e-01 -5.964035381260293e-02
            7.107548110919445e-02 2.307374497489524e-02 8.377782419214647e-02 3.082727428183213e-02 -4.057455517532193e-01 -5.970547701622561e-02 -1.147779948947240e-01 3.659735818303115e-01
            -1.147814163202042e-01 3.659815025231556e-01 -4.057068119903418e-01 -5.973569546215080e-02 6.093900693000868e-02 2.599504517364338e-02 6.727253760946487e-02 4.288749145639970e-02
            -4.056729578270282e-01 -5.968596033180075e-02 -1.147799696101936e-01 3.660525007101477e-01 6.726257291841166e-02 4.287406503973908e-02 6.087335316242184e-02 2.601871374795526e-02
361472500.0000000000 1.057641968213895e-01 3.014402771448844e-02 9.101915968689474e-02 2.534471821930992e-02 2.017685945287425e-02 3.832209512323883e-01 -3.975194362573230e-01 8.151791404432078e-02
            9.099620711861137e-02 2.522086552825453e-02 1.057458859287146e-01 3.006344158977245e-02 -3.975490128835459e-01 8.156098928590676e-02 2.012214139041494e-02 3.832032478460211e-01
            2.007303330212398e-02 3.831863720470055e-01 -3.975372299260672e-01 8.154157790920158e-02 8.305792090405099e-02 3.062568615471781e-02 9.318968299037053e-02 4.528281202648527e-02
            -3.975342643131383e-01 8.156965592906819e-02 2.014145263522661e-02 3.832257855362336e-01 9.319255754641902e-02 4.524847847684210e-02 8.300967133001258e-02 3.060769388927631e-02
362305000.0000000000 1.225771089603868e-01 1.523317086332019e-02 1.074015732333245e-01 1.392142016094812e-02 1.510039241723470e-01 3.522439595797821e-01 -3.439006240220308e-01 2.101740958888270e-01
            1.073281579188503e-01 1.385329743613235e-02 1.225875150138390e-01 1.511658758889957e-02 -3.438708058408935e-01 2.101574509425688e-01 1.510332385831586e-01 3.522487642745001e-01
            1.510355235795292e-01 3.522188934152568e-01 -3.438636540662804e-01 2.101382434186013e-01 1.022580183553426e-01 2.017176893766275e-02 1.148439622903255e-01 3.129263339324219e-02
            -3.438124006992058e-01 2.100621393776407e-01 1.509734876069102e-01 3.521873778134514e-01 1.148080313858127e-01 3.133202496083947e-02 1.022448509105923e-01 2.014456938386524e-02
363137500.0000000000 1.265085355415293e-01 -7.466359869739995e-03 1.123842398720930e-01 -5.563175773280506e-03 2.621327975549260e-01 2.794609844032012e-01 -2.512222469442731e-01 3.134934596790930e-01
            1.123800542009534e-01 -5.468340153258223e-03 1.264801011975237e-01 -7.542429427503722e-03 -2.512387865811399e-01 3.134195243471888e-01 2.620582633037357e-01 2.794633369908838e-01
            2.621026498183326e-01 2.794030984766041e-01 -2.512480468923026e-01 3.133758543045347e-01 1.098335262293672e-01 1.940258842907510e-04 1.230802223181009e-01 7.754011840619852e-03
            -2.512867658642096e-01 3.134656192348167e-01 2.620918361324877e-01 2.794558797268443e-01 1.230732336810485e-01 7.740737044686803e-03 1.098241077053791e-01 1.520334287574800e-04
363970000.0000000000 1.152093126726071e-01 -2.814736539595938e-02 1.035186487853318e-01 -2.376213140614900e-02 3.423620572681523e-01 1.744626225410743e-01 -1.286747233152822e-01 3.804496549861199e-01
            1.035224771775418e-01 -2.379222962169671e-02 1.152071173111472e-01 -2.813923613681416e-02 -1.287180374518149e-01 3.804797811770828e-01 3.423316465081143e-01 1.745243861912413e-01
            3.423443632020938e-01 1.745335463178177e-01 -1.286956032891808e-01 3.803823747575929e-01 1.027005325236058e-01 -1.968911687149501e-02 1.153267683082871e-01 -1.512874150228331e-02
            -1.287843901394226e-01 3.804380325346596e-01 3.423008457042783e-01 1.745042454201431e-01 1.153344183697246e-01 -1.521456189120458e-02 1.027090099771757e-01 -1.972208269071992e-02
364802500.0000000000 9.319037517840359e-02 -3.752075307455670e-02 8.469783981155142e-02 -3.243115447524712e-02 3.840909564743232e-01 4.837518811490753e-02 1.088744520459012e-02 4.014607221420916e-01
            8.462248740729539e-02 -3.234808200802677e-02 9.314800185954319e-02 -3.746317126614162e-02 1.090256305583320e-02 4.014028071781297e-01 3.840348889162570e-01 4.842346961309921e-02
            3.839484536694980e-01 4.839072255412678e-02 1.094673662328802e-02 4.015344651920074e-01 8.414764533600380e-02 -3.023147941939186e-02 9.548541649529968e-02 -2.747165107168950e-02
            1.087021532241554e-02 4.015398011590922e-01 3.840485777409263e-01 4.836817288441928e-02 9.541250014378888e-02 -2.743768983588494e-02 8.412169659673983e-02 -3.019820183439921e-02
365635000.0000000000 6.983218402612308e-02 -3.077320770831790e-02 6.427839536100474e-02 -2.652912468650903e-02 3.812548427810954e-01 -8.675855635689388e-02 1.502256378885632e-01 3.714621305115967e-01
            6.423362704551437e-02 -2.652183688086720e-02 6.978331939690247e-02 -3.072463586336918e-02 1.501742904559452e-01 3.715621727454479e-01 3.813048132392919e-01 -8.681018190799872e-02
            3.812845300193270e-01 -8.685326193977400e-02 1.501969358178060e-01 3.715321903221149e-01 6.277075591271451e-02 -2.591052225574895e-02 7.313946895385474e-02 -2.374369449964878e-02
            1.502042531833294e-01 3.715607729467465e-01 3.812857919742141e-01 -8.680454066636493e-02 7.311838326165108e-02 -2.361989893171638e-02 6.285727201255828e-02 -2.593298031746359e-02
366467500.0000000000 5.606762673167625e-02 -1.050341863830101e-02 5.248014540134020e-02 -8.662682836956587e-03 3.311976784150112e-01 -2.157623478884259e-01 2.690753674508877e-01 2.935110967277894e-01
            5.249022532270991e-02 -8.682134717668226e-03 5.604701590568600e-02 -1.048749805738286e-02 2.692202887680196e-01 2.934618828929254e-01 3.311484629925972e-01 -2.158109219168160e-01
            3.311729639327753e-01 -2.156735233922788e-01 2.691848450672058e-01 2.934155280647667e-01 4.956984269262679e-02 -8.264471429173349e-03 5.963497245271460e-02 -6.245928063951064e-03
            2.692075749864348e-01 2.934306463480515e-01 3.311891793089811e-01 -2.157183052234601e-01 5.964083418133633e-02 -6.179957966819757e-03 4.959132234638565e-02 -8.363577468439323e-03
367300000.0000000000 5.867650244055312e-02 1.380774867813454e-02 5.534051962962117e-02 1.241688101978733e-02 2.368622456130499e-01 -3.203989657948824e-01 3.510299870743580e-01 1.792992683018826e-01
            5.536339864452020e-02 1.240800871338609e-02 5.870690544548685e-02 1.371527309033442e-02 3.509963708913212e-01 1.792549090578616e-01 2.367849288064341e-01 -3.203757633268687e-01
            2.367421190679414e-01 -3.203602443702475e-01 3.511259171302262e-01 1.792622451633519e-01 5.114800204204139e-02 1.361943040830183e-02 6.200012147837274e-02 1.552413817358606e-02
            3.510617399315780e-01 1.793607117609094e-01 2.368225325208880e-01 -3.203470490458664e-01 6.194751821422097e-02 1.546100671476895e-02 5.114971428895198e-02 1.362414748151775e-02
368132500.0000000000 7.596732304431468e-02 3.024215267639828e-02 7.122810700021863e-02 2.598141218971801e-02 1.101674553670649e-01 -3.843868488164857e-01 3.868282157986279e-01 4.654060890336599e-02
            7.116840319653446e-02 2.604481548642798e-02 7.598850738436905e-02 3.024795875206601e-02 3.867046496933026e-01 4.653063879592353e-02 1.100396984975826e-01 -3.844297328219496e-01
            1.100594065322232e-01 -3.845313321313256e-01 3.867330450674934e-01 4.656758095653288e-02 6.659463893613896e-02 2.886288268143312e-02 7.874149329440154e-02 2.942407726782312e-02
            3.867039754819381e-01 4.653192330516805e-02 1.101308419480682e-01 -3.844809259610399e-01 7.868607750795178e-02 2.939961530261504e-02 6.656580879130447e-02 2.881991304379879e-02
368965000.0000000000 9.927373581425529e-02 3.157738943309043e-02 9.150063789231555e-02 2.565486868146016e-02 -3.058204222299251e-02 -3.988242797522961e-01 3.754341650354568e-01 -8.735915043091426e-02
            9.147393240687997e-02 2.561028785077173e-02 9.924514217740030e-02 3.163923208109302e-02 3.754459369176851e-01 -8.744289660005705e-02 -3.062099385057755e-02 -3.988534443268965e-01
            -3.059997361121361e-02 -3.988161473119555e-01 3.754286018439315e-01 -8.740927579051881e-02 8.755324884278842e-02 3.011418032161970e-02 1.006180098269775e-01 2.816848210786000e-02
            3.754080255673460e-01 -8.730958435345444e-02 -3.061380714555010e-02 -3.988736562282782e-01 1.006521575403103e-01 2.818306219072150e-02 8.741377504536330e-02 3.015644621790896e-02
369797500.0000000000 1.174780313831939e-01 1.839148746724401e-02 1.060709959459894e-01 1.236579586471753e-02 -1.660715519233547e-01 -3.635505974623057e-01 3.211313549384111e-01 -2.083168851089654e-01
            1.060644500719303e-01 1.233188568960892e-02 1.173779231244417e-01 1.830557709192594e-02 3.211882085549801e-01 -2.082001175818582e-01 -1.660105672087998e-01 -3.634858022630875e-01
            -1.660228817459877e-01 -3.635408329228524e-01 3.211977114219785e-01 -2.082355028845510e-01 1.035168383656224e-01 1.772132238373337e-02 1.165853979165654e-01 1.246588799725165e-02
            3.211605226966154e-01 -2.082462543951699e-01 -1.660144115697363e-01 -3.635645886978499e-01 1.166556990851553e-01 1.250097891495389e-02 1.035899202058411e-01 1.772430136371732e-02
370630000.0000000000 1.229223890342021e-01 -2.844747500985125e-03 1.081332264372293e-01 -6.932383172766220e-03 -2.802009964075015e-01 -2.850776201558032e-01 2.303935107996976e-01 -3.042032702243488e-01
            1.080662461217009e-01 -6.998065463454490e-03 1.228366637838727e-01 -2.870711088808998e-03 2.303452161044876e-01 -3.041572184613484e-01 -2.802594119215033e-01 -2.851321706401970e-01
            -2.801689053069674e-01 -2.851636504170350e-01 2.303340294336855e-01 -3.041810174140605e-01 1.072846616637740e-01 -1.717756222431219e-03 1.187739274754192e-01 -1.044878787986873e-02
            2.304318685441582e-01 -3.041621428096326e-01 -2.801506203242712e-01 -2.851551445673658e-01 1.188225884861293e-01 -1.041821017398333e-02 1.073650600277535e-01 -1.766586960186673e-03
371462500.0000000000 1.136372748962251e-01 -2.208691228455358e-02 9.683250470114660e-02 -2.290355955408893e-02 -3.617494179212123e-01 -1.737410692547105e-01 1.117244272493472e-01 -3.645546927008921e-01
            9.681216116992873e-02 -2.285753662900579e-02 1.136791502649920e-01 -2.214226318578880e-02 1.117946681978532e-01 -3.645186042524056e-01 -3.617042899951101e-01 -1.737366167469949e-01
            -3.618013855768540e-01 -1.737213902839676e-01 1.118173752319279e-01 -3.645801284061746e-01 9.716298710240823e-02 -1.878600709145293e-02 1.055970799142852e-01 -3.009260213145553e-02
            1.117628114929944e-01 -3.645302291665626e-01 -3.617757449893191e-01 -1.737290359330720e-01 1.056585462515584e-01 -3.014640374572315e-02 9.724297719279466e-02 -1.881133089630776e-02
372295000.0000000000 9.458886094551419e-02 -3.071208150884814e-02 7.749482380360032e-02 -2.742580521733906e-02 -4.023394998484306e-01 -4.051215102939785e-02 -2.177255184959167e-02 -3.802931566006757e-01
            7.751007792294971e-02 -2.743475406560614e-02 9.460370317064423e-02 -3.064492306526796e-02 -2.171294143615443e-02 -3.802496003189386e-01 -4.023544269768659e-01 -4.049853951599468e-02
            -4.023601655021659e-01 -4.047838227896117e-02 -2.179899023349820e-02 -3.802709701201580e-01 7.784728883136424e-02 -2.480067739813344e-02 8.224571751752029e-02 -3.730712235198923e-02
            -2.173259330508902e-02 -3.802478413299081e-01 -4.022982044426180e-01 -4.043442489427702e-02 8.222777158468692e-02 -3.729379746679030e-02 7.782945503104896e-02 -2.479288158178445e-02
373127500.0000000000 7.497109631928521e-02 -2.445096483688579e-02 5.930914937270320e-02 -1.758169160346252e-02 -3.955424355932564e-01 1.011616549229658e-01 -1.529529159854774e-01 -3.470998575095096e-01
            5.935480273412479e-02 -1.758527123666183e-02 7.496354929422379e-02 -2.442179256555391e-02 -1.529702019771692e-01 -3.471966286568847e-01 -3.955751171623213e-01 1.011859402657392e-01
            -3.955727933292241e-01 1.012188763516431e-01 -1.529088689284286e-01 -3.471985221703467e-01 5.879163933174995e-02 -1.587791751670493e-02 5.921528064555908e-02 -2.781325924974017e-02
            -1.529667589809188e-01 -3.471816287477694e-01 -3.955737729364200e-01 1.011735897931339e-01 5.918319213717382e-02 -2.784570859111827e-02 5.875445632640731e-02 -1.601511191611003e-02
373960000.0000000000 6.496841070733772e-02 -6.835546142020202e-03 5.225143573605017e-02 2.431555516397949e-03 -3.388367353986301e-01 2.343851984818532e-01 -2.626655045250350e-01 -2.693003351491871e-01
            5.215096448298802e-02 2.381860089423819e-03 6.489391420230561e-02 -6.897065335274243e-03 -2.626344221870645e-01 -2.692481789564899e-01 -3.389045687057179e-01 2.344874439750784e-01
            -3.389278300227259e-01 2.344099653037648e-01 -2.626362241115269e-01 -2.692583763307800e-01 5.018855298936580e-02 4.266234995543952e-03 4.749695076115352e-02 -5.672603582412997e-03
            -2.626177432397326e-01 -2.693892671462607e-01 -3.388007600174271e-01 2.344099292107043e-01 4.748757730063322e-02 -5.777167451631371e-03 5.017286121521875e-02 4.308532551608103e-03
374792500.0000000000 6.964551087921030e-02 1.253954771336007e-02 6.036972290518818e-02 2.264322928237465e-02 -2.369401760873446e-01 3.401094085956622e-01 -3.358360061454799e-01 -1.592976772441549e-01
            6.040849060208695e-02 2.251349331674094e-02 6.968407253718709e-02 1.262640959219870e-02 -3.358529322145791e-01 -1.592539111334008e-01 -2.368738579467705e-01 3.401457579837656e-01
            -2.368754213830133e-01 3.401253278082620e-01 -3.359109092306229e-01 -1.592317157028066e-01 5.720957488082028e-02 2.572629078494238e-02 5.281445070028914e-02 1.845993158757180e-02
            -3.358497158972884e-01 -1.593081757058897e-01 -2.368895877881748e-01 3.401384124228684e-01 5.279285218055753e-02 1.844035926417478e-02 5.726899067716824e-02 2.571094169925968e-02
375625000.0000000000 8.623676180654023e-02 2.329293666736355e-02 8.009692050622713e-02 3.263283204138582e-02 -1.033534146602553e-01 4.023182791298910e-01 -3.654953946649707e-01 -3.368004580735026e-02
            8.015120003840201e-02 3.256584911240799e-02 8.636226653359227e-02 2.333433114165709e-02 -3.654006442857874e-01 -3.367528788595538e-02 -1.032972965212019e-01 4.023187784950836e-01
            -1.033227627634679e-01 4.023073074245855e-01 -3.655131614499315e-01 -3.365272059810145e-02 7.682712293489886e-02 3.760264920903135e-02 7.206705622349220e-02 3.299492729802352e-02
            -3.655124989079406e-01 -3.362257058622557e-02 -1.032839976601748e-01 4.022395488121118e-01 7.202415518128241e-02 3.294393829975530e-02 7.675028262398068e-02 3.756311775774011e-02
376457500.0000000000 1.056947566171212e-01 1.993187282097472e-02 1.015385179262803e-01 2.736547967031168e-02 4.268340034259929e-02 4.126803753164692e-01 -3.514421959289742e-01 9.173168746908233e-02
            1.016104708595476e-01 2.749505291959750e-02 1.056958327586237e-01 1.993776255705661e-02 -3.515140528734456e-01 9.173580588221721e-02 4.276115098254898e-02 4.127222669469062e-01
            4.273738826306008e-02 4.127559627546261e-01 -3.514979248947790e-01 9.175687111228326e-02 9.921300361619244e-02 3.434924826251670e-02 9.524356435735758e-02 3.165798235496267e-02
            -3.514752569351374e-01 9.168027439931251e-02 4.276631103132143e-02 4.127206850542583e-01 9.516562923803464e-02 3.157885164865868e-02 9.922898612569195e-02 3.428525947984656e-02
377290000.0000000000 1.180942095582578e-01 4.489459089143361e-03 1.149403343222279e-01 9.868627193145869e-03 1.816455952761679e-01 3.724793053273286e-01 -2.977278222625554e-01 2.041992429704902e-01
            1.149849571244480e-01 9.849204401843323e-03 1.180969436377480e-01 4.366381768065236e-03 -2.977147422423172e-01 2.042128543430505e-01 1.816729387191131e-01 3.724485356268684e-01
            1.815971176804970e-01 3.724525828407697e-01 -2.977007904402980e-01 2.041860097885622e-01 1.144429269907530e-01 1.768358851436461e-02 1.113674533107064e-01 1.616977959969271e-02
            -2.977565468699536e-01 2.041939371324857e-01 1.815892437846201e-01 3.724567145771521e-01 1.112365202676292e-01 1.611720593427452e-02 1.144535175467809e-01 1.776545951055796e-02
378122500.0000000000 1.174506414028665e-01 -1.573828890692902e-02 1.141822522241629e-01 -1.220286060988297e-02 2.977808158151870e-01 2.884985510036326e-01 -2.098598306225347e-01 2.927713854579315e-01
            1.141823608116997e-01 -1.217795901061996e-02 1.173974716641978e-01 -1.573670276704020e-02 -2.098717886722130e-01 2.927368176864427e-01 2.977552582707041e-01 2.885779239114726e-01
            2.978079439678417e-01 2.885308035671983e-01 -2.098864269312902e-01 2.926993823415794e-01 1.159603699274375e-01 -4.381663810934067e-03 1.134935837264496e-01 -5.506037325991923e-03
            -2.098970646118876e-01 2.926801156627021e-01 2.977738939864806e-01 2.885567492461964e-01 1.134881487829229e-01 -5.550304801799161e-03 1.158686540725534e-01 -4.464867171778174e-03
378955000.0000000000 1.035869087722882e-01 -3.123514439144357e-02 9.961585156379736e-02 -2.888427514862080e-02 3.796339918704550e-01 1.710630271581630e-01 -9.617234875507612e-02 3.468826708552530e-01
            9.966593403854687e-02 -2.889082849236133e-02 1.035330669967093e-01 -3.121879768172570e-02 -9.615584155635264e-02 3.469328618484925e-01 3.796269221250078e-01 1.710083100860398e-01
            3.796705058010173e-01 1.710181612994809e-01 -9.616698290492440e-02 3.469667128431291e-01 1.030839291209020e-01 -2.230294269738149e-02 1.011881146411917e-01 -2.318123902766245e-02
            -9.618225046807707e-02 3.469377077373490e-01 3.796570742717219e-01 1.710379285036292e-01 1.011148526676685e-01 -2.318695961234795e-02 1.030674112607323e-01 -2.230664449998837e-02
379787500.0000000000 8.235510483835430e-02 -3.432092576248901e-02 7.777543111516509e-02 -3.261298653988057e-02 4.184346127597984e-01 3.165082097009476e-02 3.076318328901672e-02 3.581436319713146e-01
            7.779141968505587e-02 -3.257379318842103e-02 8.233553392129192e-02 -3.421822031597249e-02 3.071611945771767e-02 3.582271582663989e-01 4.183984592892641e-01 3.166361914494300e-02
            4.183980092880433e-01 3.168911186793101e-02 3.065936575869667e-02 3.581952950280232e-01 8.184065598337674e-02 -2.784898055913760e-02 8.007451276717124e-02 -2.833087771557544e-02
            3.069973762191209e-02 3.581793914672352e-01 4.183463248400299e-01 3.162064242075768e-02 7.998859483349378e-02 -2.828758661637576e-02 8.182651195772467e-02 -2.784253380686892e-02
380620000.0000000000 6.369477373748912e-02 -2.258412836571858e-02 5.875852891234846e-02 -2.114930902595698e-02 4.075898093173558e-01 -1.153519159118476e-01 1.536207746450406e-01 3.229446065687663e-01
            5.869843739811242e-02 -2.122459718671229e-02 6.374967622585632e-02 -2.260094342598522e-02 1.536073519852674e-01 3.229546223937290e-01 4.074656505167446e-01 -1.153557984540510e-01
            4.074879483150892e-01 -1.153136176617049e-01 1.536391611991471e-01 3.229783982397302e-01 6.215943588461965e-02 -1.815112814961410e-02 6.069303317343750e-02 -1.786630764170886e-02
            1.536819991790257e-01 3.229724935619506e-01 4.074585974402236e-01 -1.152860923022615e-01 6.065073781406557e-02 -1.791024814818941e-02 6.210337058790207e-02 -1.821081673768707e-02
381452500.0000000000 5.721950397342498e-02 -1.266512782522890e-03 5.204187587820485e-02 -3.190579450539374e-04 3.448157253161032e-01 -2.518521483465518e-01 2.546957953043805e-01 2.461396933466259e-01
            5.200947767415591e-02 -3.356174513370921e-04 5.717512779870958e-02 -1.352108416504698e-03 2.546566539009003e-01 2.461554221554446e-01 3.447250243308530e-01 -2.518193486897021e-01
            3.447208987742740e-01 -2.519239446726093e-01 2.547027753451195e-01 2.462388432355142e-01 5.380624113767930e-02 1.977616763886555e-03 5.322701840337167e-02 3.125140533299111e-03
            2.547211455644371e-01 2.461069291660107e-01 3.447490196842465e-01 -2.519106881115618e-01 5.308631165413190e-02 3.170901007369757e-03 5.380127921106282e-02 1.949730003395502e-03
382285000.0000000000 6.614798134913073e-02 1.903619714976892e-02 6.073839861412809e-02 1.929792584918493e-02 2.361811222627277e-01 -3.582309118581045e-01 3.201702404189176e-01 1.404632278151992e-01
            6.079719591718952e-02 1.921591081378488e-02 6.606789517867907e-02 1.907679695205281e-02 3.201874538158700e-01 1.404756105058478e-01 2.361995770364254e-01 -3.582429519101491e-01
            2.361181978868113e-01 -3.582114264118100e-01 3.201864527139362e-01 1.404108598565801e-01 6.063911119482383e-02 2.222765604549331e-02 6.176982361193351e-02 2.392125746094302e-02
            3.201631813055195e-01 1.404982781089986e-01 2.362079938019534e-01 -3.582921461268453e-01 6.176168558339432e-02 2.390988978297379e-02 6.063343887605954e-02 2.220606698737523e-02
383117500.0000000000 8.583788169344608e-02 2.834061007302748e-02 7.993108449731237e-02 2.764799812443347e-02 9.648310526661417e-02 -4.185997027171921e-01 3.444205396459761e-01 2.176483180171935e-02
            7.988140804920640e-02 2.757541894422675e-02 8.587446422941911e-02 2.839821781701389e-02 3.444674592422024e-01 2.170369614468848e-02 9.646456256912241e-02 -4.185788196906480e-01
            9.642377953448472e-02 -4.186936350448903e-01 3.443028495031067e-01 2.182073555227173e-02 7.882580048463773e-02 3.253154991068301e-02 8.190820730563099e-02 3.385776224755347e-02
            3.443428178145704e-01 2.167323776679692e-02 9.649437243447349e-02 -4.185909627159224e-01 8.191652941227499e-02 3.395207999228974e-02 7.886582549080785e-02 3.252118973065958e-02
383950000.0000000000 1.065339633263900e-01 2.273443379344735e-02 9.921914881901449e-02 2.110900214071676e-02 -5.439548451067856e-02 -4.256268381435595e-01 3.279033813491309e-01 -9.569666089043070e-02
            9.917581003095918e-02 2.112016314102079e-02 1.065678642273438e-01 2.275139442599934e-02 3.278923152042586e-01 -9.570149401813996e-02 -5.437747594323234e-02 -4.257415399210006e-01
            -5.443886138984294e-02 -4.256073102162340e-01 3.278329643735697e-01 -9.571309436384641e-02 9.840225821936471e-02 2.850382621473059e-02 1.033868139532379e-01 2.833341877112447e-02
            3.278854686425466e-01 -9.571116641410901e-02 -5.427805092986078e-02 -4.256090189845127e-01 1.033874281646123e-01 2.832342667720327e-02 9.842881554479702e-02 2.839321373417499e-02
384782500.0000000000 1.184101474504037e-01 5.374908206216475e-03 1.091201848186683e-01 3.569597589195588e-03 -1.968142129631418e-01 -3.808473969432099e-01 2.742549475956295e-01 -2.000463125145217e-01
            1.091793571700842e-01 3.654741158626339e-03 1.183313096674012e-01 5.411486843242825e-03 2.743131951664793e-01 -2.000690429896959e-01 -1.967948270337758e-01 -3.808965249440026e-01
            -1.967660985928776e-01 -3.808790512746082e-01 2.742994139310913e-01 -2.000527609637188e-01 1.101164188316103e-01 1.299161884624168e-02 1.162638362895792e-01 1.047944992609480e-02
            2.742802561672139e-01 -2.000875361556243e-01 -1.968972406502419e-01 -3.808429304555667e-01 1.162176693889948e-01 1.046745376139782e-02 1.100790402664546e-01 1.295220616300301e-02
385615000.0000000000 1.161495023747021e-01 -1.527133771793624e-02 1.048101181992428e-01 -1.614378719785634e-02 -3.152082827028472e-01 -2.915010659245968e-01 1.888414323248585e-01 -2.811494874141680e-01
            1.048503174337496e-01 -1.621710903759161e-02 1.161626869954999e-01 -1.534372590431439e-02 1.889490695324726e-01 -2.811294211160772e-01 -3.152419932930231e-01 -2.914532332607178e-01
            -3.152143704083442e-01 -2.914969351717531e-01 1.888800797890961e-01 -2.811944575791444e-01 1.086568796537696e-01 -5.948903407584552e-03 1.145983117464791e-01 -1.131058018973172e-02
            1.889279317351791e-01 -2.811098149232731e-01 -3.152386384170260e-01 -2.914938012977777e-01 1.146434485148176e-01 -1.130185570316288e-02 1.086446143700229e-01 -5.884693909060595e-03
386447500.0000000000 1.010306932582232e-01 -2.968524684587277e-02 8.804383555584207e-02 -2.858421498166498e-02 -3.974963647115280e-01 -1.676386674976765e-01 7.994004117539048e-02 -3.286301785842654e-01
            8.809154471028711e-02 -2.855172836263359e-02 1.010684409601267e-01 -2.960153109075957e-02 7.990793726652423e-02 -3.287371949384910e-01 -3.975126364359629e-01 -1.676367946037657e-01
            -3.975163217762097e-01 -1.676132291766641e-01 7.989232933007641e-02 -3.287595250622514e-01 9.483939109408016e-02 -1.889823524253778e-02 9.935057328308816e-02 -2.683101986738024e-02
            7.985473592711635e-02 -3.287469281728321e-01 -3.975338802551573e-01 -1.677120900081956e-01 9.940314594531144e-02 -2.681284621645072e-02 9.481471563644274e-02 -1.897000187114863e-02
387280000.0000000000 7.997525313948128e-02 -3.043169085319167e-02 6.639370662102724e-02 -2.663855876656792e-02 -4.342021372156408e-01 -2.169338111737320e-02 -3.997617808395074e-02 -3.347178602077757e-01
            6.645492849379329e-02 -2.669582775112966e-02 7.998438338960581e-02 -3.048604176486642e-02 -4.001072767833094e-02 -3.347729811639082e-01 -4.342135719916893e-01 -2.165216895661431e-02
            -4.342573029011704e-01 -2.165653665829869e-02 -3.998148265621439e-02 -3.347935805759104e-01 7.550018380272072e-02 -1.916027291504978e-02 7.749865959779471e-02 -2.864322542018861e-02
            -3.994496409113473e-02 -3.347720556180734e-01 -4.342170648733100e-01 -2.164472016435012e-02 7.759369343577885e-02 -2.861552248183134e-02 7.546529588705571e-02 -1.919904315899105e-02
388112500.0000000000 6.346884101013069e-02 -1.693656919797426e-02 5.066690340926257e-02 -1.037381914184498e-02 -4.184127316182447e-01 1.307975772992007e-01 -1.538689969990462e-01 -2.970544968593157e-01
            5.063341139079248e-02 -1.035367602248661e-02 6.343909787696586e-02 -1.691730899347985e-02 -1.538769461002032e-01 -2.971328415435486e-01 -4.183900462085691e-01 1.308473158082967e-01
            -4.184898857964390e-01 1.308771175784044e-01 -1.539385565874945e-01 -2.970394152651488e-01 6.064355982234802e-02 -5.544696893222639e-03 5.990298740136896e-02 -1.534557663225036e-02
            -1.539446145925788e-01 -2.969858606653338e-01 -4.184954646415197e-01 1.307772477439398e-01 5.989787060376582e-02 -1.533828771224196e-02 6.057774745048182e-02 -5.564401021485687e-03
388945000.0000000000 6.027040195031983e-02 4.562438663708453e-03 4.943865079228475e-02 1.309194746876815e-02 -3.488083121722999e-01 2.702782545089212e-01 -2.450180162458532e-01 -2.216518444041762e-01
            4.942518779060883e-02 1.304956256442163e-02 6.011534107147334e-02 4.488014732887657e-03 -2.449638283759998e-01 -2.215721666829691e-01 -3.488522047454702e-01 2.701630259479995e-01
            -3.488658545080648e-01 2.702323760902481e-01 -2.450151687243595e-01 -2.216249727862455e-01 5.870510628488087e-02 1.540392450808662e-02 5.572766348132394e-02 6.465342519925558e-03
            -2.449993373862350e-01 -2.216322054893827e-01 -3.488518712960194e-01 2.702216178587891e-01 5.575703682087040e-02 6.534861586080124e-03 5.872434518462788e-02 1.536692290493629e-02
389777500.0000000000 7.217074533923264e-02 2.265946748390296e-02 6.400522021211470e-02 3.214034474295194e-02 -2.330589055772494e-01 3.762044939201652e-01 -3.019918810618641e-01 -1.214223304085880e-01
            6.405513255440336e-02 3.204429283413454e-02 7.222326741199066e-02 2.266083111520337e-02 -3.019920570447885e-01 -1.214152473529492e-01 -2.329452549836244e-01 3.761764470991592e-01
            -2.329187133969643e-01 3.760800384625434e-01 -3.019837769841145e-01 -1.214133111076665e-01 7.169156620190675e-02 3.266688718667649e-02 6.728919832753953e-02 2.559899037058183e-02
            -3.020075780518368e-01 -1.214785900664074e-01 -2.328917398208865e-01 3.762074630778180e-01 6.727811666271720e-02 2.558242672931325e-02 7.165248178602801e-02 3.272787638304509e-02
390610000.0000000000 9.304367724544207e-02 2.847245532096020e-02 8.756101459755247e-02 3.733277315373661e-02 -8.730524658638675e-02 4.334308635538278e-01 -3.207603473609971e-01 -1.094712646102927e-02
            8.756410135075229e-02 3.731490732476992e-02 9.303393024724319e-02 2.844050972190923e-02 -3.208141769820284e-01 -1.110379980360831e-02 -8.728804868250578e-02 4.334844299967535e-01
            -8.732899221054180e-02 4.333783847378039e-01 -3.208068096626114e-01 -1.100843290604455e-02 9.324126706939655e-02 3.768799327024876e-02 8.864359600920887e-02 3.235432658132657e-02
            -3.208285863526530e-01 -1.100433290329037e-02 -8.737545813823419e-02 4.334203950238115e-01 8.859297781224473e-02 3.223887153100147e-02 9.320184811373232e-02 3.758127397363480e-02
391442500.0000000000 1.126515114057125e-01 1.932485560104481e-02 1.088097199895499e-01 2.663430724294260e-02 6.751818436162492e-02 4.359191361936187e-01 -3.026155976831135e-01 9.717759782616589e-02
            1.087715691291568e-01 2.662019625721219e-02 1.126239013146359e-01 1.930347235406716e-02 -3.025744697772496e-01 9.718773879189167e-02 6.745640939467780e-02 4.359012526661474e-01
            6.745259216982136e-02 4.358838921579529e-01 -3.025592341105292e-01 9.717418056751589e-02 1.130868716874914e-01 2.769872762937329e-02 1.092016534879185e-01 2.366180449884892e-02
            -3.026267608514469e-01 9.723855344459641e-02 6.745611651545022e-02 4.358980093151285e-01 1.091515786397188e-01 2.361493746453698e-02 1.130532701552803e-01 2.772688030204237e-02
392275000.0000000000 1.220121794805364e-01 -1.420837599796254e-04 1.186067781987462e-01 5.323426385874358e-03 2.119980039317019e-01 3.859861560128908e-01 -2.506955668575563e-01 1.929537663963676e-01
            1.185769011891283e-01 5.271657352074097e-03 1.219611406663710e-01 -1.325241918626547e-04 -2.506433936048350e-01 1.929935722404846e-01 2.119418397323130e-01 3.860197287784667e-01
            2.120046114752096e-01 3.860645490139718e-01 -2.506500666964860e-01 1.930155217213348e-01 1.223743582885007e-01 7.635814717425770e-03 1.195054167417164e-01 3.933600914458646e-03
            -2.506085959694134e-01 1.929314318130170e-01 2.119472111549347e-01 3.860928986390803e-01 1.194547571937903e-01 4.017250129187161e-03 1.223694362692210e-01 7.645147884872732e-03
393107500.0000000000 1.169959760687610e-01 -2.129010458244915e-02 1.129715891499373e-01 -1.713357616412396e-02 3.309489227979256e-01 2.915730452946557e-01 -1.694040763305892e-01 2.668163181583318e-01
            1.130264384540193e-01 -1.710858310189943e-02 1.168964889728847e-01 -2.137645156444495e-02 -1.693887497113829e-01 2.667483809329310e-01 3.309437523137075e-01 2.916222503499069e-01
            3.309089498376777e-01 2.916040958409340e-01 -1.693613952276679e-01 2.668031392449611e-01 1.170954583356275e-01 -1.385836224960780e-02 1.151477026145869e-01 -1.783125272833859e-02
            -1.694434086649632e-01 2.668073769327645e-01 3.308837436052136e-01 2.915634149847213e-01 1.151388665247564e-01 -1.776944306750807e-02 1.170004241383640e-01 -1.388879133356004e-02
393940000.0000000000 9.946953393036272e-02 -3.457124131669002e-02 9.453190601581002e-02 -3.084545284985082e-02 4.123606194202481e-01 1.626147839070513e-01 -6.628408707968042e-02 3.088417892816752e-01
            9.445247348874015e-02 -3.084340762597784e-02 9.949330292216087e-02 -3.465102072470031e-02 -6.638570272274642e-02 3.088537296121493e-01 4.123716017181356e-01 1.626420406923799e-01
            4.123490602963026e-01 1.626444407167570e-01 -6.640106559255102e-02 3.088324659098559e-01 9.950462106952473e-02 -2.723929533481438e-02 9.799729889436140e-02 -3.204648863589497e-02
            -6.628720009373323e-02 3.088282939252494e-01 4.123456845368235e-01 1.626420969108811e-01 9.802652970342420e-02 -3.204704339267597e-02 9.953342979538624e-02 -2.721610032754166e-02
394772500.0000000000 7.746018198451657e-02 -3.377932219833575e-02 7.177216806709030e-02 -2.938282645087388e-02 4.466032785304487e-01 1.192121630039473e-02 4.608067802993434e-02 3.115181194174534e-01
            7.174515078514196e-02 -2.941347852610789e-02 7.744634101212959e-02 -3.380108445244065e-02 4.615253080662424e-02 3.114616617452126e-01 4.466635992131512e-01 1.193059229777002e-02
            4.465724874695977e-01 1.192164458665763e-02 4.612197931654794e-02 3.116176018011524e-01 7.732392436758724e-02 -2.636043767785685e-02 7.574896972344224e-02 -3.197178101114460e-02
            4.607844138683211e-02 3.115356604518857e-01 4.466400984302954e-01 1.184736776020859e-02 7.571915532141656e-02 -3.191054203225784e-02 7.728984363356847e-02 -2.630211049213708e-02
395605000.0000000000 6.120413714090137e-02 -1.886656942452844e-02 5.568603067797318e-02 -1.339990775565693e-02 4.267190785042032e-01 -1.443554383029161e-01 1.517362377466564e-01 2.730444046481487e-01
            5.575229151734785e-02 -1.330267778097321e-02 6.114450798294287e-02 -1.885596767080413e-02 1.517923518278788e-01 2.730971769690616e-01 4.267915768596349e-01 -1.443537277104027e-01
            4.267536882886316e-01 -1.443301566113837e-01 1.517595628328731e-01 2.729781306576162e-01 6.108366301871181e-02 -1.097276401134717e-02 5.907774862574772e-02 -1.728050523797428e-02
            1.517677305291791e-01 2.730415992668590e-01 4.267944206387504e-01 -1.443766980507196e-01 5.904488139403408e-02 -1.733540464907197e-02 6.114663130086059e-02 -1.098538496355732e-02
396437500.0000000000 5.880995663069016e-02 2.829517452919307e-03 5.475006772993371e-02 9.212594744606634e-03 3.518122219821382e-01 -2.857580064010877e-01 2.347263702755357e-01 1.997439869636898e-01
            5.468833575836773e-02 9.165271090036838e-03 5.877773157318010e-02 2.818792989248687e-03 2.346970120603305e-01 1.997717835300029e-01 3.518536059902798e-01 -2.856641180341013e-01
            3.518227434739251e-01 -2.856999963041897e-01 2.346944894637140e-01 1.997138210106455e-01 5.895163076835885e-02 1.124312587583579e-02 5.639107977275488e-02 4.356648443619579e-03
            2.346733251592797e-01 1.997720814545961e-01 3.518173625979795e-01 -2.856859375219453e-01 5.648544603818829e-02 4.419376506270462e-03 5.895091364219302e-02 1.123892498484948e-02
397270000.0000000000 7.096968678550487e-02 2.010508967752792e-02 6.912588392523397e-02 2.632635865654541e-02 2.304691038564371e-01 -3.915520370064190e-01 2.847913507869427e-01 1.044718628496504e-01
            6.906849305072055e-02 2.623694043318133e-02 7.103455240779588e-02 2.013580098912808e-02 2.848045082931588e-01 1.044954730620710e-01 2.303961506765225e-01 -3.916318228510904e-01
            2.304397036614357e-01 -3.915690845069216e-01 2.847888907817438e-01 1.045436568275922e-01 7.172549108238614e-02 2.921653251771028e-02 6.893721054701023e-02 2.200299054984624e-02
            2.848498402361073e-01 1.045368373732072e-01 2.304281263258942e-01 -3.915367836537413e-01 6.894144328787154e-02 2.195024023432164e-02 7.183680706983976e-02 2.915915134524789e-02
398102500.0000000000 9.104294240971396e-02 2.482528385653937e-02 9.111329048616360e-02 2.923454700095831e-02 7.992700715267657e-02 -4.469718318419761e-01 2.990168838353042e-01 9.458732234710260e-04
            9.111907836482550e-02 2.929541657732084e-02 9.106535431603206e-02 2.475580857948710e-02 2.990077583473554e-01 9.927949021184719e-04 7.982054314202135e-02 -4.469561158335315e-01
            7.988305059757596e-02 -4.470529499915062e-01 2.990177882520239e-01 9.745936872436558e-04 9.277243133334001e-02 3.431012043204360e-02 8.955519574081248e-02 2.661121771736646e-02
            2.990189823748969e-01 9.693050062573753e-04 7.988962262337353e-02 -4.469697617742078e-01 8.960145563247013e-02 2.649508199544020e-02 9.285445956946170e-02 3.432575257517180e-02
398935000.0000000000 1.086138950289715e-01 1.529938593095552e-02 1.096665836908181e-01 1.686397615387221e-02 -7.894708641521554e-02 -4.462416785121054e-01 2.788088203087841e-01 -9.936306095852653e-02
            1.097434099326186e-01 1.683345539594774e-02 1.086497946041995e-01 1.527423534167923e-02 2.788143192524478e-01 -9.928941240472035e-02 -7.902840936953283e-02 -4.463255021580934e-01
            -7.892988873187595e-02 -4.462425696439031e-01 2.788767877048068e-01 -9.943043976541992e-02 1.117306614032796e-01 2.503497311217152e-02 1.078137266809588e-01 1.639816492069330e-02
            2.788625254174927e-01 -9.937486413408063e-02 -7.897534393129015e-02 -4.461976194877464e-01 1.078724315598654e-01 1.641672002582940e-02 1.117330269268913e-01 2.503649124952691e-02
399767500.0000000000 1.154628301977799e-01 -3.088365012315959e-03 1.158022002595809e-01 -4.988745440241822e-03 -2.264012028522480e-01 -3.920104330957525e-01 2.274188602721814e-01 -1.871385258742701e-01
            1.159405654548688e-01 -4.977842334804782e-03 1.153935971183819e-01 -3.084941488615848e-03 2.273208880931376e-01 -1.872156953698005e-01 -2.264544191667218e-01 -3.921207694862620e-01
            -2.265062995655074e-01 -3.920669058939949e-01 2.274065332831277e-01 -1.872128942583002e-01 1.200621085394551e-01 6.502422799743431e-03 1.152055176868808e-01 -3.176635242441597e-03
            2.274087049011345e-01 -1.871371948986658e-01 -2.264229351852523e-01 -3.921112507458157e-01 1.151688504702799e-01 -3.145667873137073e-03 1.200864754340670e-01 6.477248333234282e-03
400600000.0000000000 1.085333718425102e-01 -2.155146059772300e-02 1.065000676121264e-01 -2.611473756960771e-02 -3.469087400365429e-01 -2.922708389532750e-01 1.490854120760924e-01 -2.533348792373870e-01
            1.064567670822825e-01 -2.615740644167465e-02 1.085143236235168e-01 -2.158625109768969e-02 1.490840034594712e-01 -2.533255368859886e-01 -3.469674951744652e-01 -2.922168376190810e-01
            -3.469639456851196e-01 -2.922689366077370e-01 1.491417618228391e-01 -2.533160334809947e-01 1.148330724449814e-01 -1.252509819458451e-02 1.081959299936156e-01 -2.309990299240230e-02
            1.491086870275427e-01 -2.533635553904254e-01 -3.469640301756259e-01 -2.923332048281461e-01 1.081160076032607e-01 -2.308100329632809e-02 1.149490255386151e-01 -1.258554206838965e-02
401432500.0000000000 9.088967410584403e-02 -3.119601467463389e-02 8.512844221415500e-02 -3.690028745889296e-02 -4.279823107152953e-01 -1.575250900113719e-01 5.148472248857608e-02 -2.888753024272387e-01
            8.515714602559310e-02 -3.691914224454372e-02 9.082969376498548e-02 -3.110808954884627e-02 5.149341718076313e-02 -2.888526627684528e-01 -4.279492501664940e-01 -1.575159532551627e-01
            -4.280456576676980e-01 -1.574492603034474e-01 5.147786403554824e-02 -2.888794811933834e-01 9.897573213651251e-02 -2.325200369040896e-02 8.979578995494555e-02 -3.386109725279212e-02
            5.152935755168012e-02 -2.888922228348488e-01 -4.280158844649781e-01 -1.574114430292498e-01 8.978894799416226e-02 -3.394062989129564e-02 9.898662638401096e-02 -2.323329832136564e-02
402265000.0000000000 7.090254954788597e-02 -2.650934987731545e-02 6.106968167584951e-02 -3.156777687459496e-02 -4.594165798341429e-01 -1.032145958402535e-03 -5.312019515991440e-02 -2.870213622994554e-01
            6.109639648186951e-02 -3.159388066204747e-02 7.082567314048703e-02 -2.649064835550721e-02 -5.313059433745317e-02 -2.871039632905067e-01 -4.595339688409010e-01 -1.061200144544191e-03
            -4.593505471294652e-01 -9.422719944112240e-04 -5.311210820060254e-02 -2.870140509837970e-01 8.040671334022889e-02 -2.050319050134682e-02 6.850194609618311e-02 -3.033276287941107e-02
            -5.315979080527972e-02 -2.870597248423458e-01 -4.594548282351955e-01 -9.736014357569595e-04 6.850551055703795e-02 -3.028285103242963e-02 8.042886726342965e-02 -2.055924809295035e-02
403097500.0000000000 5.838016745757984e-02 -9.387901203789793e-03 4.565228435595968e-02 -1.196188741760459e-02 -4.344677804056114e-01 1.593211582586010e-01 -1.493446722847314e-01 -2.471739978884354e-01
            4.570083277467969e-02 -1.189889332756081e-02 5.849432606848319e-02 -9.399012705682625e-03 -1.494011693498089e-01 -2.471737403349878e-01 -4.344481909235653e-01 1.592611255960690e-01
            -4.344463508313401e-01 1.592611623926387e-01 -1.493609158434051e-01 -2.471897247708541e-01 6.895338898198619e-02 -5.849132513831787e-03 5.477714390100116e-02 -1.371684342796062e-02
            -1.494131053728479e-01 -2.471433389455167e-01 -4.345007054788826e-01 1.592515068268915e-01 5.483326813084002e-02 -1.364218083258272e-02 6.894560141146490e-02 -5.909119399411745e-03
403930000.0000000000 6.065127151462033e-02 1.200665643778248e-02 4.648623217112166e-02 1.306248502700656e-02 -3.532484677882065e-01 3.022326970816082e-01 -2.229183769572087e-01 -1.765316083681765e-01
            4.656398103359220e-02 1.303993090823776e-02 6.060778664657810e-02 1.198402445575208e-02 -2.229023124917488e-01 -1.765452886213331e-01 -3.533240817060400e-01 3.022085696215505e-01
            -3.532817226149206e-01 3.022350602057753e-01 -2.229942787093505e-01 -1.765452093131192e-01 7.100853646569001e-02 1.265749581073905e-02 5.557535551751178e-02 7.790797702337725e-03
            -2.229170563265549e-01 -1.764875121864341e-01 -3.533024486791720e-01 3.021540934392464e-01 5.555104370409316e-02 7.806500572878662e-03 7.103699111981684e-02 1.269334280178708e-02
404762500.0000000000 7.632000708896836e-02 2.661326946985581e-02 6.281652533808565e-02 3.131576311640632e-02 -2.258840806624733e-01 4.068725503648065e-01 -2.656194340635936e-01 -8.732481881875932e-02
            6.280278211840734e-02 3.133428653044303e-02 7.635873044147548e-02 2.673808547719362e-02 -2.655797625308298e-01 -8.731525532760757e-02 -2.259938037492776e-01 4.068670358333177e-01
            -2.259337499261215e-01 4.069042794837470e-01 -2.656105425584734e-01 -8.724441530234300e-02 8.578339716511268e-02 2.463780682979446e-02 7.025221878393108e-02 2.288466088176939e-02
            -2.655045207107594e-01 -8.725097324092607e-02 -2.259475013747105e-01 4.068824254870586e-01 7.024471668728302e-02 2.288482726363326e-02 8.575400488676538e-02 2.471828673774146e-02
405595000.0000000000 9.771320912125679e-02 2.759927617991485e-02 8.614646073193641e-02 3.486856083480119e-02 -7.066885278136861e-02 4.593700959714859e-01 -2.753635377691965e-01 8.061024961072555e-03
            8.617206359482782e-02 3.488391718361568e-02 9.769969175860690e-02 2.757309156523690e-02 -2.752514147764215e-01 8.063046620052066e-03 -7.063376572448249e-02 4.593838012755997e-01
            -7.065869869459443e-02 4.593197865748591e-01 -2.752788344562216e-01 8.112680368080832e-03 1.052593008253891e-01 2.352179869455185e-02 9.090581807581556e-02 2.446779119540818e-02
            -2.753126825024909e-01 8.118834113426059e-03 -7.066210625254488e-02 4.593465662260552e-01 9.091307810503231e-02 2.442294144317762e-02 1.052229582417499e-01 2.349870036466324e-02
406427500.0000000000 1.144656689033156e-01 1.479635659400003e-02 1.055850697455187e-01 2.316185718610832e-02 9.138696775166147e-02 4.546256628848550e-01 -2.539188974757303e-01 9.974331823323082e-02
            1.055359956368979e-01 2.309423869348500e-02 1.144477254676028e-01 1.483495349734687e-02 -2.538564597649600e-01 9.972089612819086e-02 9.138320026658152e-02 4.546510552354985e-01
            9.139337341137417e-02 4.546140677807475e-01 -2.538909704212399e-01 9.972924669965032e-02 1.194742579442891e-01 9.367466873327171e-03 1.072447117256859e-01 1.200962331503192e-02
            -2.539541498173403e-01 9.977827041469249e-02 9.136877386421471e-02 4.547414184783911e-01 1.072923281887582e-01 1.197772792858482e-02 1.195112046987787e-01 9.398815014270681e-03
407260000.0000000000 1.192786428137404e-01 -5.498772333069127e-03 1.128535604342505e-01 2.428636244151661e-03 2.407966851092238e-01 3.959667075601996e-01 -2.039345271344704e-01 1.793481959901982e-01
            1.127498626273289e-01 2.441409199721270e-03 1.193556571317594e-01 -5.499588843952549e-03 -2.039122361565242e-01 1.793781801058553e-01 2.409014683844538e-01 3.959298422320958e-01
            2.408896959795725e-01 3.959882059081823e-01 -2.039658917965466e-01 1.793476420341292e-01 1.215431336503254e-01 -1.119625788487795e-02 1.116443971986415e-01 -8.217348932886420e-03
            -2.039783209994131e-01 1.793867717447850e-01 2.408673203630464e-01 3.960110981879642e-01 1.116566777113225e-01 -8.168542041567342e-03 1.216503980683819e-01 -1.122066862832024e-02
408092500.0000000000 1.103252165080856e-01 -2.411664931267354e-02 1.050433624865298e-01 -1.742938469493920e-02 3.619872833321609e-01 2.912625673354649e-01 -1.295106827713639e-01 2.381476777291872e-01
            1.050629336415344e-01 -1.744411123199596e-02 1.103360828342662e-01 -2.421191404967731e-02 -1.295885504240643e-01 2.382022510890249e-01 3.619628745471461e-01 2.912013400939396e-01
            3.620241967835700e-01 2.911375709381764e-01 -1.295437871646033e-01 2.382247495990439e-01 1.100545279955334e-01 -2.918111433074275e-02 1.020604499199921e-01 -2.680299530024307e-02
            -1.295960265868180e-01 2.382309777204457e-01 3.620102889499503e-01 2.912247746087869e-01 1.019562110448463e-01 -2.679510528666381e-02 1.100746108623147e-01 -2.917446171100372e-02
408925000.0000000000 9.161400543215112e-02 -3.288808373019463e-02 8.643209342340623e-02 -2.740830291346154e-02 4.419590548133290e-01 1.511524491995951e-01 -3.818711395139003e-02 2.678397018242379e-01
            8.645668497415929e-02 -2.740432375434354e-02 9.164828030048160e-02 -3.285500262342401e-02 -3.809946538089336e-02 2.677761807236718e-01 4.419171854048144e-01 1.511473634433340e-01
            4.418657847186250e-01 1.511213680699124e-01 -3.810760972008824e-02 2.678901771843124e-01 8.924164966557208e-02 -3.615399781324235e-02 8.225252395708336e-02 -3.519602442070070e-02
            -3.810246189238660e-02 2.678888442599593e-01 4.419741414999827e-01 1.511172157136962e-01 8.230674614931746e-02 -3.529416980130638e-02 8.932139656098173e-02 -3.617061466047784e-02
409757500.0000000000 7.182692582015070e-02 -2.756286489859845e-02 6.603108145333655e-02 -2.246905656816726e-02 4.702844444373453e-01 -9.951617467810104e-03 5.851261756540912e-02 2.624041452547285e-01
            6.599616171402493e-02 -2.254892294725355e-02 7.181926791331998e-02 -2.759588731799216e-02 5.849942189245396e-02 2.623165900958276e-01 4.702215724022871e-01 -1.001489103497860e-02
            4.702298207227673e-01 -1.001648996616266e-02 5.851028475509925e-02 2.624013367107718e-01 6.839100026621285e-02 -2.852676094952606e-02 6.137369109521901e-02 -2.895780539602356e-02
            5.851942660754083e-02 2.623922169162529e-01 4.702961095624947e-01 -9.997313440757310e-03 6.129725748658937e-02 -2.895834838554053e-02 6.840763970918287e-02 -2.848805319213816e-02
410590000.0000000000 6.057778596260131e-02 -1.082332589568204e-02 5.409883060406435e-02 -5.274490569821112e-03 4.405335369640201e-01 -1.735224427594688e-01 1.455411623253653e-01 2.220876594273457e-01
            5.410373243036255e-02 -5.157055297743910e-03 6.060159668231725e-02 -1.086187361448255e-02 1.456249109331527e-01 2.220401589070328e-01 4.405078354660625e-01 -1.735143912583006e-01
            4.404688197139272e-01 -1.735568423985306e-01 1.456304891946778e-01 2.220310266884008e-01 5.728438192356215e-02 -9.234291542584403e-03 4.937161680067330e-02 -1.069180486028819e-02
            1.456547936895301e-01 2.220616828611607e-01 4.404781428461291e-01 -1.735379473368985e-01 4.932740478382561e-02 -1.066751536241484e-02 5.735643331783412e-02 -9.232649079208462e-03
411422500.0000000000 6.330555232817085e-02 8.463510616374778e-03 5.683979829444484e-02 1.549115042480786e-02 3.537953116048375e-01 -3.173670545242763e-01 2.105804027339266e-01 1.543738431861825e-01
            5.680519619422659e-02 1.544647112023553e-02 6.317882161426225e-02 8.482142326806675e-03 2.106767967171208e-01 1.543243174982850e-01 3.538207198010415e-01 -3.174126545065523e-01
            3.537679481131318e-01 -3.174034521258954e-01 2.106063178113567e-01 1.544327666794950e-01 6.131389412811349e-02 1.230965203871916e-02 5.205914556133936e-02 1.040517713822315e-02
            2.105771372323268e-01 1.543672104494373e-01 3.537914689686756e-01 -3.172989447681887e-01 5.201680274834381e-02 1.044642500174905e-02 6.126988463544551e-02 1.231773880780233e-02
412255000.0000000000 7.772385820881911e-02 2.047861918655087e-02 7.242774604487040e-02 2.905306348924039e-02 2.212476318936230e-01 -4.210734743195350e-01 2.464457791192902e-01 7.102546292984613e-02
            7.242284667787183e-02 2.899762930815069e-02 7.770464379605839e-02 2.048894269703295e-02 2.464645189930162e-01 7.093799200055309e-02 2.212571702654334e-01 -4.211342509232813e-01
            2.212718314290583e-01 -4.210494404369772e-01 2.464599052555812e-01 7.099364827610866e-02 7.800383673273115e-02 2.553093345362365e-02 6.736754394174228e-02 2.392968865690367e-02
            2.465226203400392e-01 7.099623958759547e-02 2.212476839479789e-01 -4.210478639948488e-01 6.733669969434757e-02 2.400086087848926e-02 7.797708482464008e-02 2.541012825249864e-02
413087500.0000000000 9.572811032499697e-02 1.933564166306351e-02 9.270457983844091e-02 2.884277002898653e-02 6.173496386832988e-02 -4.710121951237094e-01 2.521568997988743e-01 -1.700438982690454e-02
            9.276812017192392e-02 2.879329142120953e-02 9.579407227700869e-02 1.943580748113884e-02 2.521231141354450e-01 -1.700077158963395e-02 6.178966081512454e-02 -4.709971692187736e-01
            6.179329610753195e-02 -4.709845819344743e-01 2.521458598751495e-01 -1.701861348264505e-02 9.844209617643969e-02 2.450568753836354e-02 8.675947433277474e-02 2.388681254130075e-02
            2.521697099609665e-01 -1.693375729344281e-02 6.179609157622516e-02 -4.709686122531229e-01 8.672645640273928e-02 2.384486388010907e-02 9.842432919363706e-02 2.443966413038579e-02
413920000.0000000000 1.077763852144064e-01 6.699454107328599e-03 1.076267686308850e-01 1.563265915125386e-02 -1.036427787625063e-01 -4.628284410005500e-01 2.291583044516896e-01 -1.005460868590084e-01
            1.076747438503993e-01 1.566158632823385e-02 1.077904430861124e-01 6.664342518531386e-03 2.291873737984928e-01 -1.005291161642700e-01 -1.036136731130742e-01 -4.628999568371914e-01
            -1.036290487262228e-01 -4.628952684413430e-01 2.291391751219091e-01 -1.005537972031534e-01 1.127216310785995e-01 1.073633493836420e-02 1.003489279733743e-01 1.111436229000246e-02
            2.292198582760547e-01 -1.005575776481605e-01 -1.036180013468325e-01 -4.629130015681726e-01 1.003094562658998e-01 1.114174825993227e-02 1.127740572639228e-01 1.068040823178207e-02
414752500.0000000000 1.079915263001683e-01 -1.073596181748125e-02 1.102347161983949e-01 -3.750408545357018e-03 -2.555256795187086e-01 -3.998446494438568e-01 1.800052035827974e-01 -1.719044983861473e-01
            1.102742338422656e-01 -3.743691101557317e-03 1.079931879060099e-01 -1.079549097932169e-02 1.799959513650692e-01 -1.719529396514162e-01 -2.555664581163110e-01 -3.997762575282970e-01
            -2.555410205723065e-01 -3.997868229283062e-01 1.799595462955543e-01 -1.719492944265210e-01 1.143571417411002e-01 -8.757266951570059e-03 1.014390439137020e-01 -6.977606862876246e-03
            1.800250953091700e-01 -1.718989780641343e-01 -2.555675281570600e-01 -3.997956322901657e-01 1.014691592635258e-01 -7.092645017865221e-03 1.143421444728035e-01 -8.729225942281432e-03
415585000.0000000000 9.588132831760197e-02 -2.397305173789780e-02 9.961358098146718e-02 -1.994474569750751e-02 -3.778528459317335e-01 -2.894991473704504e-01 1.088753986638648e-01 -2.229171771572594e-01
            9.965266494276021e-02 -2.000154586386714e-02 9.593004391239994e-02 -2.402476936871860e-02 1.088306802463907e-01 -2.229122398671985e-01 -3.777679773375992e-01 -2.895445375611028e-01
            -3.778424686277050e-01 -2.895613898606339e-01 1.089177520409502e-01 -2.228083853860107e-01 1.028384615513585e-01 -2.433216879479087e-02 8.972777132271761e-02 -2.139842832493975e-02
            1.088555855585273e-01 -2.228543401048980e-01 -3.778839134313100e-01 -2.895215616765522e-01 8.966095315836882e-02 -2.140083362844632e-02 1.028258644104288e-01 -2.431937466938376e-02
416417500.0000000000 7.743443886979837e-02 -2.572600921595872e-02 8.078136061260623e-02 -2.521327860836387e-02 -4.566302031057823e-01 -1.433291885788628e-01 2.343359954953898e-02 -2.454900984477486e-01
            8.080095899846733e-02 -2.513755657415444e-02 7.740697177026724e-02 -2.571318033328684e-02 2.352472958015510e-02 -2.454596141027297e-01 -4.566316109220613e-01 -1.433516049075525e-01
            -4.566456457026816e-01 -1.432670506155246e-01 2.350529561628372e-02 -2.454832094502321e-01 8.362007249007904e-02 -2.845438995350809e-02 7.032280327428876e-02 -2.395030907659653e-02
            2.348101806124735e-02 -2.454875205966685e-01 -4.566426329227641e-01 -1.433167426767058e-01 7.034098823756110e-02 -2.393254559614429e-02 8.351344777057228e-02 -2.847607781978229e-02
417250000.0000000000 6.158388046087251e-02 -1.399449479872365e-02 6.326037005087590e-02 -1.618249654542616e-02 -4.809445781851897e-01 2.337810560579147e-02 -6.419854090780269e-02 -2.353373813505357e-01
            6.331439432560280e-02 -1.626605232123414e-02 6.162357580676799e-02 -1.388610870323532e-02 -6.416893614195435e-02 -2.353464667851460e-01 -4.808226007300045e-01 2.336354163112065e-02
            -4.809091826942120e-01 2.334140653121245e-02 -6.412051802640760e-02 -2.353456207024062e-01 6.622929670902333e-02 -1.835691768036121e-02 5.314580112125967e-02 -1.225935601368377e-02
            -6.412946559580282e-02 -2.353060493402546e-01 -4.809677377981140e-01 2.341558302094828e-02 5.306391741019607e-02 -1.219904586598580e-02 6.629618439165638e-02 -1.838959238220772e-02
418082500.0000000000 5.739511599922616e-02 6.361097883815558e-03 5.626478824401501e-02 2.336001992333461e-03 -4.447504338684864e-01 1.901148357500233e-01 -1.405897784178045e-01 -1.943049713148013e-01
            5.632247806247243e-02 2.345738599352114e-03 5.752301371684553e-02 6.260908116918527e-03 -1.405327786830618e-01 -1.943625741404547e-01 -4.448230319182773e-01 1.900583330542727e-01
            -4.447643592750091e-01 1.900896064108008e-01 -1.405566774376422e-01 -1.942522503539493e-01 5.993079815310914e-02 9.523898219843699e-04 4.739594826691496e-02 9.134012496971470e-03
            -1.405902978853732e-01 -1.943169690997406e-01 -4.446980127671643e-01 1.900852113384893e-01 4.747448343956000e-02 9.141584478931000e-03 5.991465557272253e-02 9.921208789828643e-04
418915000.0000000000 6.801974387767444e-02 2.494553154810352e-02 6.387133312435661e-02 2.085437045185557e-02 -3.509225477144688e-01 3.337670709875681e-01 -1.953022539484529e-01 -1.306334967621210e-01
            6.387192224721830e-02 2.076890655859957e-02 6.807604712917684e-02 2.491644387028710e-02 -1.953136441022437e-01 -1.306645729671425e-01 -3.510775516268680e-01 3.337035151532056e-01
            -3.510060409714638e-01 3.337297743417499e-01 -1.952750850012486e-01 -1.306977338457716e-01 6.834726449404131e-02 1.994435039488784e-02 5.720345328204391e-02 2.997738954749067e-02
            -1.952524109551803e-01 -1.306433537166557e-01 -3.509181141558587e-01 3.337563487915476e-01 5.718915284488452e-02 2.993592481554021e-02 6.834679468534201e-02 1.989607221315836e-02
419747500.0000000000 8.864500698251571e-02 3.234788839995938e-02 8.187651732443579e-02 2.956013994846648e-02 -2.128053169280526e-01 4.342200115143379e-01 -2.237408913198059e-01 -5.515534501278763e-02
            8.189538408659430e-02 2.955413144679661e-02 8.869081574083686e-02 3.225892903584296e-02 -2.237426816703127e-01 -5.513764621755092e-02 -2.128563346546470e-01 4.342800896511202e-01
            -2.128350206032555e-01 4.342229281027344e-01 -2.237236049739292e-01 -5.508729328388410e-02 8.727472214648638e-02 2.860591790459568e-02 7.803087598067407e-02 4.011801067842458e-02
            -2.237758165492094e-01 -5.507618457369892e-02 -2.127908898730428e-01 4.342244384937662e-01 7.804977249879004e-02 4.012114395956701e-02 8.736096747313421e-02 2.852635224977139e-02
420580000.0000000000 1.094585862826711e-01 2.471099080832567e-02 1.011581149401246e-01 2.426029375199218e-02 -4.990136742933600e-02 4.795942448647757e-01 -2.259611345036159e-01 2.329096611853174e-02
            1.010901434422702e-01 2.418041709245302e-02 1.094776591331057e-01 2.470469548903455e-02 -2.258625018246531e-01 2.324801468955782e-02 -4.992600309482833e-02 4.796938621157328e-01
            -4.987813325056197e-02 4.796250516067520e-01 -2.258948555142723e-01 2.327100433133868e-02 1.073088595301197e-01 2.295325448353612e-02 1.004713770804599e-01 3.536251545251734e-02
            -2.259376320443739e-01 2.329924333485138e-02 -4.997366031995535e-02 4.796563088980516e-01 1.005806957856233e-01 3.539161371148403e-02 1.073122172098617e-01 2.296044704283140e-02
421412500.0000000000 1.210618690213379e-01 5.510757021827429e-03 1.124456301317498e-01 7.512802184676502e-03 1.169470514936609e-01 4.668255537833828e-01 -2.031453690486414e-01 9.739507513159114e-02
            1.124333012969017e-01 7.479849474800199e-03 1.210553521927990e-01 5.559296596645790e-03 -2.032203697258725e-01 9.734612489370396e-02 1.169077779243117e-01 4.668319813428103e-01
            1.168587400399097e-01 4.668853965973381e-01 -2.032107767967465e-01 9.736559956183855e-02 1.190881750061735e-01 5.919971574208253e-03 1.151189174263442e-01 1.851119550711749e-02
            -2.031933620516871e-01 9.738919995199660e-02 1.169255675643713e-01 4.667603520507215e-01 1.150662542791115e-01 1.853197462147975e-02 1.191359578716832e-01 5.933354615969602e-03
422245000.0000000000 1.180515182803246e-01 -1.696783293120528e-02 1.102916552760483e-01 -1.283655099546306e-02 2.688989148980900e-01 3.994191919928570e-01 -1.572009780122057e-01 1.604949366317835e-01
            1.103074333554823e-01 -1.280511629573655e-02 1.180915841067868e-01 -1.696273226496943e-02 -1.572131150541743e-01 1.605641577750961e-01 2.688348548359211e-01 3.993778689402425e-01
            2.687738996801611e-01 3.993604065610212e-01 -1.572741731479860e-01 1.604148592389371e-01 1.175802177945804e-01 -1.472162268530221e-02 1.159241833723887e-01 -2.821781186557312e-03
            -1.571746653974245e-01 1.604322513138368e-01 2.688125524514119e-01 3.994342793477397e-01 1.160080534711525e-01 -2.872042816935530e-03 1.175821040056760e-01 -1.477331109436983e-02
423077500.0000000000 1.013458391338031e-01 -3.293991371151424e-02 9.536638164161594e-02 -2.740451031587054e-02 3.900681803214063e-01 2.850553218153558e-01 -9.139712714093674e-02 2.047614374359997e-01
            9.543628483022876e-02 -2.729277445114017e-02 1.014898735541862e-01 -3.294259998616181e-02 -9.145367586112911e-02 2.048022490698982e-01 3.900634853217487e-01 2.850361515447902e-01
            3.902071518977909e-01 2.850503602973012e-01 -9.135541526566321e-02 2.047989811823394e-01 1.034628704734847e-01 -2.978456147990826e-02 1.040343201440777e-01 -1.930071424322194e-02
            -9.138122845082705e-02 2.048256157870035e-01 3.900758748983634e-01 2.849435583603003e-01 1.039949695589842e-01 -1.932444306339656e-02 1.034002941578867e-01 -2.978881799606676e-02
423910000.0000000000 7.804616683282481e-02 -3.521627571587052e-02 7.405151696494404e-02 -2.901151755006707e-02 4.669276430537063e-01 1.350809901614330e-01 -1.308292036032647e-02 2.227541890667447e-01
            7.396494798401020e-02 -2.894158141562168e-02 7.796368029374748e-02 -3.520955271182221e-02 -1.306447213701472e-02 2.226768252124187e-01 4.668328881910974e-01 1.349452849161465e-01
            4.668000169120438e-01 1.350113939294050e-01 -1.296604997230042e-02 2.226722426936520e-01 8.290772498605020e-02 -3.236340776294658e-02 8.498665004595189e-02 -2.355011852118472e-02
            -1.304039355038073e-02 2.226670412406704e-01 4.668279888702906e-01 1.350312199124022e-01 8.495364322603012e-02 -2.355238691057584e-02 8.286386607881444e-02 -3.245066044209057e-02
424742500.0000000000 5.811431053383917e-02 -2.196724793669774e-02 5.617992119178808e-02 -1.605220378886630e-02 4.877389314146017e-01 -3.472138498674057e-02 6.632204796144570e-02 2.102981970708330e-01
            5.630657846682149e-02 -1.606127883684402e-02 5.808995876781393e-02 -2.199360844109977e-02 6.627655643061618e-02 2.102519962148872e-01 4.877511651756531e-01 -3.477280156267915e-02
            4.877715287992168e-01 -3.477969664334085e-02 6.636587824181270e-02 2.102506020338442e-01 6.577973620262118e-02 -2.132216278069966e-02 6.885353836268618e-02 -1.415301925307541e-02
            6.636765209254085e-02 2.102163842316210e-01 4.878131848856078e-01 -3.472852499011079e-02 6.880880654348533e-02 -1.402049337584052e-02 6.576738464609438e-02 -2.117461817747772e-02
425575000.0000000000 5.108517470056031e-02 7.249974324331621e-04 5.112757939708525e-02 5.682427454440689e-03 4.472039952712811e-01 -2.031045556783994e-01 1.339965780727486e-01 1.699570097733731e-01
            5.110166188640632e-02 5.631394706269859e-03 5.107908424159767e-02 7.900303035497867e-04 1.339186809081669e-01 1.700304144040983e-01 4.471980996033124e-01 -2.031516641623655e-01
            4.472220202898365e-01 -2.031130032289422e-01 1.340004303449104e-01 1.699586803665430e-01 6.036104927634504e-02 -1.968017458102955e-03 6.417656941078545e-02 3.585821368823103e-03
            1.340527615736898e-01 1.700260767542839e-01 4.471626941062879e-01 -2.031121186388197e-01 6.422637060951696e-02 3.677331102337279e-03 6.031870076794813e-02 -1.842182010339971e-03
426407500.0000000000 5.987123091470745e-02 2.226163653907280e-02 6.144069318129022e-02 2.553466913220465e-02 3.487747841720653e-01 -3.467509518271679e-01 1.807147316598354e-01 1.101027862846392e-01
            6.139054014499433e-02 2.547788542942557e-02 5.987691140469249e-02 2.225618699640552e-02 1.807694557985904e-01 1.101702202940715e-01 3.488184911207484e-01 -3.466996362424919e-01
            3.487774686446061e-01 -3.467238944382428e-01 1.807902638010221e-01 1.101394355309870e-01 6.914091832284934e-02 1.549824239719118e-02 7.359135177831375e-02 1.943008286638243e-02
            1.807616664920621e-01 1.101691436434912e-01 3.487421446137716e-01 -3.467368431384570e-01 7.355487600500726e-02 1.943128791008948e-02 6.912479051855014e-02 1.556187104191595e-02
427240000.0000000000 7.951293192656225e-02 3.278850179257759e-02 8.176363589601743e-02 3.386644597541526e-02 2.063849680168165e-01 -4.456614919883194e-01 2.032398670221539e-01 4.078742570892932e-02
            8.182568899496728e-02 3.389139269397229e-02 7.948655772835209e-02 3.279839960361910e-02 2.032204266392112e-01 4.073935280664594e-02 2.063642033263758e-01 -4.456205842364909e-01
            2.064428409324138e-01 -4.456203722033482e-01 2.032772360767360e-01 4.082480730709140e-02 8.680473296231965e-02 2.220140747518883e-02 9.180951172380750e-02 2.414643524185387e-02
            2.031999579949353e-01 4.084640826502555e-02 2.063990582934214e-01 -4.455847134290365e-01 9.180625873181761e-02 2.419241385482931e-02 8.680950621816154e-02 2.215399575471760e-02
428072500.0000000000 1.000220591452264e-01 2.865272542779721e-02 1.023349400785202e-01 2.724912757101179e-02 4.012944924349791e-02 -4.881849053108644e-01 2.019034561886583e-01 -2.980418563859185e-02
            1.023483444361415e-01 2.723596625825027e-02 9.995436352648933e-02 2.861050368782114e-02 2.019479327496392e-01 -2.986007740217162e-02 4.013360680662283e-02 -4.881873547181420e-01
            4.009232163173908e-02 -4.881857289140268e-01 2.018900956149942e-01 -2.981812741308638e-02 1.038268651832301e-01 1.524941301938588e-02 1.092084249307831e-01 1.508197515466274e-02
            2.019215417877832e-01 -2.985458981085485e-02 4.009698453020451e-02 -4.881840649755425e-01 1.091478487815722e-01 1.502398925830174e-02 1.037997513447877e-01 1.521298806599827e-02
428905000.0000000000 1.121973409040403e-01 1.332329169372303e-02 1.136095450813982e-01 9.400876321918612e-03 -1.290056091420593e-01 -4.718056735133994e-01 1.783977848381741e-01 -9.567958491758390e-02
            1.136093955179799e-01 9.476196812841071e-03 1.122205642819540e-01 1.330353092114388e-02 1.783204708004874e-01 -9.567761319696057e-02 -1.289911890381864e-01 -4.717484127481099e-01
            -1.289802390823062e-01 -4.718149364367402e-01 1.782855982226865e-01 -9.564907127460501e-02 1.117431524678671e-01 -1.242971348286516e-03 1.166350487154751e-01 -4.096989370732087e-03
            1.782719975321199e-01 -9.562960491267809e-02 -1.290175362823421e-01 -4.717105277949663e-01 1.166494472121638e-01 -3.937842814591041e-03 1.116176333986091e-01 -1.159874397312181e-03
429737500.0000000000 1.115013227700044e-01 -5.135197115047603e-03 1.108674150559187e-01 -1.121779099307454e-02 -2.823209756092150e-01 -3.999261715785029e-01 1.339721369683120e-01 -1.504420873567852e-01
            1.109104117434686e-01 -1.116389550743796e-02 1.115053531753466e-01 -5.095329915260118e-03 1.339787117816392e-01 -1.505717034706597e-01 -2.823110444085929e-01 -3.999714556223388e-01
            -2.822902070372081e-01 -4.000293107407443e-01 1.340041649406563e-01 -1.505043856782076e-01 1.064214852135567e-01 -1.890479291966619e-02 1.102191182791703e-01 -2.440306427756857e-02
            1.340616172977886e-01 -1.504842971602433e-01 -2.823561157159675e-01 -3.999641292852247e-01 1.101975764786369e-01 -2.443793686574820e-02 1.064054666628814e-01 -1.888718100092445e-02
430570000.0000000000 9.906084176408843e-02 -1.771973633364297e-02 9.561486693472060e-02 -2.489132251691576e-02 -4.034226446957162e-01 -2.806553338310550e-01 7.254925019463705e-02 -1.871573382745335e-01
            9.556859261024259e-02 -2.486157416922586e-02 9.918066565304628e-02 -1.777160757332077e-02 7.251867887082271e-02 -1.871795723347811e-01 -4.033655267041585e-01 -2.806400295723127e-01
            -4.034571233988792e-01 -2.806097874783977e-01 7.248251478747479e-02 -1.871378038081060e-01 9.020074702839291e-02 -2.894847200667247e-02 9.186107255088624e-02 -3.687960306486843e-02
            7.252699669237139e-02 -1.871957336499696e-01 -4.034261012823088e-01 -2.805914197261660e-01 9.169747076006132e-02 -3.687376791306894e-02 9.018440733529114e-02 -2.894928698445446e-02
431402500.0000000000 8.176746045953794e-02 -1.830272462381909e-02 7.490958844531488e-02 -2.521045474540982e-02 -4.778508038833909e-01 -1.256647681594077e-01 1.131459730279978e-03 -1.990177372894645e-01
            7.494493920277838e-02 -2.532875581848021e-02 8.175599651948691e-02 -1.834796980289086e-02 1.215122071617154e-03 -1.989565829740078e-01 -4.779143288765397e-01 -1.256411463334411e-01
            -4.779179801634553e-01 -1.256431316071190e-01 1.221043916212053e-03 -1.990706618571174e-01 7.049055565267202e-02 -2.570651034774990e-02 6.896416019932887e-02 -3.515960914546933e-02
            1.203409458151634e-03 -1.990086047977612e-01 -4.779196905266896e-01 -1.257172779987562e-01 6.897450271044110e-02 -3.521237796849393e-02 7.052436610153144e-02 -2.559459186273910e-02
432235000.0000000000 6.877399937118166e-02 -6.463477809670587e-03 5.900252195687661e-02 -1.164613958752905e-02 -4.943904816880141e-01 4.782660618015960e-02 -6.880070563429982e-02 -1.833690246638976e-01
            5.908543102068869e-02 -1.165562561401283e-02 6.882050189854995e-02 -6.489023372466512e-03 -6.881060702438840e-02 -1.834666920345578e-01 -4.943882381672969e-01 4.786024160174511e-02
            -4.943809627210668e-01 4.780140706118977e-02 -6.888878151638889e-02 -1.833893944670225e-01 5.729464171073508e-02 -9.338087906644843e-03 5.227972543498571e-02 -1.939645983362734e-02
            -6.889604610152653e-02 -1.833843346726677e-01 -4.943124806181495e-01 4.781503827046130e-02 5.236330640426608e-02 -1.934728721833296e-02 5.726883512839127e-02 -9.422666428987500e-03
433067500.0000000000 6.783539694474933e-02 1.148910984543923e-02 5.621024969609908e-02 9.223258207892547e-03 -4.480817247023640e-01 2.176906506991028e-01 -1.263439685626566e-01 -1.438973188641975e-01
            5.624460861232825e-02 9.344553946384435e-03 6.776294911303168e-02 1.148385369892235e-02 -1.263986130499910e-01 -1.438540139584315e-01 -4.481159760023466e-01 2.176127938400942e-01
            -4.480617002725878e-01 2.176668667307569e-01 -1.263588454807048e-01 -1.438719846364756e-01 5.807149512953418e-02 1.225057160594113e-02 4.966773000416495e-02 3.102712737337712e-03
            -1.263287581743879e-01 -1.438767434488927e-01 -4.480831414055926e-01 2.176501848812297e-01 4.973370802941111e-02 3.112843984160185e-03 5.815094403478131e-02 1.235282665989368e-02
433900000.0000000000 7.978914159023086e-02 2.556586830172947e-02 6.787189954757206e-02 2.689902077131634e-02 -3.442404594464743e-01 3.599449787722196e-01 -1.641826372112692e-01 -8.889087079796119e-02
            6.791517979333755e-02 2.694231948960501e-02 7.976550077048930e-02 2.551969553292185e-02 -1.641652262739902e-01 -8.884976716667853e-02 -3.441897019914939e-01 3.600270884715290e-01
            -3.441376741908917e-01 3.600234283263721e-01 -1.641788529140267e-01 -8.884505548652886e-02 7.315355429093658e-02 2.864012144134036e-02 6.197883122292572e-02 2.130122913528022e-02
            -1.641911781577594e-01 -8.888089153252883e-02 -3.441870673524805e-01 3.599943028904256e-01 6.194913572474096e-02 2.129788497420156e-02 7.310883739468996e-02 2.858295723529344e-02
434732500.0000000000 9.836233316919900e-02 2.794995967182456e-02 8.816531573753565e-02 3.285633046503269e-02 -1.976409390470767e-01 4.558686105458833e-01 -1.804524359748639e-01 -2.720788267087053e-02
            8.813411487570984e-02 3.279273032033157e-02 9.840626178638291e-02 2.798125925488036e-02 -1.804485354072551e-01 -2.717063993547287e-02 -1.977343806146881e-01 4.558078155789997e-01
            -1.976831962480751e-01 4.558923413586615e-01 -1.805098154673704e-01 -2.716584494094818e-02 9.529132182174228e-02 3.154931876236328e-02 8.235861340042806e-02 2.659875208837264e-02
            -1.804436912474243e-01 -2.717578690709286e-02 -1.977573874025376e-01 4.557640302232959e-01 8.230798879960342e-02 2.659127658326562e-02 9.519804735029248e-02 3.157996558302650e-02
435565000.0000000000 1.143898687885633e-01 1.749182145167774e-02 1.071828941147187e-01 2.455822109383917e-02 -2.892891257371039e-02 4.945543986796916e-01 -1.764032055039569e-01 3.464488997098578e-02
            1.072540119145496e-01 2.454596633969982e-02 1.144389286416308e-01 1.748401869656506e-02 -1.763778793700174e-01 3.462613208072821e-02 -2.889021751911881e-02 4.945274633426618e-01
            -2.887448750335651e-02 4.945118772926619e-01 -1.763878946703267e-01 3.463173251833415e-02 1.142427882891789e-01 1.979514718435797e-02 1.003143316408651e-01 1.730716537251764e-02
            -1.764191923248223e-01 3.466497288803672e-02 -2.889086715542198e-02 4.945204232407310e-01 1.004065660989459e-01 1.719745710470289e-02 1.142501928061815e-01 1.980003019341361e-02
436397500.0000000000 1.199211462049039e-01 -1.042733948159994e-03 1.167198575050028e-01 6.636815843712013e-03 1.414298469163285e-01 4.740883797595980e-01 -1.530142889119561e-01 9.166056365640633e-02
            1.167135467746957e-01 6.549579989353089e-03 1.199867678687417e-01 -1.154791008979491e-03 -1.530139850530856e-01 9.168379370717522e-02 1.413641311111457e-01 4.741572420988154e-01
            1.413812795766746e-01 4.740362743215851e-01 -1.529944157133732e-01 9.166039160442260e-02 1.216511455985079e-01 -1.087826469284331e-03 1.074512564285345e-01 -1.282128126282425e-03
            -1.529697399496927e-01 9.160353064923642e-02 1.414530475998098e-01 4.740623404890741e-01 1.074868981334490e-01 -1.444602587984270e-03 1.216385951287468e-01 -1.102163380432571e-03
437230000.0000000000 1.123444246178300e-01 -1.915732000815321e-02 1.129693406233025e-01 -1.292205532051943e-02 2.947804671091785e-01 3.981975823570578e-01 -1.115543066688757e-01 1.383968914963742e-01
            1.129995359052058e-01 -1.289659540267325e-02 1.124161889121683e-01 -1.916108103789387e-02 -1.115259514264855e-01 1.383626591714080e-01 2.947793924403814e-01 3.981882095644139e-01
            2.947442977785346e-01 3.981171780663536e-01 -1.115476630528313e-01 1.384089901828507e-01 1.145869384613151e-01 -2.181611912147760e-02 1.003139426924939e-01 -2.027004103082852e-02
            -1.116015390323847e-01 1.383551941846768e-01 2.947785240006012e-01 3.981586955940111e-01 1.003998577627356e-01 -2.028311778086328e-02 1.145079269895755e-01 -2.186095900331022e-02
438062500.0000000000 9.469994621523056e-02 -2.840360514821184e-02 9.808918131276244e-02 -2.515021388835216e-02 4.147427097647944e-01 2.747100083667656e-01 -5.534760561570904e-02 1.681729332792394e-01
            9.807787298697308e-02 -2.510061364708550e-02 9.465415036385121e-02 -2.836086599188853e-02 -5.533864815180568e-02 1.680974910243682e-01 4.146990605350064e-01 2.747657725708712e-01
            4.147818482816280e-01 2.747043851772170e-01 -5.528574652148838e-02 1.681042281803982e-01 9.611110938413452e-02 -3.347324307182773e-02 8.187098052236165e-02 -3.003372963825304e-02
            -5.534991343289642e-02 1.680832501426753e-01 4.146578405015541e-01 2.747098652543855e-01 8.186738234546632e-02 -2.998672704762495e-02 9.605100967710528e-02 -3.353653135234839e-02
438895000.0000000000 7.479864444076731e-02 -2.385211551528685e-02 7.937328579398657e-02 -2.453085695759210e-02 4.865034958609716e-01 1.159222090615165e-01 8.500985713853085e-03 1.748939397947775e-01
            7.946137167306228e-02 -2.451474081748410e-02 7.487926692175605e-02 -2.380009253838056e-02 8.522126468734228e-03 1.748719325443622e-01 4.865445459859037e-01 1.159428960166473e-01
            4.865205830713515e-01 1.159530347649015e-01 8.533564555904163e-03 1.749140414003338e-01 7.455248657814502e-02 -3.068103430845646e-02 6.054186143929360e-02 -2.514975613743130e-02
            8.459609084910738e-03 1.749349877414637e-01 4.864231967605087e-01 1.159644884589681e-01 6.060001276230259e-02 -2.508037987135303e-02 7.457591332428117e-02 -3.072659614095884e-02
439727500.0000000000 6.252897956579674e-02 -7.076005437219472e-03 6.654615519990510e-02 -1.174899123667354e-02 4.988611375464899e-01 -6.025923602397373e-02 6.951252464853282e-02 1.571690852882242e-01
            6.648052938161139e-02 -1.185949142101684e-02 6.250214956765066e-02 -7.099944416672469e-03 6.953150295695619e-02 1.570814836380024e-01 4.988654031224189e-01 -6.026550450432338e-02
            4.988257283622128e-01 -6.028479557583076e-02 6.942629572113025e-02 1.573004714956535e-01 6.039681305585340e-02 -1.468404818780664e-02 4.697240836777988e-02 -6.788418957818065e-03
            6.950332127432977e-02 1.572059907405277e-01 4.987967406335631e-01 -6.026013450264463e-02 4.690571316655335e-02 -6.751629616474393e-03 6.027888184561403e-02 -1.470508588990189e-02
440560000.0000000000 6.421027867705520e-02 1.390385168069193e-02 6.618525435420133e-02 6.022600735651055e-03 4.475562826935782e-01 -2.307387652925362e-01 1.176494024023888e-01 1.191495134540502e-01
            6.615450365410469e-02 6.034298766467191e-03 6.432590479187425e-02 1.390604669264706e-02 1.175791921433171e-01 1.191502090583148e-01 4.476006504331738e-01 -2.306643213485400e-01
            4.475780407993572e-01 -2.307565016850801e-01 1.176049336721394e-01 1.191430004182362e-01 6.034490827136003e-02 6.310251394422432e-03 4.849340498991256e-02 1.670009304446191e-02
            1.175952906038845e-01 1.191026869395667e-01 4.475349107568020e-01 -2.307314465997267e-01 4.843888613620217e-02 1.669943459252838e-02 6.042176386494207e-02 6.284008632698120e-03
441392500.0000000000 7.945409506987536e-02 2.869756755554711e-02 7.831891860131572e-02 1.868166289636271e-02 3.390182950839137e-01 -3.717039813419243e-01 1.473405230853077e-01 6.894637219918777e-02
            7.837338299953729e-02 1.874168275377044e-02 7.936052942659354e-02 2.865523788563612e-02 1.473001411047472e-01 6.900360945123142e-02 3.390119436846118e-01 -3.717366543032384e-01
            3.389387567909528e-01 -3.717274118595589e-01 1.472938086576787e-01 6.895255118313091e-02 7.410123570091139e-02 2.129564499711064e-02 6.478087513950233e-02 3.400876062569250e-02
            1.473466169754472e-01 6.897875141265861e-02 3.390780088343946e-01 -3.717653071372638e-01 6.481834310784915e-02 3.395632495401325e-02 7.416050841406459e-02 2.138008949122283e-02
442225000.0000000000 1.002621551142255e-01 3.030154400176731e-02 9.607560937774941e-02 1.961151745021192e-02 1.889934894924475e-01 -4.646980590494693e-01 1.580167412749431e-01 1.461788114191201e-02
            9.613547383526236e-02 1.957261518432746e-02 1.002818359903686e-01 3.017046268010960e-02 1.580408014688370e-01 1.453869008498294e-02 1.890429446671209e-01 -4.646932243482528e-01
            1.889740914576586e-01 -4.647131691479828e-01 1.580131763398358e-01 1.451708707713668e-02 9.384548612309758e-02 2.310990998849365e-02 8.794333750547680e-02 3.693785937936583e-02
            1.580080926434775e-01 1.462168410309681e-02 1.889696903402143e-01 -4.647264668767254e-01 8.803625829533276e-02 3.684827298106891e-02 9.383782535089215e-02 2.306348304846575e-02
443057500.0000000000 1.172175116355518e-01 1.830376064674819e-02 1.102285379754131e-01 7.953053258962079e-03 1.809375353460550e-02 -4.998563922658826e-01 1.511614567190209e-01 -3.884891312478154e-02
            1.101640252123451e-01 7.949621304316689e-03 1.171895694561675e-01 1.823803349488544e-02 1.512880462441514e-01 -3.886016209288869e-02 1.803471575712579e-02 -4.999563674929915e-01
            1.801818541699228e-02 -4.998924049876625e-01 1.513130834566029e-01 -3.874596846090855e-02 1.095173857452822e-01 1.152826097921823e-02 1.075639731792343e-01 2.490080973320463e-02
            1.513714389844380e-01 -3.878188378480796e-02 1.800875845261513e-02 -4.998751779704609e-01 1.076108143048324e-01 2.488156379686909e-02 1.095381329360208e-01 1.149167505939818e-02
443890000.0000000000 1.226784311845108e-01 -1.245084522712695e-03 1.135301143411813e-01 -1.057016214479864e-02 -1.533347128833474e-01 -4.756093647866825e-01 1.281503704974082e-01 -8.720220281232999e-02
            1.135235907143696e-01 -1.058376886141928e-02 1.226268517702410e-01 -1.242500851526704e-03 1.280785914742921e-01 -8.717272093907699e-02 -1.534087657319434e-01 -4.755193670752934e-01
            -1.533130087361785e-01 -4.756053400272853e-01 1.281761391089364e-01 -8.719392909482364e-02 1.135266954693558e-01 -7.595717318976013e-03 1.150215258404663e-01 3.732279575453658e-03
            1.281084077272095e-01 -8.718243277871507e-02 -1.533373376807289e-01 -4.755307495494846e-01 1.150056894461925e-01 3.755431632499276e-03 1.135774910219745e-01 -7.656361311624268e-03
444722500.0000000000 1.147401067901036e-01 -1.934526729145005e-02 1.041746871156824e-01 -2.757504731030200e-02 -3.067279131385576e-01 -3.955546665698308e-01 8.954158965590456e-02 -1.257931111084883e-01
            1.041048279017709e-01 -2.759584763200913e-02 1.147714368939881e-01 -1.942858176084804e-02 8.947529414884262e-02 -1.258097495879683e-01 -3.067065771918399e-01 -3.955535224799196e-01
            -3.066614487619625e-01 -3.955063060636477e-01 8.951691205677620e-02 -1.257913097765372e-01 1.041003542119098e-01 -2.502680727678970e-02 1.076111792497819e-01 -1.696385867631457e-02
            8.948978907525121e-02 -1.257864966548919e-01 -3.066435328209360e-01 -3.955686972136289e-01 1.076926628917916e-01 -1.699261828182476e-02 1.040877330573464e-01 -2.500773311461835e-02
445555000.0000000000 9.731561201642669e-02 -2.810413111731195e-02 8.569099795582460e-02 -3.513898178889999e-02 -4.251633560359663e-01 -2.680477714659510e-01 3.861609761031253e-02 -1.486055243317689e-01
            8.573796544989577e-02 -3.517751114328194e-02 9.735310947295749e-02 -2.809339466129720e-02 3.851849785365931e-02 -1.485419814873238e-01 -4.252514192897957e-01 -2.679269365137189e-01
            -4.252928326840916e-01 -2.680116659740582e-01 3.861192180969066e-02 -1.485827183009477e-01 8.497760103771429e-02 -3.234804314668158e-02 8.870967759580088e-02 -2.809100753751275e-02
            3.867452594283961e-02 -1.486506309696349e-01 -4.251444805320552e-01 -2.679725358849497e-01 8.875604937990568e-02 -2.808884143479322e-02 8.497673401871624e-02 -3.230636931545244e-02
446387500.0000000000 7.882396064663509e-02 -2.324033437888340e-02 6.647836204995927e-02 -2.934459613388828e-02 -4.941041949667030e-01 -1.056399162143550e-01 -1.748376398207920e-02 -1.504777947130264e-01
            6.643747582389634e-02 -2.926735889597065e-02 7.880771474493230e-02 -2.324734860651782e-02 -1.753337523745104e-02 -1.505189268345566e-01 -4.940014934483078e-01 -1.056265898482272e-01
            -4.941104263490710e-01 -1.056124929378396e-01 -1.751497937725676e-02 -1.505163853694567e-01 6.495336515857725e-02 -2.537234742267553e-02 6.736573911071378e-02 -2.425469412882389e-02
            -1.750508420349102e-02 -1.505774627305578e-01 -4.940717488703749e-01 -1.056581024531537e-01 6.727987452374687e-02 -2.421846109930825e-02 6.504439325259424e-02 -2.544155190279787e-02
447220000.0000000000 6.854598060889437e-02 -7.329808454977080e-03 5.570500391822406e-02 -1.244495254522361e-02 -5.019670724820836e-01 7.269939992608428e-02 -6.923237780503519e-02 -1.309951654183881e-01
            5.562628215841157e-02 -1.251665715472619e-02 6.852349301021546e-02 -7.339030214487639e-03 -6.919413320769705e-02 -1.310049839813905e-01 -5.020743858805718e-01 7.271157907785526e-02
            -5.020477110201175e-01 7.268058619513404e-02 -6.927638210523175e-02 -1.309997310896983e-01 5.409279271238076e-02 -6.766647427691525e-03 5.353281397345423e-02 -7.197159670335043e-03
            -6.916678484183492e-02 -1.309711603840850e-01 -5.020260166253978e-01 7.265861980805033e-02 5.350222163378035e-02 -7.222671250524042e-03 5.414048724126840e-02 -6.830653039025053e-03
448052500.0000000000 7.190877029738781e-02 1.110267281131801e-02 5.860643841004950e-02 6.729899885496157e-03 -4.458368043382717e-01 2.433161499359985e-01 -1.079201000992146e-01 -9.477130364678904e-02
            5.856269871274088e-02 6.737715344215518e-03 7.204165335874910e-02 1.109000620768563e-02 -1.079908132376087e-01 -9.477248548146704e-02 -4.459347375424547e-01 2.432490655796656e-01
            -4.459007502270590e-01 2.432988266120693e-01 -1.080877593092987e-01 -9.475025661291406e-02 5.782303019131607e-02 1.464687388865285e-02 5.443331171150911e-02 1.456498894920903e-02
            -1.079793467976572e-01 -9.478315716145003e-02 -4.459263367094001e-01 2.433403336249957e-01 5.437535052673986e-02 1.449091785729733e-02 5.780838250498321e-02 1.468808118883319e-02
448885000.0000000000 8.711163688837782e-02 2.209422740269034e-02 7.308266572663065e-02 1.862752209345662e-02 -3.330744942741430e-01 3.824700894687520e-01 -1.298849877263297e-01 -4.971178866291321e-02
            7.315222865321051e-02 1.853196677273167e-02 8.707983277976691e-02 2.204077871565454e-02 -1.299124054781415e-01 -4.977461965529293e-02 -3.331568836118564e-01 3.825777321915003e-01
            -3.331247394433788e-01 3.825783605909481e-01 -1.299660912459772e-01 -4.968235867809267e-02 7.429484315506986e-02 2.837174460785100e-02 6.903271855971310e-02 3.008678654162804e-02
            -1.299084046813506e-01 -4.972765961536780e-02 -3.330766344905872e-01 3.826156733272941e-01 6.903085094827825e-02 3.018188251586873e-02 7.424927598623465e-02 2.837290879109747e-02
449717500.0000000000 1.058087908471724e-01 1.973096324996172e-02 9.130303965125446e-02 1.726595409234537e-02 -1.799160036849822e-01 4.726590681704995e-01 -1.354185460171995e-01 -2.594006454407722e-03
            9.142450635950797e-02 1.727042240811432e-02 1.057484445794385e-01 1.979594712339647e-02 -1.353848185024458e-01 -2.639510017815118e-03 -1.798973134775668e-01 4.726405901285020e-01
            -1.799601812949719e-01 4.727254191139451e-01 -1.354173257846635e-01 -2.582582760641066e-03 9.523987368283855e-02 2.828447572022635e-02 8.971849975148011e-02 3.263375962340184e-02
            -1.353899968343918e-01 -2.648334013784036e-03 -1.799623394851955e-01 4.726471669345973e-01 8.965827883457848e-02 3.266241839921673e-02 9.510742500193332e-02 2.825622381112339e-02
450550000.0000000000 1.185410669644294e-01 5.570398090745771e-03 1.037376647969057e-01 3.866671847366701e-03 -6.966012537772769e-03 5.044491691649958e-01 -1.260736223393130e-01 4.252587672304155e-02
            1.037685876519350e-01 3.959256948756664e-03 1.184694255323907e-01 5.555530498255452e-03 -1.260720505584449e-01 4.247761765833570e-02 -7.064928486317139e-03 5.044001184694392e-01
            -6.938237326324713e-03 5.044175088310116e-01 -1.261078924069704e-01 4.250291786444311e-02 1.104762191230837e-01 1.529448549223493e-02 1.065518868861897e-01 2.171281757377747e-02
            -1.260815944211841e-01 4.249576518140111e-02 -7.016595975242898e-03 5.044235792452201e-01 1.065372233309495e-01 2.176458279120454e-02 1.104652055821572e-01 1.525777820609252e-02
451382500.0000000000 1.189100266545250e-01 -1.383991964704967e-02 1.039934448807046e-01 -1.474177381462930e-02 1.654174512213960e-01 4.762725770153697e-01 -1.030968132717276e-01 8.240754142031734e-02
            1.039483466990236e-01 -1.470482181078994e-02 1.189788004784286e-01 -1.390169832533214e-02 -1.030009027530769e-01 8.231643880310534e-02 1.654674075066701e-01 4.763097853147724e-01
            1.654991067411377e-01 4.762401994006781e-01 -1.030614055682038e-01 8.242180137278528e-02 1.135667026712188e-01 -3.923527656959911e-03 1.123159171833746e-01 3.425887169751718e-03
            -1.030384596002057e-01 8.240362806725619e-02 1.654540351388098e-01 4.762475052965349e-01 1.122996014193699e-01 3.464944106016738e-03 1.136904899604226e-01 -3.966185564443377e-03
452215000.0000000000 1.064859432512983e-01 -2.950330951424730e-02 9.121185330109408e-02 -2.964175111033351e-02 3.186067430203208e-01 3.920802949069878e-01 -6.717425997053936e-02 1.127223093012408e-01
            9.127891153640556e-02 -2.963277336553979e-02 1.064014163735237e-01 -2.953906712543698e-02 -6.718597586607143e-02 1.126944934698268e-01 3.186738043987008e-01 3.921098993933254e-01
            3.186688577704135e-01 3.920904318811016e-01 -6.713676309687945e-02 1.127078541291014e-01 1.035636337841948e-01 -1.997542867738973e-02 1.052210576758923e-01 -1.349993228041598e-02
            -6.723981039280034e-02 1.126707717700531e-01 3.186770497129343e-01 3.921739140906128e-01 1.052336208578509e-01 -1.365933945668426e-02 1.037047946824530e-01 -2.009629429120468e-02
453047500.0000000000 8.624630836138257e-02 -3.372060095988537e-02 7.083210748696718e-02 -3.296068704051309e-02 4.355596898384607e-01 2.600446850738591e-01 -2.183679198359707e-02 1.281697745530218e-01
            7.079490735102836e-02 -3.301983709749942e-02 8.623567027628468e-02 -3.372656875296751e-02 -2.186733410638044e-02 1.281347013839045e-01 4.355334370407578e-01 2.601162702955377e-01
            4.356048429055335e-01 2.600536378709758e-01 -2.184769140858718e-02 1.282070702036288e-01 8.566069266268918e-02 -2.529318501711815e-02 8.909022178947082e-02 -2.140991656066532e-02
            -2.191285461520604e-02 1.281522301471305e-01 4.355422898573953e-01 2.601140348049125e-01 8.911138458549260e-02 -2.148373855618325e-02 8.568683211580080e-02 -2.533450862290330e-02
453880000.0000000000 6.767297248309927e-02 -2.366041298917861e-02 5.197088211781447e-02 -2.204285840543559e-02 5.007795146100005e-01 9.405548290645185e-02 2.604990970088829e-02 1.249936673277431e-01
            5.197613252856022e-02 -2.201361871657463e-02 6.769484028190907e-02 -2.368741857858881e-02 2.615298122165804e-02 1.249425137157431e-01 5.008215140166175e-01 9.409178726201857e-02
            5.008278772800555e-01 9.415409489416343e-02 2.606943779091427e-02 1.249651934494448e-01 6.867001798980510e-02 -1.701145476812769e-02 7.247721977965974e-02 -1.625725177558926e-02
            2.604787160024909e-02 1.249302384432214e-01 5.007931635423145e-01 9.403551318691304e-02 7.240075150440153e-02 -1.624312535342201e-02 6.864015514728018e-02 -1.691512347084437e-02
454712500.0000000000 6.004978691448449e-02 -3.617887868136611e-03 4.394008885339258e-02 -8.377520119042235e-04 5.036222079658774e-01 -8.625728693855289e-02 6.777049843138618e-02 1.037627981430511e-01
            4.404835769205835e-02 -8.520844466143310e-04 5.999360294518678e-02 -3.598125142220154e-03 6.778003665615108e-02 1.037377609815163e-01 5.036096219299038e-01 -8.612041208335720e-02
            5.036653774704469e-01 -8.618031303723181e-02 6.779475341688221e-02 1.037145245220547e-01 6.193797634617751e-02 9.653094646073939e-04 6.421611715766130e-02 -9.486937014116133e-04
            6.775716231941570e-02 1.037132397558559e-01 5.035659598968826e-01 -8.615743702085008e-02 6.417156939218205e-02 -1.090035265192863e-03 6.189779173809148e-02 1.015413814488162e-03
455545000.0000000000 6.737916968593910e-02 1.665959767031766e-02 5.130487242432348e-02 2.070629165892105e-02 4.420735595898835e-01 -2.560788484453230e-01 9.663172129206217e-02 7.002669173218753e-02
            5.131186113956924e-02 2.074460461722240e-02 6.739448951053723e-02 1.672507006263491e-02 9.663518456267731e-02 7.005368136668837e-02 4.419880940116821e-01 -2.560477440159024e-01
            4.420475373719373e-01 -2.561709074911522e-01 9.665977189223018e-02 7.008097198113757e-02 6.929757274996681e-02 1.910685479188312e-02 6.893967755815487e-02 1.569687269803727e-02
            9.666850286095073e-02 7.009438991449382e-02 4.420946225454196e-01 -2.561270017871607e-01 6.899042426934300e-02 1.567875643046926e-02 6.933703339015898e-02 1.917825086441729e-02
456377500.0000000000 8.607475739605011e-02 2.733170785109482e-02 7.040559575147047e-02 3.274575157813892e-02 3.248430441024194e-01 -3.924954310919199e-01 1.106419595830684e-01 3.118549320633713e-02
            7.041139816632071e-02 3.274820399630725e-02 8.607917717298857e-02 2.728484809648340e-02 1.106499717910261e-01 3.113463985217289e-02 3.249020375082730e-01 -3.925212468335708e-01
            3.249508933041370e-01 -3.925960598453164e-01 1.106345876817441e-01 3.116385767623721e-02 8.736371787660886e-02 2.778054129166401e-02 8.426332326657680e-02 2.456578389910892e-02
            1.106258258183779e-01 3.112806295863307e-02 3.249172664441101e-01 -3.925254868218527e-01 8.434423783868050e-02 2.456267632905951e-02 8.736975326273971e-02 2.771855102763820e-02
457210000.0000000000 1.070458025933972e-01 2.337080581764573e-02 9.204555905257222e-02 3.001064319398860e-02 1.692242006578354e-01 -4.787223791655399e-01 1.113292540785243e-01 -7.746695746342645e-03
            9.199218822204568e-02 3.001830508298988e-02 1.070884297421948e-01 2.343404639944330e-02 1.113614451720581e-01 -7.808854359657983e-03 1.691928456758820e-01 -4.786879668980000e-01
            1.692447392194313e-01 -4.786689905841674e-01 1.112840762497283e-01 -7.801168922886582e-03 1.070909976666140e-01 2.221868863193668e-02 1.020705102532137e-01 2.090901470826511e-02
            1.112587851290230e-01 -7.764403400433120e-03 1.692213399820874e-01 -4.786565026698505e-01 1.020251120544687e-01 2.085362078923327e-02 1.071610396892061e-01 2.224766217951902e-02
458042500.0000000000 1.206723086419200e-01 7.344228051207683e-03 1.065597512004276e-01 1.485485093912078e-02 -4.600238034206347e-03 -5.063346611343527e-01 1.004993482140150e-01 -4.406056374801285e-02
            1.065603597390896e-01 1.489049245739323e-02 1.206577004001110e-01 7.371308018380564e-03 1.005179672437034e-01 -4.398524689165995e-02 -4.598623655435788e-03 -5.063511028286422e-01
            -4.642768935281825e-03 -5.062796014739508e-01 1.005056608467274e-01 -4.405363746091786e-02 1.188457448514535e-01 5.104946267086696e-03 1.133971734094557e-01 6.249913306415655e-03
            1.004540437300260e-01 -4.397102083975092e-02 -4.615980596297811e-03 -5.063535313698819e-01 1.135123535831134e-01 6.265852851896490e-03 1.188658190191799e-01 5.100121374992960e-03
458875000.0000000000 1.213112854479825e-01 -1.346055825490657e-02 1.079197775523229e-01 -5.379949175298679e-03 -1.766824809989634e-01 -4.742793548854425e-01 7.878621331611810e-02 -7.530456987175983e-02
            1.079907947027880e-01 -5.265478374441386e-03 1.212651339298392e-01 -1.350138083985456e-02 7.868925443192396e-02 -7.530682527746793e-02 -1.766818703174270e-01 -4.743800476692365e-01
            -1.766985415553466e-01 -4.743758737002077e-01 7.866776268582104e-02 -7.532049707550663e-02 1.172135459000352e-01 -1.601471165362431e-02 1.130952999323438e-01 -1.285197625514451e-02
            7.874416300938573e-02 -7.530880541919702e-02 -1.767626323035437e-01 -4.743586684193891e-01 1.131271416785075e-01 -1.283340471857326e-02 1.171470554908631e-01 -1.592808911375337e-02
459707500.0000000000 1.089066332728135e-01 -2.998433409882282e-02 9.624294146642094e-02 -2.144129517282394e-02 -3.285876521286077e-01 -3.866352559066086e-01 4.667708937122692e-02 -9.799977627072759e-02
            9.629093342834842e-02 -2.153956182366778e-02 1.088577655298886e-01 -3.004321304896348e-02 4.662426302938488e-02 -9.805891238073108e-02 -3.286423322234577e-01 -3.866424269146825e-01
            -3.285869110676791e-01 -3.865810443481684e-01 4.674050371822832e-02 -9.801456495243661e-02 1.023728037676042e-01 -3.184332710090231e-02 1.008098641614163e-01 -2.776543147941353e-02
            4.668638522472667e-02 -9.797836781441359e-02 -3.286801217146528e-01 -3.866175408448694e-01 1.007554825874735e-01 -2.781344581824030e-02 1.023892879943877e-01 -3.182482166056105e-02
460540000.0000000000 8.921137803942662e-02 -3.502477081980986e-02 7.684375037233726e-02 -2.605826689948657e-02 -4.431298081256388e-01 -2.515590771917110e-01 7.497624648076984e-03 -1.074198626897631e-01
            7.695443154425395e-02 -2.613603323794312e-02 8.911595692529402e-02 -3.493542523965540e-02 7.402276713537650e-03 -1.074425057953707e-01 -4.431372192851577e-01 -2.515568420448636e-01
            -4.431892017351052e-01 -2.516816557682005e-01 7.503151792225302e-03 -1.073903863881458e-01 8.052857887901173e-02 -3.501900878701017e-02 8.164432050393955e-02 -3.181470403039362e-02
            7.484439335627984e-03 -1.073805655134889e-01 -4.432306939156176e-01 -2.515649615325442e-01 8.160638488220588e-02 -3.180386209530545e-02 8.064599461003175e-02 -3.500803130938145e-02
461372500.0000000000 7.127090419980074e-02 -2.621992747451463e-02 5.930486490751351e-02 -1.659325622836727e-02 -5.050097616595360e-01 -8.333106391968277e-02 -3.253334447078261e-02 -1.003517710928717e-01
            5.923858484902662e-02 -1.668603622639861e-02 7.125969074248450e-02 -2.627815409977609e-02 -3.242625393746867e-02 -1.004243297554442e-01 -5.050720137223798e-01 -8.327664174469607e-02
            -5.050580958695489e-01 -8.330702778318715e-02 -3.249567261483893e-02 -1.004556430123310e-01 6.147812141660853e-02 -2.356730526018268e-02 6.436005088087361e-02 -2.278960260052551e-02
            -3.253134186720488e-02 -1.003437540822734e-01 -5.050199805829528e-01 -8.332142534434463e-02 6.439815671110588e-02 -2.283101232930005e-02 6.144053986214914e-02 -2.370265373820909e-02
462205000.0000000000 6.380737773194875e-02 -8.730382581577337e-03 5.218784210782292e-02 2.235759132302669e-03 -5.037650131992467e-01 9.768726239676538e-02 -6.540876069853811e-02 -7.848861725145240e-02
            5.212476766638200e-02 2.191538412222309e-03 6.380307109855843e-02 -8.782457103483656e-03 -6.535814282895354e-02 -7.845061565468105e-02 -5.036894532701555e-01 9.761910052433560e-02
            -5.037603051639394e-01 9.758681656146720e-02 -6.534258737802333e-02 -7.852987234019407e-02 5.385153377820391e-02 -2.765952738624587e-03 5.737470124713462e-02 -5.179780017129075e-03
            -6.533747829852664e-02 -7.847401462737626e-02 -5.038173518401684e-01 9.764800316078273e-02 5.742084771655642e-02 -5.164901001300075e-03 5.399919582799392e-02 -2.770469241400466e-03
463037500.0000000000 6.997071704245098e-02 8.361260178418881e-03 5.931561845756918e-02 2.100415592197959e-02 -4.382736399064897e-01 2.668664910834364e-01 -8.584409030675605e-02 -4.730496966754017e-02
            5.928431846348136e-02 2.103167534530441e-02 6.995698391815949e-02 8.411325398875034e-03 -8.577988499727879e-02 -4.733436313450152e-02 -4.383403119349729e-01 2.668030520415480e-01
            -4.383775943854791e-01 2.668684258708282e-01 -8.578610556118416e-02 -4.737025829511649e-02 6.149709384147754e-02 1.753287121117365e-02 6.381499937693917e-02 1.192691992429098e-02
            -8.578019329619370e-02 -4.741579052756209e-02 -4.382643742144091e-01 2.667851617993582e-01 6.382437916764505e-02 1.187060592154072e-02 6.146992654298487e-02 1.755805431639723e-02
463870000.0000000000 8.534747337709281e-02 1.626127501037784e-02 7.665514823202840e-02 3.040423739466734e-02 -3.178550440686733e-01 4.012631500981884e-01 -9.285724699363328e-02 -1.342653256092034e-02
            7.667595669964354e-02 3.049859501972245e-02 8.531575984993341e-02 1.625910684952400e-02 -9.286305350488998e-02 -1.347072966234119e-02 -3.178416828744506e-01 4.012518920788030e-01
            -3.178448393314124e-01 4.013007439077922e-01 -9.285113380367573e-02 -1.352262698398884e-02 7.957759388451165e-02 2.765003890275451e-02 7.949364586490837e-02 1.967284802190064e-02
            -9.285735590399143e-02 -1.349497864363453e-02 -3.178486547775467e-01 4.013032104374318e-01 7.952748721590845e-02 1.962208092267021e-02 7.954380553352883e-02 2.761418126009592e-02
464702500.0000000000 1.012596338814321e-01 1.127936325018444e-02 9.555566177280733e-02 2.645450289017551e-02 -1.597748704484210e-01 4.846748353898145e-01 -8.874247688588555e-02 1.848615312115360e-02
            9.556198536407257e-02 2.644976122605703e-02 1.012711478246047e-01 1.134803789362056e-02 -8.877834158040092e-02 1.862601439740550e-02 -1.597627690790349e-01 4.847039765586963e-01
            -1.598070879749326e-01 4.846710646101134e-01 -8.876011426567477e-02 1.859267705796262e-02 9.899632270044974e-02 2.382854227588323e-02 9.572287101228087e-02 1.450788883812947e-02
            -8.877288617352927e-02 1.863836276611923e-02 -1.597764899600026e-01 4.846753397461287e-01 9.566460086410869e-02 1.460695286841011e-02 9.895695329280225e-02 2.376049323350555e-02
465535000.0000000000 1.092622993084852e-01 -3.258672422753976e-03 1.069705877156998e-01 1.178112384552423e-02 1.580844211919218e-02 5.091426000341781e-01 -7.533011625503659e-02 4.682092097561763e-02
            1.070004856178889e-01 1.167304929509557e-02 1.093344728439925e-01 -3.345532286436937e-03 -7.546500049085003e-02 4.676377031271075e-02 1.575058358360198e-02 5.091534051591767e-01
            1.579314068088803e-02 5.091441600296500e-01 -7.533967075736284e-02 4.679563214166510e-02 1.104269527501817e-01 8.897683005033675e-03 1.039392570813404e-01 -2.565758049489041e-04
            -7.536029645820459e-02 4.676065426430141e-02 1.583074397191933e-02 5.091628050171765e-01 1.039239397617042e-01 -2.300484502549372e-04 1.104300470037658e-01 8.838557392075931e-03
466367500.0000000000 1.051400215108020e-01 -1.968019305082527e-02 1.062658482714709e-01 -6.358921012424279e-03 1.887974932927017e-01 4.732577649171935e-01 -5.360924029969272e-02 6.949989082222473e-02
            1.062911932425543e-01 -6.304795160286411e-03 1.050922577285467e-01 -1.974462223532946e-02 -5.353670470651985e-02 6.951519481566404e-02 1.886866778245224e-01 4.732944577922971e-01
            1.887223658143815e-01 4.732452852964289e-01 -5.352246322251830e-02 6.953212677063950e-02 1.091027641881589e-01 -9.316472124453993e-03 9.990033547341172e-02 -1.726485750935407e-02
            -5.361190276136193e-02 6.946252252959227e-02 1.887309147202217e-01 4.732426323402619e-01 9.992861218589671e-02 -1.729448767428158e-02 1.090978291212706e-01 -9.209587822552387e-03
467200000.0000000000 9.031900468852716e-02 -2.941185577517448e-02 9.412920699243213e-02 -1.919356270354380e-02 3.401836871970504e-01 3.809686367033430e-01 -2.432317245085509e-02 8.354588496726489e-02
            9.409155264348328e-02 -1.915440341422353e-02 9.033632106425799e-02 -2.936133859395791e-02 -2.440391834970990e-02 8.350763272031926e-02 3.401954266169757e-01 3.809865941153976e-01
            3.402362647577523e-01 3.810106015431931e-01 -2.437219790673518e-02 8.347329295583922e-02 9.617039839825654e-02 -2.150632850782364e-02 8.486234234584715e-02 -2.787235276265476e-02
            -2.434312550696729e-02 8.347034982765794e-02 3.402165082378566e-01 3.809414827519095e-01 8.479984163051768e-02 -2.780028889801743e-02 9.619172858895422e-02 -2.158548616248223e-02
468032500.0000000000 7.178378208261339e-02 -2.673059664932654e-02 7.673413632061934e-02 -2.060940861833652e-02 4.522239156309152e-01 2.413927939071382e-01 8.693015048346707e-03 8.515769372206025e-02
            7.679711558313866e-02 -2.069749286256695e-02 7.178685383507011e-02 -2.679232337928948e-02 8.710640810341199e-03 8.519492073603510e-02 4.522917405014851e-01 2.413900492270808e-01
            4.521499712874305e-01 2.413753876805474e-01 8.670484167229004e-03 8.514952259444945e-02 7.813849632103101e-02 -2.166553654632606e-02 6.525814648128303e-02 -2.605361375097147e-02
            8.734402322673262e-03 8.515163613016949e-02 4.522034949264078e-01 2.413861391918199e-01 6.527188422009705e-02 -2.601304529693140e-02 7.821395193514984e-02 -2.171477072648327e-02
468865000.0000000000 5.879614129198204e-02 -1.192839333221138e-02 6.309853852115477e-02 -9.868288775626680e-03 5.092343835508408e-01 6.973778319354434e-02 3.936014659478985e-02 7.317636030291447e-02
            6.316912191115767e-02 -9.863825001077492e-03 5.884542623931831e-02 -1.193964335246438e-02 3.941379390464598e-02 7.321887541038404e-02 5.093438201126005e-01 6.979278001412628e-02
            5.092490920553170e-01 6.982672208796085e-02 3.933770414312996e-02 7.319736291532433e-02 6.453918790026182e-02 -9.116193277617209e-03 5.071444885347050e-02 -1.141846331088989e-02
            3.934184838538724e-02 7.322169631984521e-02 5.093172089408856e-01 6.986820804251412e-02 5.073321231470639e-02 -1.134759209465407e-02 6.458021049531466e-02 -9.145460020716962e-03
469697500.0000000000 5.878661231133660e-02 8.574951177543042e-03 6.062265909807162e-02 7.220722395490724e-03 5.020452119392647e-01 -1.118411936679607e-01 6.139603601654254e-02 5.059347218333040e-02
            6.072427772891652e-02 7.242621924019225e-03 5.878654637605262e-02 8.553433640105199e-03 6.141815381859249e-02 5.054327149578024e-02 5.020300663745060e-01 -1.117509740965560e-01
            5.020587728446614e-01 -1.117529801148306e-01 6.140737513319681e-02 5.049923128679511e-02 6.316656119607285e-02 9.973575863319855e-03 4.861903415010842e-02 9.784342831324280e-03
            6.131348480923336e-02 5.052034163996751e-02 5.020468532276686e-01 -1.118444265188851e-01 4.858892180401685e-02 9.790199777655186e-03 6.310659714275547e-02 9.776883033941003e-03
470530000.0000000000 7.229172940098046e-02 2.440810362104723e-02 7.074330212088771e-02 2.133912546692633e-02 4.309837656312978e-01 -2.786796082979580e-01 7.170942811574216e-02 2.325236959898963e-02
            7.078334317887776e-02 2.133959580012822e-02 7.225211643828314e-02 2.445805199140807e-02 7.168543640636664e-02 2.323920615036219e-02 4.310288666104182e-01 -2.786867365303889e-01
            4.310454476545679e-01 -2.787302332132703e-01 7.170969101179990e-02 2.320534804332150e-02 7.509147191119067e-02 2.546381737584144e-02 6.037339070715507e-02 2.765331343476485e-02
            7.168018014971031e-02 2.326582131174024e-02 4.310432591376339e-01 -2.787034772326477e-01 6.033281928193188e-02 2.770661825870866e-02 7.512534974830933e-02 2.548002078628629e-02
471362500.0000000000 9.307316824200390e-02 2.788218514790652e-02 8.783602710085259e-02 2.487353108044520e-02 3.070156541153696e-01 -4.089031261753372e-01 7.155169884169738e-02 -3.307118586510277e-03
            8.790894867245061e-02 2.484653014536164e-02 9.303907337267950e-02 2.795901219712597e-02 7.156339397921332e-02 -3.390874180561107e-03 3.070975052389645e-01 -4.089388922759998e-01
            3.069862356059819e-01 -4.088805481880385e-01 7.152270405217892e-02 -3.330379625041298e-03 9.465480288978939e-02 2.941458248984615e-02 8.011872705180667e-02 3.411438714041747e-02
            7.150337426221225e-02 -3.436681612066286e-03 3.070687544282600e-01 -4.089219269553134e-01 8.010313110504984e-02 3.414202550537931e-02 9.472031514901123e-02 2.947211317613685e-02
472195000.0000000000 1.111813186807602e-01 1.737899053811947e-02 1.029262889624467e-01 1.596603960360279e-02 1.475532195184098e-01 -4.876278918179124e-01 6.361230458538342e-02 -2.664353248453931e-02
            1.029048392479020e-01 1.602595462406642e-02 1.111655074947374e-01 1.736610162238799e-02 6.354321699098076e-02 -2.666889427835804e-02 1.476071778111836e-01 -4.877525309600079e-01
            1.475693544912037e-01 -4.876104145538803e-01 6.354521526267901e-02 -2.667449869623077e-02 1.124518493029144e-01 1.986676647585624e-02 9.870758050024672e-02 2.724535290756704e-02
            6.362043341542374e-02 -2.660814108528654e-02 1.475703051508276e-01 -4.876709479798265e-01 9.883460222423096e-02 2.711081499813744e-02 1.124048789140758e-01 1.996445308065000e-02
473027500.0000000000 1.184820928801056e-01 -2.224185067661331e-03 1.084741489018664e-01 -1.017926293569830e-03 -2.762716974895441e-02 -5.079458290693099e-01 4.961689231312692e-02 -4.593017092768104e-02
            1.085655892371665e-01 -1.014445087221067e-03 1.186065682330961e-01 -2.210529845506876e-03 4.953674742769757e-02 -4.595917768074275e-02 -2.766346425235952e-02 -5.079070722504277e-01
            -2.762749920106769e-02 -5.079155741316502e-01 4.959571072384236e-02 -4.592904463867010e-02 1.202797832221538e-01 1.405951462502483e-03 1.083339713472668e-01 1.088260576494960e-02
            4.951403753140622e-02 -4.593051450749711e-02 -2.759524550841739e-02 -5.079024010558755e-01 1.083350683458720e-01 1.092734467121834e-02 1.203288600430266e-01 1.340629224542104e-03
473860000.0000000000 1.119129041172769e-01 -2.210382725465406e-02 1.015914794022311e-01 -1.797483802316264e-02 -1.993664539568796e-01 -4.683371687190417e-01 2.978045415116531e-02 -6.024315814709457e-02
            1.016078070633273e-01 -1.796683431947041e-02 1.119342548060120e-01 -2.215990618925192e-02 2.976398266325392e-02 -6.020118683232218e-02 -1.992756819913627e-01 -4.684014112193455e-01
            -1.992957451898655e-01 -4.683500208274813e-01 2.976597697391484e-02 -6.020457084300120e-02 1.148917969231352e-01 -1.795364358357654e-02 1.054562642774231e-01 -6.680753553655332e-03
            2.976010993923838e-02 -6.028968256975634e-02 -1.993653595938046e-01 -4.683518871649378e-01 1.053937276118453e-01 -6.673391307201197e-03 1.149202764173877e-01 -1.799267509429163e-02
474692500.0000000000 9.397252788105216e-02 -3.360272630787137e-02 8.467730738662681e-02 -2.666950650458808e-02 -3.485944763646140e-01 -3.729684481592417e-01 5.096892245528169e-03 -6.685913519848684e-02
            8.474001184634938e-02 -2.671443509582418e-02 9.387027374409228e-02 -3.353480457394319e-02 4.985700264808646e-03 -6.683214120103401e-02 -3.486241767094168e-01 -3.729670342731179e-01
            -3.487196164624688e-01 -3.729537889505483e-01 5.089547532527382e-03 -6.681056195434319e-02 9.861646292223518e-02 -2.949525203695179e-02 9.189783472911806e-02 -1.746564692745330e-02
            4.979307471515116e-03 -6.681126653166956e-02 -3.485877706582378e-01 -3.729669291778269e-01 9.191602552096700e-02 -1.738924324026271e-02 9.859714445811846e-02 -2.947527790604326e-02
475525000.0000000000 7.256554027749468e-02 -3.092166308360281e-02 6.529060343135985e-02 -2.232730293651093e-02 -4.575537656225216e-01 -2.307954831709907e-01 -2.132476701655285e-02 -6.271721136212681e-02
            6.536689935751672e-02 -2.233051194951346e-02 7.258692027669905e-02 -3.090361249072964e-02 -2.129541398117335e-02 -6.281523439712704e-02 -4.575540539233318e-01 -2.308485247595816e-01
            -4.575704615659104e-01 -2.307467919620047e-01 -2.134341093116785e-02 -6.275299909303096e-02 7.881901972531058e-02 -2.803153199599498e-02 7.505931351692027e-02 -1.596411444866565e-02
            -2.140055307531282e-02 -6.281191955321400e-02 -4.575158793750828e-01 -2.308006779056903e-01 7.511686674444411e-02 -1.598690177638739e-02 7.886657169836600e-02 -2.795137679901563e-02
476357500.0000000000 5.782766532784789e-02 -1.511544953763592e-02 5.300441163824797e-02 -5.905169169352393e-03 -5.105606486090740e-01 -5.785719117674558e-02 -4.342062560828822e-02 -4.767984453991025e-02
            5.308488328793893e-02 -5.825837893835687e-03 5.791449308952935e-02 -1.516558997979255e-02 -4.341680168711975e-02 -4.765017733939878e-02 -5.105646037371099e-01 -5.783197698463049e-02
            -5.105126427033236e-01 -5.783256254559758e-02 -4.346378737553764e-02 -4.770800729775582e-02 6.515321512951115e-02 -1.416269544662531e-02 6.402120926394129e-02 -2.996376085731463e-03
            -4.344380627268034e-02 -4.770384282533953e-02 -5.104946266417929e-01 -5.780645605593832e-02 6.400612504174846e-02 -2.967242067540756e-03 6.518113378957265e-02 -1.417446867144795e-02
477190000.0000000000 5.689158830958768e-02 6.282311276958576e-03 5.440280950648359e-02 1.516510451104182e-02 -4.987043807741378e-01 1.234503257695499e-01 -5.622812146447292e-02 -2.526706343848177e-02
            5.435752316642346e-02 1.516873269708815e-02 5.699180369446873e-02 6.164725093126675e-03 -5.618245437702494e-02 -2.515079381629577e-02 -4.986992137702734e-01 1.234501004181921e-01
            -4.987434014095147e-01 1.235205039531304e-01 -5.613949801627413e-02 -2.512764970053234e-02 6.420263864329048e-02 4.907777668193914e-03 6.518594434246862e-02 1.454691068224098e-02
            -5.614669755056787e-02 -2.516959658887591e-02 -4.987581554285633e-01 1.235222242175242e-01 6.514775117690580e-02 1.449546839143013e-02 6.422645572728544e-02 4.908747881567035e-03
478022500.0000000000 6.964810596417730e-02 2.257014911469387e-02 6.910971817792451e-02 3.039322955404499e-02 -4.237160952540924e-01 2.882148498751601e-01 -5.797874735718223e-02 -1.449585483085627e-03
            6.906604890111734e-02 3.040701723021850e-02 6.970491693390669e-02 2.268004657111543e-02 -5.796905492386727e-02 -1.522514116829185e-03 -4.237271602599147e-01 2.882177192893892e-01
            -4.237234189635267e-01 2.882812242741817e-01 -5.797574570416326e-02 -1.420963258591513e-03 7.599648075739547e-02 1.917222544173895e-02 7.843102275728757e-02 2.702375599801216e-02
            -5.795712523115824e-02 -1.427417815755008e-03 -4.237594799593042e-01 2.882244080983036e-01 7.842929509178186e-02 2.698581168071155e-02 7.606462392058239e-02 1.919341562788462e-02
478855000.0000000000 8.919756558170022e-02 2.656562964635299e-02 9.008313613718844e-02 3.274716520346490e-02 -2.970162640559497e-01 4.151513982969369e-01 -5.137409682983837e-02 1.882658477726637e-02
            9.008489316996003e-02 3.278060719436301e-02 8.921281114635114e-02 2.654136053058467e-02 -5.135766745448020e-02 1.886111218939537e-02 -2.970647644946945e-01 4.150704196477699e-01
            -2.970078303660388e-01 4.150976787948266e-01 -5.135861279279074e-02 1.883928478250775e-02 9.388903526085735e-02 2.171034008649875e-02 9.724889352091058e-02 2.758487823435691e-02
            -5.134408244246335e-02 1.885745450025164e-02 -2.970599979510553e-01 4.150905105490839e-01 9.720182640956973e-02 2.753741923040699e-02 9.385922610489736e-02 2.171272480206220e-02
479687500.0000000000 1.059093170992408e-01 1.718490270264596e-02 1.075310927550492e-01 2.140488131960696e-02 -1.362657962632680e-01 4.899892878250507e-01 -3.958131280029419e-02 3.422636375056672e-02
            1.074513927146105e-01 2.140732746467880e-02 1.059179139464876e-01 1.712919136839030e-02 -3.965436250228246e-02 3.431637277763545e-02 -1.363957746737480e-01 4.900064892069979e-01
            -1.363819701535454e-01 4.900519453897411e-01 -3.959924448741468e-02 3.433648155862966e-02 1.084515054111839e-01 1.171583117689828e-02 1.124271156419650e-01 1.580663749527588e-02
            -3.961868084856630e-02 3.428773348108356e-02 -1.362755212322462e-01 4.900857356463306e-01 1.124057725760578e-01 1.577281893253955e-02 1.085000123732884e-01 1.182719172969211e-02
480520000.0000000000 1.119797069845478e-01 -1.922251820469668e-04 1.136729413733938e-01 1.894286230625274e-03 3.897813168852587e-02 5.064530792139641e-01 -2.455736851325766e-02 4.526411331725587e-02
            1.136013892374090e-01 1.922114275813461e-03 1.120002880874075e-01 -2.784683617860040e-04 -2.451003107842244e-02 4.512607028800680e-02 3.895842037602114e-02 5.063846139431466e-01
            3.895334888024109e-02 5.064841352402495e-01 -2.453827328756046e-02 4.521336938809251e-02 1.126788236990098e-01 -5.385783017891190e-03 1.169919412510208e-01 -3.163931065902115e-03
            -2.447559706799531e-02 4.519997644172432e-02 3.898155653591386e-02 5.063998524942710e-01 1.169161652742798e-01 -3.137430670287806e-03 1.127078424378083e-01 -5.350843892415607e-03
481352500.0000000000 1.052003444344085e-01 -1.699670329508604e-02 1.062779562547984e-01 -1.685859311368119e-02 2.096991105506434e-01 4.632794876875836e-01 -6.249088329767625e-03 5.107998929589370e-02
            1.062762731859136e-01 -1.681998962019192e-02 1.051837963905757e-01 -1.692030778416431e-02 -6.282458957257393e-03 5.111237489467108e-02 2.096804490564740e-01 4.632484588774797e-01
            2.096876686248361e-01 4.632710415919344e-01 -6.179516217361690e-03 5.112892482015677e-02 1.045047087075782e-01 -2.126439834198060e-02 1.086027338772385e-01 -2.095152576668348e-02
            -6.280310865114555e-03 5.115951805814595e-02 2.096946893658703e-01 4.632819922794552e-01 1.085681344755797e-01 -2.097812714944838e-02 1.043909183486565e-01 -2.122211488425709e-02
482185000.0000000000 8.894551794168623e-02 -2.489957204063601e-02 8.853015362548124e-02 -2.635563088942140e-02 3.569050267205012e-01 3.643282621829426e-01 1.431515839411942e-02 5.002542250493534e-02
            8.862941540958452e-02 -2.643999421984496e-02 8.888416429698826e-02 -2.483545640956645e-02 1.427236758639464e-02 5.004913355897314e-02 3.569353101437289e-01 3.643044334176358e-01
            3.569594593324975e-01 3.644311545051849e-01 1.420461098410593e-02 5.006467713520203e-02 8.717469082641388e-02 -2.777534753964386e-02 9.101523901444404e-02 -2.961630684636249e-02
            1.428454399109174e-02 5.004263593380796e-02 3.569486393592379e-01 3.643507467466193e-01 9.093915493100706e-02 -2.967501636946088e-02 8.720248657424362e-02 -2.777760832520212e-02
483017500.0000000000 7.122821962494610e-02 -1.944633460292775e-02 6.887340946529460e-02 -2.200043793183084e-02 4.623433177369898e-01 2.193390189752240e-01 3.371345467467101e-02 3.991393036186437e-02
            6.896862792011089e-02 -2.204795785561913e-02 7.125567066875793e-02 -1.955136013540952e-02 3.372695377604336e-02 3.988074097610250e-02 4.623340777169315e-01 2.193857063257749e-01
            4.623515598262271e-01 2.192813161276310e-01 3.365963949602626e-02 3.991510284993786e-02 6.919762068258223e-02 -2.104070583955376e-02 7.214035244763409e-02 -2.493876006649471e-02
            3.372667326572917e-02 3.998079405945029e-02 4.623586756517076e-01 2.194047708762359e-01 7.207657839966330e-02 -2.491199579674864e-02 6.918453789004544e-02 -2.097145024978607e-02
483850000.0000000000 6.165686531132022e-02 -3.024297298921687e-03 5.699152191649809e-02 -5.736707572037199e-03 5.105011960816065e-01 4.505172435734158e-02 4.683043203122460e-02 2.154736568900798e-02
            5.689759586132738e-02 -5.708215707680545e-03 6.159978202460632e-02 -3.054709740456423e-03 4.682762192781804e-02 2.157510753347652e-02 5.105994901130498e-01 4.500474283965804e-02
            5.105812582535414e-01 4.508369093419196e-02 4.680116443129020e-02 2.154672782162973e-02 5.972202534725935e-02 -3.332363138511523e-03 6.120957803446960e-02 -9.151190465522905e-03
            4.684677489420744e-02 2.147633789704216e-02 5.105824253597876e-01 4.509815135193938e-02 6.111094698105108e-02 -9.151787684868417e-03 5.964929611087001e-02 -3.368352964706299e-03
484682500.0000000000 6.569375254485767e-02 1.608986330128297e-02 5.886265548271694e-02 1.438086881542167e-02 4.938211444109574e-01 -1.353160887101239e-01 4.981146196704399e-02 -2.714163348449943e-04
            5.885990123249715e-02 1.433488536615309e-02 6.574875043078181e-02 1.602718101900228e-02 4.981557884504056e-02 -2.705521208345492e-04 4.937723646013479e-01 -1.353355718242091e-01
            4.937588929860747e-01 -1.353770183100067e-01 4.979766757410117e-02 -2.819237526652716e-04 6.433592047651854e-02 1.691434655825364e-02 6.371691575773616e-02 9.612940748156872e-03
            4.980299803923507e-02 -3.238405774012293e-04 4.938234347181777e-01 -1.353090869174582e-01 6.367391682458445e-02 9.601470937075396e-03 6.436257091291160e-02 1.680036272497769e-02
485515000.0000000000 8.191361348425284e-02 2.783117696865163e-02 7.360449521001686e-02 2.826341973289867e-02 4.146854017729555e-01 -2.970924784723088e-01 4.307062327386280e-02 -1.977240581045583e-02
            7.361794236267943e-02 2.827403589137388e-02 8.197306454616901e-02 2.790648052095693e-02 4.303808345309729e-02 -1.973733447847278e-02 4.147014363065719e-01 -2.971401795071728e-01
            4.146791699387399e-01 -2.970982847310125e-01 4.305692731613026e-02 -1.974210110639795e-02 8.111922914697915e-02 2.951722817337146e-02 7.815615611970161e-02 2.155081646914501e-02
            4.303740814078551e-02 -1.977568771681851e-02 4.147202016638164e-01 -2.971372337720184e-01 7.816175493611058e-02 2.159858014397887e-02 8.117677105039010e-02 2.948525358083401e-02
486347500.0000000000 1.021947675887321e-01 2.622166707324456e-02 9.357754466041829e-02 2.913541359991475e-02 2.857533139220846e-01 -4.197455975990902e-01 3.028167451705949e-02 -3.314994958345641e-02
            9.358283501598033e-02 2.919631771187334e-02 1.020732755659347e-01 2.616956854691166e-02 3.026408582184343e-02 -3.314078588478570e-02 2.857233435868328e-01 -4.198864974762569e-01
            2.858244244653364e-01 -4.198449048907203e-01 3.032777462615167e-02 -3.316703113328204e-02 1.022783054456090e-01 2.853484956148543e-02 9.687365183271769e-02 2.070505904543904e-02
            3.031799507445154e-02 -3.313397893576669e-02 2.858198099698249e-01 -4.198193566688339e-01 9.680707701238982e-02 2.071317815331809e-02 1.022220382820160e-01 2.862609719956709e-02
487180000.0000000000 1.168596748865000e-01 1.182358130640845e-02 1.092709840474652e-01 1.726660706320830e-02 1.245977078106894e-01 -4.904591531387809e-01 1.540809030768623e-02 -4.047968865520457e-02
            1.093483228695474e-01 1.721869139544146e-02 1.167777283710710e-01 1.176420876908636e-02 1.538373122307784e-02 -4.035866899953937e-02 1.246095336977358e-01 -4.905090966817287e-01
            1.245512014077220e-01 -4.904443477692276e-01 1.541722512948885e-02 -4.039598471452309e-02 1.180011027924093e-01 1.490499559551693e-02 1.105037654150631e-01 7.697351801643529e-03
            1.544382820063639e-02 -4.033080535898788e-02 1.245113899596236e-01 -4.904359262688438e-01 1.105539213976204e-01 7.645476230735979e-03 1.180065678699767e-01 1.490577607071454e-02
488012500.0000000000 1.191480848557446e-01 -8.889020892007863e-03 1.139561196814209e-01 -1.595552326805439e-03 -4.993813087100832e-02 -5.029514286499859e-01 -4.962367653709530e-05 -4.280818829867196e-02
            1.139362563221355e-01 -1.657949282974985e-03 1.192448204606142e-01 -8.834474896614672e-03 -7.648101545015987e-05 -4.275416609317641e-02 -4.993465565752483e-02 -5.029039972178269e-01
            -4.985566395778700e-02 -5.029260734308729e-01 -2.610447971504648e-05 -4.280862789017298e-02 1.218931395134529e-01 -5.303061522374922e-03 1.127498770882596e-01 -1.138915785801905e-02
            -6.253947832395376e-05 -4.289414454472510e-02 -4.987572472181708e-02 -5.029088899613225e-01 1.127867515111507e-01 -1.134665900361811e-02 1.219022897662246e-01 -5.311370473158533e-03
488845000.0000000000 1.079694714580172e-01 -2.667513613690432e-02 1.057328962720632e-01 -1.917776659114991e-02 -2.187100869379595e-01 -4.564286583518833e-01 -1.599823325767935e-02 -4.073438547600966e-02
            1.057246635660123e-01 -1.914997387212614e-02 1.078889321536943e-01 -2.666894006589741e-02 -1.601237152648504e-02 -4.077447470769489e-02 -2.186834769341090e-01 -4.563702334659119e-01
            -2.186836606523224e-01 -4.564611347837320e-01 -1.603696984918591e-02 -4.064997372177646e-02 1.125366950459597e-01 -2.309694237065164e-02 1.022562151313830e-01 -2.795764841826495e-02
            -1.598333634287233e-02 -4.069837362441589e-02 -2.186766680212014e-01 -4.564745822250423e-01 1.022834346064163e-01 -2.799642784701960e-02 1.125605991675515e-01 -2.302033325046354e-02
489677500.0000000000 8.773467689101998e-02 -3.362306928250307e-02 8.842502015177503e-02 -2.740451755492698e-02 -3.631526117385953e-01 -3.549467174991263e-01 -3.179609923576996e-02 -3.270288134482138e-02
            8.830473136352174e-02 -2.742724342679812e-02 8.769957301573822e-02 -3.367846192087715e-02 -3.173994067049683e-02 -3.275239348153176e-02 -3.632105081981445e-01 -3.548996579830323e-01
            -3.632049409026942e-01 -3.548672928302579e-01 -3.181904102723271e-02 -3.271388855476167e-02 9.451799588721652e-02 -3.079495090929280e-02 8.325282850740592e-02 -3.449009876824659e-02
            -3.181593038936684e-02 -3.273752309326423e-02 -3.631275465911682e-01 -3.549320975529295e-01 8.337850008917563e-02 -3.441574593303093e-02 9.444765760824095e-02 -3.075459494550887e-02
490510000.0000000000 6.743315787928043e-02 -2.621774904052082e-02 7.005960840638754e-02 -2.243952989638727e-02 -4.649734887765068e-01 -2.082545108749206e-01 -4.411208239059931e-02 -1.768674257546724e-02
            7.006067005954422e-02 -2.244555593919885e-02 6.743326679053174e-02 -2.610802236864521e-02 -4.421292956866690e-02 -1.762927702968891e-02 -4.649304410763909e-01 -2.082294918456163e-01
            -4.649850509525184e-01 -2.083301407195632e-01 -4.421636709969392e-02 -1.762897919692495e-02 7.626564795447882e-02 -2.498131020779720e-02 6.442750898794811e-02 -2.753813849299059e-02
            -4.422764799495529e-02 -1.768298164218653e-02 -4.649387720729778e-01 -2.083274464695548e-01 6.439471738482565e-02 -2.757912865888476e-02 7.631456122925330e-02 -2.491101083357511e-02
491342500.0000000000 5.654638861203706e-02 -7.479674541699070e-03 5.965632737688790e-02 -6.910330490240634e-03 -5.091434258965879e-01 -3.379339145950679e-02 -4.897544397979939e-02 2.916872653071661e-03
            5.969065583206376e-02 -6.873051419922687e-03 5.659361485775874e-02 -7.394166375286177e-03 -4.900326322800908e-02 2.974371730558952e-03 -5.091300497900892e-01 -3.379482978589443e-02
            -5.090838571339489e-01 -3.370771210570604e-02 -4.904567289914484e-02 2.891278740560701e-03 6.688276623872103e-02 -8.766811833349266e-03 5.442307625324933e-02 -1.010337996485229e-02
            -4.901615254360064e-02 2.903589778398043e-03 -5.091296767706059e-01 -3.371521726196720e-02 5.448920959786659e-02 -1.024929303982468e-02 6.693714311738287e-02 -8.731849526353124e-03
492175000.0000000000 6.035280953544437e-02 1.363271625807590e-02 6.252438991912732e-02 1.123731801251471e-02 -4.884730293175632e-01 1.453568286765502e-01 -4.338332006597443e-02 2.394373840064416e-02
            6.245648780593079e-02 1.129385596178906e-02 6.038452172217014e-02 1.358892490477381e-02 -4.342147356006466e-02 2.402093535953127e-02 -4.884634145141141e-01 1.453733284702834e-01
            -4.884875418458611e-01 1.454127316801774e-01 -4.348839653884358e-02 2.399069035346711e-02 7.103415577491043e-02 9.000394218825418e-03 5.805485130728393e-02 9.004927601339389e-03
            -4.345427521972291e-02 2.394042543318465e-02 -4.884778155703295e-01 1.454130737792521e-01 5.808228542886696e-02 8.972329430195840e-03 7.104386478705367e-02 9.104933487786177e-03
493007500.0000000000 7.639819695927748e-02 2.671656335093656e-02 7.637292669944695e-02 2.238008331802398e-02 -4.063159764192339e-01 3.046701440843820e-01 -2.915846592621535e-02 3.979186683614450e-02
            7.644420574546662e-02 2.236240516710339e-02 7.639203114092466e-02 2.670957713518413e-02 -2.912858767847130e-02 3.972878589330639e-02 -4.063978892622695e-01 3.046396208490311e-01
            -4.064525778651149e-01 3.046674698785972e-01 -2.905181162758106e-02 3.979361125636297e-02 8.611228313955609e-02 1.891186769086550e-02 7.293367398527553e-02 2.054289984103151e-02
            -2.906990302884114e-02 3.978519268123976e-02 -4.063817233029592e-01 3.046286722487032e-01 7.299200555924150e-02 2.056017683544318e-02 8.611159306010163e-02 1.888724923093809e-02
493840000.0000000000 9.625503281819882e-02 2.623517183477745e-02 9.396859492810869e-02 2.125295549849372e-02 -2.755015512777966e-01 4.241507164986880e-01 -1.055698940357504e-02 4.739723148596513e-02
            9.382385305882096e-02 2.125919473093034e-02 9.624857251677306e-02 2.614974958691901e-02 -1.061107356423743e-02 4.731946156866034e-02 -2.755167239687435e-01 4.242004457540494e-01
            -2.755305895640935e-01 4.242177087071927e-01 -1.057424666969341e-02 4.729881058455313e-02 1.037706912164746e-01 1.599304540815699e-02 9.111858304843667e-02 1.924619388772551e-02
            -1.054081449002026e-02 4.734146261304563e-02 -2.755346395131837e-01 4.241713016177256e-01 9.112997994611907e-02 1.935476444005342e-02 1.037730715117601e-01 1.593609179213418e-02
494672500.0000000000 1.104788434881654e-01 1.338469993884968e-02 1.060094385844450e-01 8.947261155150951e-03 -1.133785337306014e-01 4.913083023331586e-01 8.162031088927268e-03 4.723762995929699e-02
            1.059825536817428e-01 8.942602158486274e-03 1.103966758384836e-01 1.341350190879256e-02 8.026593313822520e-03 4.725781985623147e-02 -1.134057176210964e-01 4.912770278944177e-01
            -1.132861616405040e-01 4.914036648462463e-01 8.206534417124734e-03 4.723240619682201e-02 1.149818290828242e-01 1.959794170406269e-03 1.035008693471251e-01 6.645421122327320e-03
            8.086361555919777e-03 4.725928985525631e-02 -1.132819307703830e-01 4.913499533196475e-01 1.034813959547047e-01 6.624737532636072e-03 1.150393321077836e-01 1.876327605376188e-03
495505000.0000000000 1.127071514482069e-01 -5.061069338975056e-03 1.070705198270669e-01 -8.325880349229825e-03 6.111588495085162e-02 5.001043193071147e-01 2.477528937873360e-02 4.145969004341210e-02
            1.070758276852593e-01 -8.335683481882310e-03 1.126783128927069e-01 -5.098055813634765e-03 2.484938777792768e-02 4.141925930222397e-02 6.110104974229028e-02 5.000596606909231e-01
            6.112807257877127e-02 5.001351936511295e-01 2.483975534739136e-02 4.154157121241051e-02 1.143418115108835e-01 -1.639819135833266e-02 1.043770554350103e-01 -1.087473618271684e-02
            2.478831385231985e-02 4.149117088164377e-02 6.112024692450656e-02 5.001179410688191e-01 1.043698077695266e-01 -1.089217653319300e-02 1.144646142922774e-01 -1.638726926965286e-02
496337500.0000000000 1.022497560515614e-01 -2.015128815416758e-02 9.647701618905029e-02 -2.236667320306828e-02 2.288591621143751e-01 4.496854976578122e-01 3.931651525655824e-02 3.070385445351908e-02
            9.646272467469978e-02 -2.237877156880750e-02 1.022486688138889e-01 -2.020096504968351e-02 3.928640446475212e-02 3.075717271467998e-02 2.287994418628794e-01 4.497092230434501e-01
            2.288797834054243e-01 4.497249260878374e-01 3.939874151698668e-02 3.072754758669009e-02 1.018988479183267e-01 -3.011361439872976e-02 9.350633866705796e-02 -2.468094620224795e-02
            3.925119537325351e-02 3.075512898961019e-02 2.287867464221691e-01 4.497016249838029e-01 9.338446912519344e-02 -2.477433859333756e-02 1.017647035862338e-01 -3.018787034522212e-02
497170000.0000000000 8.423759903022773e-02 -2.446775195405394e-02 7.885169377143207e-02 -2.611054724252254e-02 3.705137313599414e-01 3.443526493832464e-01 5.042370512327837e-02 1.476732669770331e-02
            7.884266156429316e-02 -2.611020437040932e-02 8.416596482029043e-02 -2.443539515398157e-02 5.040540980869512e-02 1.475255394766458e-02 3.705816667901765e-01 3.444419361780825e-01
            3.705412366439322e-01 3.444387116901800e-01 5.038781988851739e-02 1.471012109994225e-02 8.292171100126648e-02 -3.252294269765867e-02 7.579728498705370e-02 -2.822218211270389e-02
            5.042326820643216e-02 1.473868516003767e-02 3.705631461936311e-01 3.444181021708538e-01 7.577615609840554e-02 -2.817148744145583e-02 8.295780859632466e-02 -3.254911853168983e-02
498002500.0000000000 6.767433966323812e-02 -1.528239235235916e-02 6.274908589782399e-02 -1.743525453495944e-02 4.678821820295763e-01 1.951785697204788e-01 5.529074583658530e-02 -6.411060612464919e-03
            6.278300387543261e-02 -1.744195922272444e-02 6.770717552672807e-02 -1.535430785542654e-02 5.528593824932559e-02 -6.329811476862990e-03 4.678378005487797e-01 1.952084919091172e-01
            4.679535128458314e-01 1.952117788751354e-01 5.520716877592827e-02 -6.341545043149404e-03 6.676687501191873e-02 -2.180372419003222e-02 6.007196474042216e-02 -1.889888505732347e-02
            5.528191238333331e-02 -6.334430029167214e-03 4.679805702087821e-01 1.951702202760848e-01 5.998769791441181e-02 -1.903097007381249e-02 6.680627143524981e-02 -2.172748196324045e-02
498835000.0000000000 6.120218346351674e-02 2.988432392331599e-03 5.619150972166034e-02 -1.549830936661569e-04 5.066088279486619e-01 2.020524704125753e-02 5.039429335761240e-02 -2.940891248001736e-02
            5.629358068188717e-02 -1.519244487210143e-04 6.132719005416151e-02 3.085470155271666e-03 5.040371843780835e-02 -2.944318630151007e-02 5.066277874162409e-01 2.021911223296404e-02
            5.066046278150680e-01 2.022498100305610e-02 5.040681256577467e-02 -2.936790691799878e-02 6.172212949451102e-02 -2.889226408956469e-03 5.405225585448574e-02 -1.505815973047163e-03
            5.037266703018076e-02 -2.939209104929934e-02 5.065682227964894e-01 2.023432869996889e-02 5.413493161860133e-02 -1.566760426002340e-03 6.178061984461439e-02 -2.755595959388809e-03
499667500.0000000000 6.883828100297208e-02 2.138219327891972e-02 6.253362288772259e-02 1.719215532330728e-02 4.807923706333879e-01 -1.566848023171107e-01 3.510148288664387e-02 -4.883457361108162e-02
            6.254231998129528e-02 1.719643289685917e-02 6.887373323281573e-02 2.140350986551960e-02 3.503853628089895e-02 -4.881163061570826e-02 4.807628771076656e-01 -1.566972611229251e-01
            4.808396355990849e-01 -1.568021085607771e-01 3.506150278370242e-02 -4.888147136489240e-02 7.070159744786120e-02 1.480567062426818e-02 6.129429658621572e-02 1.516183365768900e-02
            3.507853776373655e-02 -4.887031158862495e-02 4.808594681602965e-01 -1.567351587498908e-01 6.129242852720738e-02 1.515247619423185e-02 7.071037999027437e-02 1.479572369582556e-02
500500000.0000000000 8.672654344899756e-02 3.045924433640705e-02 7.837246596637469e-02 2.585398619767509e-02 3.951206157303352e-01 -3.119384606636343e-01 1.268949969883552e-02 -5.956563716707592e-02
            7.844843295333553e-02 2.591930061915033e-02 8.677644216334390e-02 3.051726860669563e-02 1.274398410356605e-02 -5.953029589183540e-02 3.951815544746542e-01 -3.119780058150839e-01
            3.952000155163438e-01 -3.119271540495699e-01 1.271286534260584e-02 -5.953595286004977e-02 8.915182537129318e-02 2.217517816225383e-02 7.747462709115611e-02 2.278129129891078e-02
            1.267245418640980e-02 -5.950938908427026e-02 3.952225257843345e-01 -3.119136765635542e-01 7.747852080524031e-02 2.283415216905791e-02 8.912124454232426e-02 2.218298184561481e-02
501332500.0000000000 1.063393999525206e-01 2.612729432775014e-02 9.569940098187131e-02 2.230107394369511e-02 2.629328609858173e-01 -4.268049750142751e-01 -1.121950112651166e-02 -5.994098704288142e-02
            9.557420440955411e-02 2.234253770196006e-02 1.063029062137162e-01 2.608698004283766e-02 -1.125745048119102e-02 -5.986235839844758e-02 2.628318310537998e-01 -4.268043265384215e-01
            2.628278766612361e-01 -4.267668206582022e-01 -1.127976427085824e-02 -5.985303858445684e-02 1.080122137415628e-01 1.563855650977309e-02 9.419215059575584e-02 1.768270031868097e-02
            -1.129075055482008e-02 -5.990350171018427e-02 2.628163274073324e-01 -4.268043235773581e-01 9.421204921200797e-02 1.770352040314391e-02 1.079527078142979e-01 1.567585142849460e-02
502165000.0000000000 1.185816527828628e-01 1.049812682545448e-02 1.061134434919653e-01 8.762488154234643e-03 1.009951853344111e-01 -4.895227681439511e-01 -3.240570631150181e-02 -5.166446502636821e-02
            1.060972586871111e-01 8.690560634059104e-03 1.185218626987632e-01 1.047036570890418e-02 -3.235110886016582e-02 -5.162470430756478e-02 1.010816400731131e-01 -4.894088001877646e-01
            1.009450536607083e-01 -4.894774680591299e-01 -3.240147073961876e-02 -5.163405157883347e-02 1.184422613128486e-01 -1.510899253636004e-03 1.033315596985419e-01 2.865938446747871e-03
            -3.236982677381131e-02 -5.172260584627380e-02 1.010157783557423e-01 -4.894579980466814e-01 1.033336360950976e-01 2.881861925345655e-03 1.184510115828735e-01 -1.556886394475722e-03
502997500.0000000000 1.185269016180957e-01 -9.109338173257904e-03 1.052411232027248e-01 -7.947936913605827e-03 -7.196747794080718e-02 -4.942821203561822e-01 -4.910085798593942e-02 -3.765065377388332e-02
            1.052008437042423e-01 -7.922690286117926e-03 1.185316257012578e-01 -9.144449765302971e-03 -4.904971690519212e-02 -3.753081876908588e-02 -7.195916329767756e-02 -4.943255687872374e-01
            -7.196434361918064e-02 -4.943579465162937e-01 -4.912349733640634e-02 -3.758391670384151e-02 1.156389315539345e-01 -2.171466399649479e-02 1.003636585410297e-01 -1.452086862116774e-02
            -4.911926670191797e-02 -3.755838321472306e-02 -7.193384854678221e-02 -4.943114632581820e-01 1.003711885422663e-01 -1.446438276111503e-02 1.156392888208204e-01 -2.175761559859909e-02
503830000.0000000000 1.062828279632937e-01 -2.422087604262231e-02 9.370678894102109e-02 -1.989989036932636e-02 -2.372142630676836e-01 -4.406541372585300e-01 -6.099614615203643e-02 -1.888869779831335e-02
            9.375155043628366e-02 -1.982288268712563e-02 1.062708644655279e-01 -2.411804741822186e-02 -6.101189565316407e-02 -1.893907580086450e-02 -2.371553987527346e-01 -4.406589930645131e-01
            -2.371662544780959e-01 -4.406321857061641e-01 -6.095199580682129e-02 -1.893487449460431e-02 1.005994678671723e-01 -3.586714520830708e-02 8.640035010873050e-02 -2.597495547086740e-02
            -6.094723267190164e-02 -1.892993217264503e-02 -2.372541513886083e-01 -4.405992552613058e-01 8.640529084963756e-02 -2.596275341543256e-02 1.005713625363681e-01 -3.589493049186104e-02
504662500.0000000000 8.764188682157079e-02 -2.792542378079196e-02 7.715899198358131e-02 -2.113909896507178e-02 -3.754621672678834e-01 -3.327952590201542e-01 -6.690453424988699e-02 4.002985857360291e-03
            7.711288171388621e-02 -2.111217026475805e-02 8.753987411949787e-02 -2.791851035704396e-02 -6.690543505757275e-02 3.944507952383252e-03 -3.754815535104635e-01 -3.328750293405210e-01
            -3.753694862888711e-01 -3.328395019302887e-01 -6.687200977446568e-02 3.973590426016547e-03 7.994922735094893e-02 -3.738108330993754e-02 6.759302184447909e-02 -2.567108633236849e-02
            -6.690530483026529e-02 4.005857888596726e-03 -3.753096757021270e-01 -3.328621731052135e-01 6.751396828328865e-02 -2.559591434827548e-02 8.002645369435166e-02 -3.742572233555560e-02
505495000.0000000000 7.125824800715672e-02 -1.870190593843762e-02 6.384211070146423e-02 -1.070862803753758e-02 -4.683797475303465e-01 -1.823851706299944e-01 -6.410711210184324e-02 2.977955111340444e-02
            6.385249705033821e-02 -1.076300022174415e-02 7.132512031076835e-02 -1.871996085651721e-02 -6.426446973730032e-02 2.979186958759010e-02 -4.684317929082714e-01 -1.822496600640788e-01
            -4.683627418955006e-01 -1.823529992657601e-01 -6.418874270404765e-02 2.976956379938946e-02 6.317812316490362e-02 -2.548243571727947e-02 5.284563975420248e-02 -1.267137232598473e-02
            -6.413270345562049e-02 2.984866252716364e-02 -4.683695626440063e-01 -1.823062819935407e-01 5.280140951243396e-02 -1.265415141309317e-02 6.318710317847095e-02 -2.544891551661762e-02
506327500.0000000000 6.540255494056305e-02 -1.394745340413401e-03 6.103994839368825e-02 6.109091334890134e-03 -5.022546278557763e-01 -8.022704716608837e-03 -5.039913117900816e-02 5.444383350738168e-02
            6.108012033355816e-02 6.066826355252165e-03 6.542896502220752e-02 -1.494012454083751e-03 -5.033602951932873e-02 5.448907317149841e-02 -5.023236316735272e-01 -8.077374128946119e-03
            -5.023341347715409e-01 -8.072977365626266e-03 -5.038754239032245e-02 5.441530738415720e-02 5.814486487547308e-02 -5.760548085425201e-03 4.986498937533796e-02 7.153483074047789e-03
            -5.035446076619390e-02 5.445440328056050e-02 -5.022114817836915e-01 -8.051605242667055e-03 4.984159016111685e-02 7.139798354501758e-03 5.815615572807740e-02 -5.823509772328491e-03
507160000.0000000000 7.252248555440734e-02 1.463174907868675e-02 7.063099872227803e-02 2.062341519561871e-02 -4.723060868817816e-01 1.664598093487447e-01 -2.618580067306631e-02 7.208746113840096e-02
            7.056411206680732e-02 2.053493102045578e-02 7.255203729445704e-02 1.472898517057811e-02 -2.619836337777647e-02 7.210529176562171e-02 -4.723408439756972e-01 1.663932493672677e-01
            -4.723416520880072e-01 1.664383085160216e-01 -2.625718165620090e-02 7.207304892093438e-02 6.723896016375466e-02 1.177678199771412e-02 6.038838630560309e-02 2.432866519309147e-02
            -2.627070195244251e-02 7.204142809161709e-02 -4.723028399284876e-01 1.664297518265352e-01 6.037907213431874e-02 2.441128371394520e-02 6.719438411081216e-02 1.178441746523632e-02
507992500.0000000000 8.826746849255054e-02 2.150449610626779e-02 8.750931594473908e-02 2.506559237443050e-02 -3.839661142793406e-01 3.179030228448691e-01 3.363417259312179e-03 7.808932265908182e-02
            8.742844387455016e-02 2.505127854894631e-02 8.819419892608517e-02 2.154560071269412e-02 3.362700163624431e-03 7.807412152671619e-02 -3.840904021362172e-01 3.178157541788827e-01
            -3.840317383681381e-01 3.178063480262053e-01 3.480361360088701e-03 7.810850815446804e-02 8.495867060567097e-02 1.863588743662104e-02 7.916188271028626e-02 3.085250674523676e-02
            3.361183109711601e-03 7.808428603319108e-02 -3.840265144140776e-01 3.178660036729178e-01 7.914666505257804e-02 3.084690245169577e-02 8.498252766745205e-02 1.863479239854451e-02
508825000.0000000000 1.040865548709507e-01 1.609649995263495e-02 1.032001101516985e-01 1.721688728965375e-02 -2.505524452996151e-01 4.284501903672745e-01 3.246806844720646e-02 7.173869652526188e-02
            1.032233438836065e-01 1.726472785521605e-02 1.040720603714715e-01 1.609311526543428e-02 3.239207399150165e-02 7.179378681060036e-02 -2.505750371483600e-01 4.285222457154915e-01
            -2.505318948126500e-01 4.284398613390423e-01 3.238325807371111e-02 7.174304854927864e-02 1.022013428247258e-01 1.211156214708776e-02 9.731074382343650e-02 2.401064779800014e-02
            3.244028852438430e-02 7.175971343688214e-02 -2.505512857011718e-01 4.285035387518360e-01 9.717353924776070e-02 2.404168875356540e-02 1.022667935518301e-01 1.215309345381582e-02
509657500.0000000000 1.121791160016918e-01 1.570961385597451e-03 1.103078132041076e-01 1.026278749974640e-03 -8.899510811576973e-02 4.871161328960613e-01 5.637482206555362e-02 5.579383129974092e-02
            1.103311949929204e-01 9.781758004183490e-04 1.120978273850161e-01 1.535865858903075e-03 5.625056376657315e-02 5.589788817698645e-02 -8.893932233424415e-02 4.870617586733805e-01
            -8.898329467803430e-02 4.871070852051395e-01 5.623590967772947e-02 5.588436625267330e-02 1.106838166511818e-01 -3.859320446879948e-03 1.064705812974666e-01 7.866482867869597e-03
            5.629958326311722e-02 5.586170303818450e-02 -8.893629952455431e-02 4.871174826407020e-01 1.064296713351496e-01 7.811650409333468e-03 1.107437949083703e-01 -3.841645884622894e-03
510490000.0000000000 1.084340547360751e-01 -1.483586881055921e-02 1.052171030833474e-01 -1.614095028746066e-02 8.276809009569906e-02 4.881426542583130e-01 7.318770300272327e-02 3.349671161733805e-02
            1.052332993198775e-01 -1.618676689233340e-02 1.084047220706216e-01 -1.491579263605388e-02 7.312563184638549e-02 3.344544140137960e-02 8.272318221241008e-02 4.881533173920137e-01
            8.273495147338614e-02 4.881452770727307e-01 7.318279183633776e-02 3.349572991077351e-02 1.066041309793555e-01 -2.138425593646888e-02 1.032334451522544e-01 -9.914975532996820e-03
            7.317889487865968e-02 3.352215175911524e-02 8.273299269773261e-02 4.881268765790386e-01 1.031741613483714e-01 -9.926538082081852e-03 1.065834041373828e-01 -2.137528591113250e-02
511322500.0000000000 9.443705902757030e-02 -2.509676729022137e-02 9.015655825040879e-02 -2.642152597329930e-02 2.455106685818955e-01 4.308606529563143e-01 8.256479594532785e-02 6.684827429456796e-03
            9.011846500781072e-02 -2.634651335262163e-02 9.441952059855259e-02 -2.506916339088109e-02 8.256801909580228e-02 6.661159063967751e-03 2.456403991304059e-01 4.309207756654120e-01
            2.456438577952777e-01 4.308198437398790e-01 8.258572292720634e-02 6.672171770401520e-03 9.185729283150187e-02 -3.203522815874892e-02 8.936252866261120e-02 -2.100796623998429e-02
            8.260868542207125e-02 6.583183645206886e-03 2.455916923104525e-01 4.308847210810305e-01 8.944684924519515e-02 -2.102528782562369e-02 9.183281072146891e-02 -3.192341322047415e-02
512155000.0000000000 7.652500040861883e-02 -2.342537099178804e-02 7.174016549911497e-02 -2.439568798540760e-02 3.800559938177911e-01 3.202199639895155e-01 8.302464639478213e-02 -2.337364708605736e-02
            7.171285842548124e-02 -2.440355711094468e-02 7.649578537835086e-02 -2.344540495471742e-02 8.297842855863612e-02 -2.331805743001560e-02 3.800689434532702e-01 3.202258716823005e-01
            3.799917496880079e-01 3.201984962116278e-01 8.301530689216337e-02 -2.347829883183657e-02 7.361411532387697e-02 -3.015110234757075e-02 7.189199008133519e-02 -2.011775928943875e-02
            8.302843169022427e-02 -2.346612787162248e-02 3.800075859642953e-01 3.201656321695912e-01 7.183068246140492e-02 -2.015874351096842e-02 7.358254261377201e-02 -3.016860469750111e-02
512987500.0000000000 6.351240353792337e-02 -1.004908163714969e-02 5.879473602627700e-02 -1.066468836989816e-02 4.678149194262165e-01 1.684828334058535e-01 7.228296806584648e-02 -5.393960251271258e-02
            5.872022620874195e-02 -1.074603868413409e-02 6.349619139456204e-02 -1.002357711505729e-02 7.227293574148863e-02 -5.398424533716351e-02 4.679135381416651e-01 1.684102074411936e-01
            4.678802138229863e-01 1.684525117286491e-01 7.221865818759239e-02 -5.398301386981564e-02 6.100969106280432e-02 -1.643574332313114e-02 5.938586771439587e-02 -7.554211774890649e-03
            7.224883759418849e-02 -5.398189250427603e-02 4.678838736908500e-01 1.684470359906359e-01 5.946088947886929e-02 -7.566040554364534e-03 6.092529964321309e-02 -1.643238990209048e-02
513820000.0000000000 6.240718604067406e-02 9.066320743470462e-03 5.800824158666202e-02 8.251199387588811e-03 4.963162592843898e-01 -4.854252914555787e-03 4.901517619379810e-02 -7.993839301862149e-02
            5.801912557077774e-02 8.220049664084976e-03 6.241397254548510e-02 9.043951232161692e-03 4.905478918141644e-02 -7.994148808681294e-02 4.963250201641208e-01 -4.799635514796339e-03
            4.963821033195845e-01 -4.889887713327070e-03 4.902024990816723e-02 -7.994159129810456e-02 6.082090423155343e-02 2.193817256230945e-03 5.896769990837544e-02 1.008320707540768e-02
            4.905168631680763e-02 -7.993559840527836e-02 4.963095416952696e-01 -4.883276133408126e-03 5.891499894524212e-02 1.020813159172151e-02 6.085631654789855e-02 2.296269016221247e-03
514652500.0000000000 7.403992211620551e-02 2.448781662532305e-02 6.981991000779574e-02 2.294787639261504e-02 4.619140238803300e-01 -1.759990653205175e-01 1.591401217817301e-02 -9.492954343215031e-02
            6.986883845445961e-02 2.293833803397579e-02 7.392832442065680e-02 2.448393833108347e-02 1.587401820321465e-02 -9.502373379507442e-02 4.618731049880300e-01 -1.759931862959395e-01
            4.619081342505501e-01 -1.760058241471610e-01 1.593675051476979e-02 -9.505717527670965e-02 7.343365131322209e-02 1.634346885242476e-02 7.061431142332966e-02 2.371104534470091e-02
            1.594544455807941e-02 -9.496901889627314e-02 4.619007022826597e-01 -1.758985701803385e-01 7.051807961557810e-02 2.363297498260339e-02 7.343701008066507e-02 1.629016441366329e-02
515485000.0000000000 9.259661561464175e-02 2.909189629341339e-02 8.809782044982882e-02 2.637921172233544e-02 3.711078330740545e-01 -3.226981037313674e-01 -2.076720435045010e-02 -9.547182446400551e-02
            8.810639690655717e-02 2.635695644019879e-02 9.252299595991827e-02 2.904870983101611e-02 -2.083226129673228e-02 -9.550890750941435e-02 3.710635593909765e-01 -3.227213686429773e-01
            3.710583707885982e-01 -3.226527139747015e-01 -2.087027845530762e-02 -9.547055510840044e-02 9.233323172462819e-02 1.830798523890162e-02 8.824028041310068e-02 2.594953541020970e-02
            -2.084989494572552e-02 -9.546758818868332e-02 3.710888483472726e-01 -3.227137420816681e-01 8.822121160736132e-02 2.597242953480969e-02 9.236641438108907e-02 1.835645311910608e-02
516317500.0000000000 1.095394588772775e-01 2.107220077568956e-02 1.041278538994395e-01 1.739801161929715e-02 2.371318600872103e-01 -4.284355317030024e-01 -5.429588415488804e-02 -8.191343959844734e-02
            1.042229270624353e-01 1.729750872823011e-02 1.096040009979206e-01 2.102596875752156e-02 -5.423457598297673e-02 -8.198294059895531e-02 2.372706053702188e-01 -4.283045733879250e-01
            2.371511835487824e-01 -4.283146477236586e-01 -5.430066695819335e-02 -8.185199174824595e-02 1.081021022442385e-01 7.118989053361749e-03 1.031944471077671e-01 1.607892001555625e-02
            -5.423450329597233e-02 -8.195027806801954e-02 2.371695074455171e-01 -4.284114544049968e-01 1.032830900197008e-01 1.608028587042293e-02 1.080878416906872e-01 7.102829634206989e-03
517150000.0000000000 1.176735120654728e-01 4.701398511003276e-03 1.105565177061182e-01 2.857696113343738e-04 7.677262449052903e-02 -4.824325378347614e-01 -7.998100603018941e-02 -5.808272167321181e-02
            1.106046802811065e-01 2.745971643993903e-04 1.177230741218025e-01 4.697393540194399e-03 -7.994842475965018e-02 -5.811899361282474e-02 7.674057368403818e-02 -4.824760508419396e-01
            7.670793760027272e-02 -4.825538832222176e-01 -7.987275879334704e-02 -5.802394750267339e-02 1.131066918549876e-01 -1.191304583805469e-02 1.083288466698724e-01 -1.334470615223665e-03
            -7.994975588518770e-02 -5.810793976839849e-02 7.667611511370669e-02 -4.824097618848109e-01 1.083763385179822e-01 -1.342702317781753e-03 1.131109058019992e-01 -1.192780402794767e-02
517982500.0000000000 1.138091012786349e-01 -1.257249901855330e-02 1.048516622164884e-01 -1.674501951739787e-02 -9.261940631136140e-02 -4.798571979470322e-01 -9.611049365418159e-02 -2.779366641006568e-02
            1.048557454874148e-01 -1.677143559752867e-02 1.137432987268747e-01 -1.260093866113131e-02 -9.616467581906631e-02 -2.766690102987426e-02 -9.265495545166484e-02 -4.797986276322799e-01
            -9.252333859419511e-02 -4.798705214616893e-01 -9.610669042058967e-02 -2.772435362649502e-02 1.047307892241250e-01 -3.048574983390599e-02 1.011082168355998e-01 -1.812037910689801e-02
            -9.614463536309586e-02 -2.773504587626616e-02 -9.255889102492239e-02 -4.797825732077078e-01 1.011536396540501e-01 -1.806480546978536e-02 1.046863309126338e-01 -3.041670791102862e-02
518815000.0000000000 1.002303417850918e-01 -2.299999536557288e-02 8.946339028731601e-02 -2.625323353591085e-02 -2.521302670971791e-01 -4.196491193549802e-01 -1.023028554081577e-01 6.556165214089036e-03
            8.946817116423211e-02 -2.621944405684475e-02 1.002635954199696e-01 -2.305593519659609e-02 -1.023758161853421e-01 6.550162530855825e-03 -2.521090700745902e-01 -4.197114726113800e-01
            -2.521349146707662e-01 -4.196676775902600e-01 -1.022909475737362e-01 6.592569105450803e-03 8.605574551627787e-02 -3.993516463387686e-02 8.466810785082463e-02 -2.657228712638485e-02
            -1.022931681227999e-01 6.496157551940177e-03 -2.522935761011612e-01 -4.197146994930331e-01 8.461917589611347e-02 -2.666283553332260e-02 8.604763423840860e-02 -4.003378086995635e-02
519647500.0000000000 8.359184657914528e-02 -2.203034465866808e-02 7.172031600017256e-02 -2.352947106917268e-02 -3.824308737834830e-01 -3.072615006527228e-01 -9.714536452132083e-02 4.264547445449549e-02
            7.168262314401697e-02 -2.355706264177298e-02 8.357274072445077e-02 -2.200814080197194e-02 -9.710572363291727e-02 4.264174563365814e-02 -3.823471041214012e-01 -3.073066292029663e-01
            -3.824008298539518e-01 -3.072784932780200e-01 -9.715009108231537e-02 4.263153257832605e-02 6.509780627516525e-02 -3.569479418457306e-02 6.620808977405783e-02 -2.255730755756307e-02
            -9.709159831882826e-02 4.267525054439588e-02 -3.824208230040909e-01 -3.073372075099656e-01 6.623203462804791e-02 -2.243647788204203e-02 6.510952376166336e-02 -3.571383435377126e-02
520480000.0000000000 7.225032195579136e-02 -1.038784425749529e-02 6.006247158589510e-02 -9.945770788640907e-03 -4.655163969934255e-01 -1.553980999278678e-01 -7.872840604591096e-02 7.702937889260619e-02
            6.006723720471803e-02 -9.898121205179937e-03 7.223995571652843e-02 -1.039351292106775e-02 -7.878510953669847e-02 7.705293043326056e-02 -4.656105183043175e-01 -1.554387649920714e-01
            -4.655812590370567e-01 -1.553664088158921e-01 -7.878937615791552e-02 7.705236037550106e-02 5.149928208350481e-02 -1.935103812663211e-02 5.482822889281532e-02 -7.354547913185070e-03
            -7.871214818073574e-02 7.698839553170043e-02 -4.655578901410978e-01 -1.553727012542986e-01 5.486881375646351e-02 -7.310891634358001e-03 5.146296945858898e-02 -1.921489415754625e-02
521312500.0000000000 7.201887213956358e-02 5.371365236589105e-03 6.026463251239782e-02 7.760559917174623e-03 -4.894705282743248e-01 1.618851572604569e-02 -4.704434610873659e-02 1.036508018525755e-01
            6.029625719637322e-02 7.794748896018925e-03 7.197660150103669e-02 5.329706192732199e-03 -4.713585918310489e-02 1.037501577473303e-01 -4.894746433074627e-01 1.625225990940216e-02
            -4.894952311982670e-01 1.619490415412937e-02 -4.710983953032864e-02 1.037019420584836e-01 5.132972668310142e-02 1.681501783036517e-03 5.627039036070866e-02 1.152602316343421e-02
            -4.708169984762610e-02 1.036572007916185e-01 -4.894943401965520e-01 1.619934798508385e-02 5.618998278783047e-02 1.147133764878668e-02 5.133500974645314e-02 1.575910229125593e-03
522145000.0000000000 8.263233194444820e-02 1.676290582879830e-02 7.194064856787186e-02 2.056198694242990e-02 -4.516891042864832e-01 1.840609432961229e-01 -6.043771307142913e-03 1.164472543172793e-01
            7.196785165940058e-02 2.053247234355471e-02 8.252076047254069e-02 1.679446322966230e-02 -6.024674342050283e-03 1.164602675245945e-01 -4.515116233018040e-01 1.841547512498771e-01
            -4.515483608949113e-01 1.840475647014088e-01 -5.991628769900081e-03 1.163734088370430e-01 6.415100895967782e-02 1.700006066549775e-02 6.942027970187861e-02 2.451182211673767e-02
            -6.034816433857898e-03 1.164567974319029e-01 -4.515934076562239e-01 1.840391067888018e-01 6.950754080687134e-02 2.450851284665197e-02 6.426082665201965e-02 1.703609670304988e-02
522977500.0000000000 9.787808067036564e-02 1.784990901811929e-02 8.874215889173551e-02 2.243463828887763e-02 -3.588261319918790e-01 3.267656775050444e-01 3.725669446921524e-02 1.122236945766019e-01
            8.864873565997435e-02 2.246864328297872e-02 9.792653737841636e-02 1.780854265233157e-02 3.717794189768440e-02 1.122544258807897e-01 -3.587187261190781e-01 3.266894708360564e-01
            -3.587412196500898e-01 3.266819509944200e-01 3.720929991338277e-02 1.121679266043975e-01 8.290765574459134e-02 1.996001653666475e-02 8.741695436990514e-02 2.525861567958360e-02
            3.718218303327474e-02 1.121649403459074e-01 -3.588277909139442e-01 3.267556547129502e-01 8.742819528549878e-02 2.531556265374000e-02 8.294245256085084e-02 1.996576461183942e-02
523810000.0000000000 1.099202986091552e-01 8.261397325857733e-03 1.022370248766861e-01 1.305994647999148e-02 -2.243275811526170e-01 4.281790764528650e-01 7.533849647952943e-02 9.232916131982877e-02
            1.022199425693292e-01 1.301229524642496e-02 1.099439046692936e-01 8.336087236267022e-03 7.528879260905656e-02 9.233677550783992e-02 -2.242749656539989e-01 4.281765136994975e-01
            -2.243595979410000e-01 4.281910616514402e-01 7.535186170965745e-02 9.230063414744619e-02 9.806583186266245e-02 1.017031327841616e-02 1.012439445933146e-01 1.431279119678972e-02
            7.533194566710485e-02 9.233806446256462e-02 -2.243009039869798e-01 4.282171076010908e-01 1.013360182400994e-01 1.415897110330091e-02 9.806049477561825e-02 1.032839450474393e-02
524642500.0000000000 1.126610627721950e-01 -6.947163533309636e-03 1.062102313664114e-01 -2.502156358172747e-03 -6.434053356320370e-02 4.781823267575401e-01 1.035475573073692e-01 6.091570252654794e-02
            1.062099520925944e-01 -2.472328918429547e-03 1.127464723486638e-01 -6.907057100615973e-03 1.034625679963585e-01 6.089848043721341e-02 -6.435903911148091e-02 4.781983287930682e-01
            -6.440867501377001e-02 4.782463116164372e-01 1.035136482208541e-01 6.097434769780614e-02 1.024631944305694e-01 -6.614461731271091e-03 1.042279622658835e-01 -3.178362525964880e-03
            1.035041046540088e-01 6.086497511254003e-02 -6.440935245050707e-02 4.782416717924297e-01 1.041819022627311e-01 -3.219018228446764e-03 1.024876867677081e-01 -6.638344260615923e-03
525475000.0000000000 1.046631186452568e-01 -2.034424595809448e-02 9.903427175357578e-02 -1.659382706895469e-02 1.032607974972501e-01 4.714799193485453e-01 1.198346280331684e-01 2.225265882488051e-02
            9.901467379604197e-02 -1.655966244622591e-02 1.047000661551688e-01 -2.043210233801207e-02 1.198187788546372e-01 2.221541267521487e-02 1.032863833519191e-01 4.714481533545306e-01
            1.033091990579886e-01 4.713883038751971e-01 1.197107117249986e-01 2.231495679175299e-02 9.433543758038422e-02 -2.203711543546101e-02 9.484410734640193e-02 -1.840048518517796e-02
            1.198312249309011e-01 2.224798323268933e-02 1.033232108075927e-01 4.714856031134261e-01 9.486344911679170e-02 -1.841195730914740e-02 9.430473408400164e-02 -2.204051711699695e-02
526307500.0000000000 8.947688941946791e-02 -2.552242935140989e-02 8.453197155599528e-02 -2.231058228593471e-02 2.596355620756049e-01 4.075524044122998e-01 1.229702291546245e-01 -2.036373874993087e-02
            8.446407076992098e-02 -2.230768763710312e-02 8.938538299988000e-02 -2.544007021710662e-02 1.229999880278373e-01 -2.035065192566474e-02 2.595811365210793e-01 4.076089653076720e-01
            2.595863516587528e-01 4.076637370887706e-01 1.229686493237994e-01 -2.036379271789982e-02 7.731797619158361e-02 -2.802000042281791e-02 7.726343557984969e-02 -2.402637756521163e-02
            1.229452869873608e-01 -2.027454460241192e-02 2.596893119277029e-01 4.076209067915256e-01 7.729888253567270e-02 -2.408710838130928e-02 7.733658590884016e-02 -2.795469330593412e-02
527140000.0000000000 7.450551656476140e-02 -1.911331837065969e-02 6.998219972251098e-02 -1.677599963436558e-02 3.850705804582363e-01 2.926986165323551e-01 1.116051625362873e-01 -6.344270209102193e-02
            6.995204004915340e-02 -1.677946164601970e-02 7.437255994044359e-02 -1.916529364337058e-02 1.115365247581065e-01 -6.342048124057349e-02 3.850500653781928e-01 2.926404127500412e-01
            3.851289082516537e-01 2.926402292088399e-01 1.116156265135977e-01 -6.343133218261632e-02 5.990029835579250e-02 -2.082243897638389e-02 5.955127888680530e-02 -1.658629467785358e-02
            1.115641395227499e-01 -6.342393820303922e-02 3.850682883117380e-01 2.926047893785927e-01 5.960650168291024e-02 -1.660582635747605e-02 5.996565875849463e-02 -2.086247712021870e-02
527972500.0000000000 6.738138894929072e-02 -4.036262664045118e-03 6.321396800703941e-02 -2.733637541233653e-03 4.621783898842224e-01 1.403008088064396e-01 8.445227713739141e-02 -1.017421650879199e-01
            6.323315653853766e-02 -2.756272360681667e-03 6.737369335814557e-02 -4.107077100132584e-03 8.444326337344969e-02 -1.017432517413179e-01 4.621821444318424e-01 1.403432908905240e-01
            4.622972151100629e-01 1.402537333724851e-01 8.444109870254432e-02 -1.019007997540370e-01 5.130580908798987e-02 -3.297026453368012e-03 5.059708000847429e-02 9.369236683897208e-04
            8.454939973439297e-02 -1.017116999219770e-01 4.622821770706180e-01 1.403926463451795e-01 5.060040869021191e-02 1.032620580174597e-03 5.132492562918201e-02 -3.262232673255566e-03
528805000.0000000000 7.213136040916951e-02 1.196025774715971e-02 6.814847257545509e-02 1.228975503787008e-02 4.803937188633983e-01 -2.893889529167569e-02 4.321012265008167e-02 -1.285789018039000e-01
            6.818899184135205e-02 1.219883162514610e-02 7.209967458153806e-02 1.181587613711858e-02 4.320317814079849e-02 -1.285237118978563e-01 4.803359132730142e-01 -2.891063759607433e-02
            4.804038854717354e-01 -2.898964571716913e-02 4.314970520614254e-02 -1.285362442336744e-01 5.630856415203282e-02 1.626882934284807e-02 5.500709470846412e-02 2.048218754985101e-02
            4.311107162878498e-02 -1.285016450951834e-01 4.803784315636710e-01 -2.888918886263848e-02 5.492220348646481e-02 2.039971251331841e-02 5.624024522879233e-02 1.621770473046973e-02
529637500.0000000000 8.646446711746755e-02 2.067488012144734e-02 8.215933861964392e-02 1.980756659383549e-02 4.383985852891338e-01 -1.921316351935088e-01 -6.367531098579748e-03 -1.376845987059480e-01
            8.225815566395775e-02 1.979863161017833e-02 8.642865057712716e-02 2.067450086951817e-02 -6.327522945262990e-03 -1.376888308669153e-01 4.384160096000234e-01 -1.921381829215724e-01
            4.383803065321840e-01 -1.921105363622995e-01 -6.360118440885144e-03 -1.377057940975773e-01 7.269376374617914e-02 2.818029498673064e-02 7.051588316412848e-02 3.263674703935102e-02
            -6.334075465913235e-03 -1.376352370295368e-01 4.384547244257778e-01 -1.921568767113331e-01 7.055279119495184e-02 3.261384504004831e-02 7.266926803313328e-02 2.819566348599324e-02
530470000.0000000000 1.030943146018046e-01 1.791757935922893e-02 9.814764054523889e-02 1.571884110820924e-02 3.439625851253260e-01 -3.292158631150258e-01 -5.575670745302905e-02 -1.272921110499883e-01
            9.811269871242119e-02 1.562315075313311e-02 1.030541029145009e-01 1.782761574375939e-02 -5.579504837919206e-02 -1.272396956402487e-01 3.438595767293189e-01 -3.292616027402789e-01
            3.439564317381933e-01 -3.291795020456804e-01 -5.573093167356610e-02 -1.273221251044830e-01 9.287234261415377e-02 2.698536356978949e-02 8.964366814333817e-02 3.230257668252830e-02
            -5.574998250803633e-02 -1.272825443623293e-01 3.439234028808818e-01 -3.291955865724123e-01 8.961119523680885e-02 3.222936031485226e-02 9.292970139376251e-02 2.690961256084748e-02
531302500.0000000000 1.140271147801476e-01 4.886147789650055e-03 1.077081659150391e-01 1.513890878722282e-03 2.100647460786678e-01 -4.252562340076660e-01 -9.735761011446184e-02 -1.000496898780374e-01
            1.077510778751892e-01 1.574969125722779e-03 1.139918116547598e-01 4.825857191509965e-03 -9.734858450505303e-02 -1.000512035255169e-01 2.100372125387484e-01 -4.252815621407777e-01
            2.100816112085467e-01 -4.253449064857163e-01 -9.729301049434608e-02 -1.000585514094712e-01 1.076082831373922e-01 1.356804405114393e-02 1.035041334820355e-01 2.059764685664456e-02
            -9.738566132944246e-02 -1.000968114058753e-01 2.100574359553832e-01 -4.252771743046585e-01 1.035530732975143e-01 2.052462342227259e-02 1.077135615796583e-01 1.354088760088522e-02
532135000.0000000000 1.140944450373649e-01 -1.230790491540777e-02 1.059775128951108e-01 -1.610768506028999e-02 5.227904958099155e-02 -4.707609373387066e-01 -1.265471588523873e-01 -6.093686235902307e-02
            1.059181843148544e-01 -1.616183837009788e-02 1.140675974155703e-01 -1.231958478363709e-02 -1.265501531380207e-01 -6.092686416202482e-02 5.229640278561280e-02 -4.707542717053330e-01
            5.225615371909704e-02 -4.708409735896356e-01 -1.265297569235711e-01 -6.085874958842478e-02 1.106570456200398e-01 -5.736443521669335e-03 1.065882043898086e-01 3.485532147147849e-03
            -1.265342927791581e-01 -6.092343710389793e-02 5.227220987525210e-02 -4.708085257344652e-01 1.065483108649028e-01 3.539658172248277e-03 1.107139513155652e-01 -5.740936228045633e-03
532967500.0000000000 1.032038663714095e-01 -2.572187678639605e-02 9.284208845234784e-02 -2.951200066617808e-02 -1.122107828466715e-01 -4.606192376289420e-01 -1.413986412551201e-01 -1.468999413584411e-02
            9.287268628648931e-02 -2.947311623412141e-02 1.031158676004671e-01 -2.580035254620815e-02 -1.414726837416437e-01 -1.465691802330181e-02 -1.121653646656809e-01 -4.606650224138931e-01
            -1.121646226742237e-01 -4.605667670095444e-01 -1.415014854092815e-01 -1.462446329530535e-02 1.009975224826932e-01 -2.242386675740892e-02 9.804507305940445e-02 -1.071942358903244e-02
            -1.413706995084837e-01 -1.467362681941608e-02 -1.121991521730471e-01 -4.605954055951802e-01 9.805770397856702e-02 -1.066940961247429e-02 1.009831774798336e-01 -2.234961449788601e-02
533800000.0000000000 8.601474428052505e-02 -2.919720047323754e-02 7.353868023500262e-02 -3.180902587165451e-02 -2.644478982021190e-01 -3.943281555624894e-01 -1.409821915719526e-01 3.484404723048013e-02
            7.356820248870535e-02 -3.173544894891331e-02 8.601005575791040e-02 -2.920963127904057e-02 -1.408730877386168e-01 3.478978519156613e-02 -2.645296217932779e-01 -3.942638114288345e-01
            -2.644728599931302e-01 -3.943356189851585e-01 -1.408652132781373e-01 3.482135268527044e-02 8.317956530565454e-02 -2.899111373992300e-02 8.257218208980482e-02 -1.530388302652473e-02
            -1.409108886516298e-01 3.480578485967083e-02 -2.644736164503769e-01 -3.943619647821306e-01 8.257142686664622e-02 -1.525277209082054e-02 8.317755259872481e-02 -2.888165455885859e-02
534632500.0000000000 7.059054869951542e-02 -2.075812993793404e-02 5.655946590780556e-02 -2.128930263641469e-02 -3.850748861032524e-01 -2.782908677325316e-01 -1.234773731125831e-01 8.338486773616775e-02
            5.662918589354175e-02 -2.129142905137326e-02 7.058972002628194e-02 -2.066858164873637e-02 -1.234158157304495e-01 8.336682705275998e-02 -3.851293347018011e-01 -2.783320012957467e-01
            -3.850515647025689e-01 -2.783073520685743e-01 -1.234808601571428e-01 8.337684658753368e-02 6.558183062112835e-02 -2.250672502190012e-02 6.816234211770558e-02 -7.938964976096138e-03
            -1.234642509047423e-01 8.337384858019979e-02 -3.849920818525422e-01 -2.783053524219479e-01 6.814049855479944e-02 -8.062101019367747e-03 6.567776915420606e-02 -2.257214191746680e-02
535465000.0000000000 6.457248314916741e-02 -4.392360415425755e-03 5.000415811801374e-02 -2.263631421261314e-03 -4.570264946451289e-01 -1.267091964151449e-01 -8.862079686151343e-02 1.247529855693164e-01
            5.005204972607836e-02 -2.309667512689472e-03 6.451869124229644e-02 -4.390946066855707e-03 -8.859085714710990e-02 1.248066495774652e-01 -4.570803751622181e-01 -1.267523559585105e-01
            -4.570282712750349e-01 -1.267603247916054e-01 -8.863050217686576e-02 1.246755705302547e-01 5.688843377886196e-02 -6.307968219686441e-03 6.280269565706503e-02 7.605354175171304e-03
            -8.858009763100241e-02 1.246762318432786e-01 -4.570128379485170e-01 -1.267508343438117e-01 6.267486972487551e-02 7.560696227773972e-03 5.681256166783387e-02 -6.374723655829511e-03
536297500.0000000000 7.075666956484533e-02 1.158115250761482e-02 5.676396380965187e-02 1.621559647881873e-02 -4.706905648014393e-01 3.972769755648021e-02 -3.904802252592459e-02 1.513135114141998e-01
            5.684093156344666e-02 1.626257865873767e-02 7.079702549452893e-02 1.159832863333858e-02 -3.908232389154629e-02 1.513197318886569e-01 -4.707053643323764e-01 3.977921411246151e-02
            -4.706668360301363e-01 3.976286239202075e-02 -3.905096212536750e-02 1.513570802773386e-01 6.090976894581642e-02 1.094713939421044e-02 6.946718660663133e-02 2.306631859273587e-02
            -3.903298810973457e-02 1.512955822617814e-01 -4.706341866113201e-01 3.968427654139452e-02 6.950814387519784e-02 2.311729387201530e-02 6.091302632426039e-02 1.088148319519851e-02
537130000.0000000000 8.576065339010538e-02 1.894258237082178e-02 7.339042876683113e-02 2.578115886984437e-02 -4.255687481804986e-01 1.988095016938958e-01 1.804407156968535e-02 1.573868250822539e-01
            7.349009477428425e-02 2.582828399129266e-02 8.564040405936940e-02 1.907030731889310e-02 1.799357813811521e-02 1.574895403349186e-01 -4.256139228523605e-01 1.987197245024227e-01
            -4.256569370224461e-01 1.987106447559858e-01 1.798273663634282e-02 1.574183997331739e-01 7.490710294396903e-02 2.063307874586344e-02 8.529658825982761e-02 3.039789990451597e-02
            1.790217186509764e-02 1.574997805291211e-01 -4.256440514119237e-01 1.986875229145814e-01 8.524731236433074e-02 3.040755245708250e-02 7.497411057513027e-02 2.055414318897272e-02
537962500.0000000000 1.015635400182595e-01 1.451775811478997e-02 9.159956706735452e-02 2.249122099335085e-02 -3.297910758345111e-01 3.310309210102167e-01 7.321940064936970e-02 1.418457880214540e-01
            9.156525135394050e-02 2.248810324298585e-02 1.015075183155901e-01 1.448478796161107e-02 7.323125499866757e-02 1.419139700065886e-01 -3.298687716356677e-01 3.309457274078865e-01
            -3.297991864462637e-01 3.310100710479232e-01 7.328770884686059e-02 1.418908131405072e-01 9.117184504365698e-02 1.846428141796526e-02 1.022064883426208e-01 2.563952948512249e-02
            7.331952319682347e-02 1.418797163631283e-01 -3.298669699307920e-01 3.309338190459004e-01 1.021830512787976e-01 2.571549776894365e-02 9.120742166487962e-02 1.843905901355119e-02
538795000.0000000000 1.100143356323482e-01 7.236352348559250e-04 1.027932665457982e-01 8.512292615303750e-03 -1.961795268638107e-01 4.222993171066399e-01 1.186846854340495e-01 1.080118154696001e-01
            1.028267985439402e-01 8.643626030722874e-03 1.100188260769217e-01 7.801034561126853e-04 1.186799360161744e-01 1.078902457040032e-01 -1.962146817114395e-01 4.222856235183975e-01
            -1.962489360589120e-01 4.223134731674583e-01 1.186856417031582e-01 1.079227560162998e-01 1.015910841247688e-01 6.144526803245593e-03 1.123190543806127e-01 1.132815615617412e-02
            1.187172438599492e-01 1.079428558555871e-01 -1.961648151474602e-01 4.222821551045784e-01 1.123097196876828e-01 1.136122224036063e-02 1.015678273194520e-01 6.035984060855666e-03
539627500.0000000000 1.073122666328936e-01 -1.538239794780825e-02 1.019678888703248e-01 -8.946198855149794e-03 -4.008137676636982e-02 4.634504825556102e-01 1.495116586191047e-01 6.116990601254364e-02
            1.021138389497121e-01 -8.947924564311656e-03 1.073153570998744e-01 -1.532045424894459e-02 1.494919420867147e-01 6.116173086840145e-02 -4.000287735357717e-02 4.634940185616645e-01
            -4.007552202228691e-02 4.635127178725048e-01 1.495421661059663e-01 6.122590003735819e-02 1.009098346591301e-01 -9.966139229354640e-03 1.110704841938614e-01 -6.010129685071195e-03
            1.494781425966232e-01 6.115946673409958e-02 -4.010160155505273e-02 4.634752743851326e-01 1.111961071993125e-01 -6.070735215195766e-03 1.009333343521303e-01 -9.911852268157715e-03
540460000.0000000000 9.444786094439357e-02 -2.590326203754163e-02 8.998621323625972e-02 -2.174719236034480e-02 1.215151423967223e-01 4.493251355101864e-01 1.634861988676408e-01 6.901045026622219e-03
            9.014021448847473e-02 -2.165005526457339e-02 9.428299183906916e-02 -2.597784017336120e-02 1.635685097751102e-01 6.859170273652510e-03 1.214897756856413e-01 4.493377183177802e-01
            1.215122259803817e-01 4.492968866433467e-01 1.635526388167282e-01 6.915512167719780e-03 8.944951871347491e-02 -2.162031954185516e-02 9.942799652658105e-02 -1.848875392793653e-02
            1.634799018201544e-01 6.908962685386334e-03 1.215669116508281e-01 4.493301720821259e-01 9.942743256913758e-02 -1.848148020116057e-02 8.950389595688668e-02 -2.170073034344600e-02
541292500.0000000000 7.691936654782897e-02 -2.538787649713089e-02 7.221318660336032e-02 -2.338671206956185e-02 2.695364002561303e-01 3.800065956054685e-01 1.591553084033461e-01 -5.013209267740346e-02
            7.231564205896780e-02 -2.342709895896456e-02 7.691594174142606e-02 -2.533961798258580e-02 1.590349122336552e-01 -5.006084862518470e-02 2.695490171702900e-01 3.800946415181629e-01
            2.695583410336991e-01 3.800364847221206e-01 1.590352469119130e-01 -5.014130325104078e-02 7.261208382505482e-02 -2.286524160479450e-02 8.282136276417296e-02 -2.010826648976987e-02
            1.591052614759170e-01 -5.012767782906000e-02 2.695722153191965e-01 3.800998123836765e-01 8.287773578250986e-02 -2.020169037139653e-02 7.257406103722441e-02 -2.280655666238347e-02
542125000.0000000000 6.374246803015077e-02 -1.309310229769215e-02 5.736472472792583e-02 -1.301151097635234e-02 3.845577034513547e-01 2.625316099505737e-01 1.350395697327023e-01 -1.044203514416055e-01
            5.736280379562798e-02 -1.302008853003785e-02 6.370386144236966e-02 -1.299685366287039e-02 1.348956991588239e-01 -1.043667665128829e-01 3.845713201029505e-01 2.626354147854528e-01
            3.845408956479051e-01 2.624922338621701e-01 1.349228540582075e-01 -1.044755593816793e-01 5.853823249799203e-02 -1.223899033563710e-02 6.957815976805312e-02 -1.047838023161109e-02
            1.349707622544541e-01 -1.044763839900891e-01 3.845111489989249e-01 2.626754038025700e-01 6.957723222033661e-02 -1.046206686081152e-02 5.844938810267103e-02 -1.225440914652008e-02
542957500.0000000000 6.171465902883529e-02 5.247987180546901e-03 5.290396620695113e-02 4.803860025302241e-03 4.505433103246613e-01 1.120386769468788e-01 9.151304578756593e-02 -1.485130008795155e-01
            5.285006701655677e-02 4.846380565804345e-03 6.171184136400659e-02 5.331559850913903e-03 9.150572490801233e-02 -1.484999527394441e-01 4.505110279119754e-01 1.119930590368294e-01
            4.505017794135379e-01 1.120102671581240e-01 9.150696757143827e-02 -1.484478337778306e-01 5.472076129699016e-02 5.487740979093994e-03 6.659283996800597e-02 5.557911296377523e-03
            9.149469713700879e-02 -1.483859490039878e-01 4.504896807035759e-01 1.120184861673355e-01 6.663015744901957e-02 5.568325189096167e-03 5.463923404639603e-02 5.443804104078033e-03
543790000.0000000000 7.241268805018082e-02 2.080030895151818e-02 6.094726485248893e-02 2.116005337275896e-02 4.591029961972273e-01 -5.086121614086757e-02 3.318812537479538e-02 -1.741719100302374e-01
            6.086854400144020e-02 2.117437516894145e-02 7.235012411671454e-02 2.074353353270820e-02 3.323487619171175e-02 -1.741323441449252e-01 4.590350499867828e-01 -5.089420168481308e-02
            4.589931876155126e-01 -5.090174795335141e-02 3.318594545693968e-02 -1.741792799141637e-01 6.332093273265485e-02 2.148586613128249e-02 7.577916447316299e-02 1.911958017765586e-02
            3.325682021060632e-02 -1.742082220059199e-01 4.590746411409604e-01 -5.086749065042152e-02 7.570147464400688e-02 1.913043126195548e-02 6.334637840906418e-02 2.154178622883026e-02
544622500.0000000000 9.064659322687767e-02 2.571968449026884e-02 7.702184070319221e-02 2.832535741565834e-02 4.109057851153643e-01 -2.047024329700943e-01 -3.115429158326381e-02 -1.763690123358240e-01
            7.705680053994271e-02 2.834953683789658e-02 9.060973091557835e-02 2.566427302580887e-02 -3.122478704229950e-02 -1.764028530893706e-01 4.108590649637215e-01 -2.046810297494004e-01
            4.108427068621839e-01 -2.047667417805515e-01 -3.125196011714542e-02 -1.763774308170210e-01 8.006845285738917e-02 2.812306299383786e-02 9.191238859851759e-02 2.286976140914884e-02
            -3.121073113391356e-02 -1.763160349618711e-01 4.108773917901059e-01 -2.046640802703711e-01 9.187865066687309e-02 2.293786266488654e-02 7.998846113451721e-02 2.818912745967481e-02
545455000.0000000000 1.076664158683312e-01 1.781393825723054e-02 9.337078791656105e-02 2.356045820279077e-02 3.142409654538542e-01 -3.312251412310436e-01 -9.182738542133546e-02 -1.548181039493802e-01
            9.331456388835049e-02 2.363829437571879e-02 1.076046387070960e-01 1.783074588657119e-02 -9.173304124236810e-02 -1.548497211531460e-01 3.142843783112870e-01 -3.311430898588252e-01
            3.142601583455698e-01 -3.311721048948316e-01 -9.174944560498659e-02 -1.548553164888556e-01 9.662609813225535e-02 2.278301574445319e-02 1.067540406801277e-01 1.458867546479353e-02
            -9.174764510926925e-02 -1.548123932668713e-01 3.142688008767077e-01 -3.311671771974518e-01 1.067539751680339e-01 1.472323609563094e-02 9.655122329068445e-02 2.275420374823228e-02
546287500.0000000000 1.156826693288297e-01 1.045052853501716e-03 1.021894621842587e-01 1.004221252901880e-02 1.817952046634802e-01 -4.173743877209915e-01 -1.401862655079905e-01 -1.139481425683653e-01
            1.021793391299610e-01 9.998212355318926e-03 1.156334361716050e-01 1.054079493234214e-03 -1.402375146253505e-01 -1.139649050701351e-01 1.818223739039432e-01 -4.172945965009666e-01
            1.818172214125590e-01 -4.173284507364582e-01 -1.401502854988831e-01 -1.139447569294077e-01 1.054751585566846e-01 8.344179482240650e-03 1.128785402636966e-01 -1.751040703114428e-03
            -1.402739642686789e-01 -1.139785775752402e-01 1.817790331572799e-01 -4.173452488257884e-01 1.128747131869346e-01 -1.860060613364779e-03 1.054986954792655e-01 8.424308537668186e-03
547120000.0000000000 1.111931136237652e-01 -1.709084220745905e-02 9.990233309431340e-02 -5.329147875133540e-03 2.825346537983409e-02 -4.540065666031166e-01 -1.718456709327880e-01 -5.970510939004588e-02
            9.984526411745873e-02 -5.393142728955753e-03 1.112456668500085e-01 -1.702362772122039e-02 -1.717341758265968e-01 -5.969989728181528e-02 2.821165051739153e-02 -4.539944656143356e-01
            2.822364112524962e-02 -4.539891067839213e-01 -1.717530188679824e-01 -5.978020425256515e-02 1.028704348654627e-01 -7.853772651422180e-03 1.069576807615171e-01 -1.883794404393069e-02
            -1.718313431883359e-01 -5.966564178515447e-02 2.821110559453004e-02 -4.540380937522097e-01 1.069610276358388e-01 -1.880833397928057e-02 1.028979190490274e-01 -7.747993971853588e-03
547952500.0000000000 9.630591134580394e-02 -2.816594455436027e-02 8.804781357938425e-02 -1.490911170342572e-02 -1.297132414478231e-01 -4.364882548804358e-01 -1.841335076032216e-01 2.083338787664544e-03
            8.807802118050054e-02 -1.496292451737171e-02 9.630293789780185e-02 -2.823437449397237e-02 -1.841411148171875e-01 2.057779415787239e-03 -1.297273461630586e-01 -4.363733108535928e-01
            -1.297029228032543e-01 -4.364137106194325e-01 -1.841257801849047e-01 2.156562832142472e-03 9.024129558253252e-02 -1.808205153288662e-02 9.106033731714878e-02 -2.875708552988160e-02
            -1.842292433494913e-01 2.137071744775648e-03 -1.297224113478027e-01 -4.363703986824156e-01 9.112165834406127e-02 -2.884458797982730e-02 9.031961366955032e-02 -1.807165627169619e-02
548785000.0000000000 7.768321055667951e-02 -2.722073578976833e-02 7.255474975865744e-02 -1.379493521184814e-02 -2.728733635667925e-01 -3.647591874431502e-01 -1.754961231693968e-01 6.599387752085405e-02
            7.262464260423886e-02 -1.377469973477033e-02 7.766710880182577e-02 -2.724908600026315e-02 -1.754885932787260e-01 6.600833289380920e-02 -2.729034139222820e-01 -3.646776546505109e-01
            -2.728489133937025e-01 -3.647814756782808e-01 -1.755087801431889e-01 6.593486804446409e-02 7.385081926788571e-02 -1.715653890487576e-02 7.205404030926763e-02 -2.636681915695857e-02
            -1.754739215145611e-01 6.596988201393819e-02 -2.728432218183595e-01 -3.647440115818070e-01 7.202877542112060e-02 -2.640718201647155e-02 7.388478599803359e-02 -1.710101314593708e-02
549617500.0000000000 6.417608063039390e-02 -1.431372155405732e-02 6.189654875011451e-02 -1.978116789472180e-03 -3.821395255086273e-01 -2.467240035613703e-01 -1.446947793168787e-01 1.252948093915722e-01
            6.196191307999955e-02 -2.021675957937934e-03 6.413947837264088e-02 -1.434575165328135e-02 -1.446937111503937e-01 1.253248600179039e-01 -3.822131782617407e-01 -2.466866970382142e-01
            -3.821370545692944e-01 -2.466939396722900e-01 -1.447001461957546e-01 1.252614356747154e-01 6.228327607300943e-02 -5.090682557632255e-03 5.881990918726833e-02 -1.219049483099864e-02
            -1.447325397619393e-01 1.253252458262568e-01 -3.821577868684117e-01 -2.466870281728943e-01 5.882081775769780e-02 -1.216265784919452e-02 6.215183426244886e-02 -5.096858364996407e-03
550450000.0000000000 6.250015790083498e-02 4.099887569294691e-03 6.214604592464717e-02 1.455781711321584e-02 -4.423439369028240e-01 -9.799981507793139e-02 -9.304807720009269e-02 1.713003356763435e-01
            6.209419781535757e-02 1.456519528778553e-02 6.259057767117240e-02 4.058272441929494e-03 -9.307571000071502e-02 1.713626081881102e-01 -4.423460955833004e-01 -9.797458820597812e-02
            -4.423492664649659e-01 -9.801796556517252e-02 -9.309883269680168e-02 1.713560245229060e-01 6.168997154221845e-02 1.211891359025006e-02 5.782207706667231e-02 7.183620326663288e-03
            -9.307124989061127e-02 1.713439191867317e-01 -4.422989544597802e-01 -9.796849347243085e-02 5.770145807486118e-02 7.157911754231647e-03 6.170387062668425e-02 1.211582139185730e-02
551282500.0000000000 7.324766838098754e-02 1.858346364791805e-02 7.378027230414416e-02 2.716363702155991e-02 -4.462006678582104e-01 6.086356459059212e-02 -2.656738014201450e-02 1.958498115282865e-01
            7.377282752788283e-02 2.712183243936493e-02 7.323996323352126e-02 1.859704679182233e-02 -2.659917641354010e-02 1.957786142664775e-01 -4.462317974347934e-01 6.092475738747965e-02
            -4.462378408407193e-01 6.090360279041666e-02 -2.657249778086125e-02 1.958214423760811e-01 7.301236211232388e-02 2.556505175783369e-02 6.930663878581016e-02 2.249200145288678e-02
            -2.653642939958221e-02 1.958805918668762e-01 -4.462330562200102e-01 6.092450341656844e-02 6.937963038129702e-02 2.239340772254642e-02 7.304870939151661e-02 2.557226399242566e-02
552115000.0000000000 9.055899086177481e-02 2.224452080495247e-02 9.107253869632208e-02 2.912724530358035e-02 -3.954671369630881e-01 2.092915615501400e-01 4.479552033780228e-02 1.938830375610271e-01
            9.108829699467604e-02 2.917174550618894e-02 9.059147957829722e-02 2.222073040999934e-02 4.486460618908757e-02 1.938597358225242e-01 -3.954027264173022e-01 2.093287309771565e-01
            -3.954499650436898e-01 2.092432582597094e-01 4.486471658072683e-02 1.939111138470901e-01 9.046299415855474e-02 2.836495576647747e-02 8.775020670058323e-02 2.653322959431555e-02
            4.486131836684498e-02 1.939434783420984e-01 -3.954896328550118e-01 2.092741386246729e-01 8.769549999740497e-02 2.652220585695349e-02 9.054011997975790e-02 2.846637919506460e-02
552947500.0000000000 1.055949149723805e-01 1.356854254991141e-02 1.058613193246730e-01 1.952628069313805e-02 -2.986042504232393e-01 3.301919324784928e-01 1.101653803254962e-01 1.664907871545471e-01
            1.058675760952582e-01 1.956884380523768e-02 1.055707000405130e-01 1.360578642848047e-02 1.101840353888351e-01 1.665004270856818e-01 -2.985580914784768e-01 3.301053861581934e-01
            -2.985702799060579e-01 3.301262567514039e-01 1.101884207424084e-01 1.664673144903045e-01 1.058188415419482e-01 1.941558690710355e-02 1.039107570417915e-01 1.801168476342184e-02
            1.101634759204846e-01 1.665472889050188e-01 -2.986067008806676e-01 3.301200209916503e-01 1.038965937365983e-01 1.804413401923962e-02 1.057836679250287e-01 1.952112089759634e-02
553780000.0000000000 1.111654868038477e-01 -2.816939636074188e-03 1.113369018829814e-01 2.748797979040050e-03 -1.676561264429741e-01 4.110885164715606e-01 1.611838428054661e-01 1.187309002143393e-01
            1.112943986371639e-01 2.757446158154695e-03 1.112549866670542e-01 -2.769769522806429e-03 1.612485260633517e-01 1.187374986015559e-01 -1.676741237780039e-01 4.110456103403088e-01
            -1.676118791991048e-01 4.110978236527787e-01 1.612687050573144e-01 1.188117560156355e-01 1.117403122207366e-01 3.007713754970235e-03 1.106581759219952e-01 1.531230494006292e-03
            1.612817489649002e-01 1.187343719166990e-01 -1.676540312503594e-01 4.110769933696133e-01 1.107819324142395e-01 1.513720188720326e-03 1.116563887070197e-01 3.027201588783937e-03
554612500.0000000000 1.045341214365005e-01 -1.903760929336703e-02 1.049355195519936e-01 -1.366741878122085e-02 -1.694464532434201e-02 4.434805470915402e-01 1.932651265043529e-01 5.721875131430638e-02
            1.049045735790080e-01 -1.366249471759481e-02 1.045247809955826e-01 -1.906890720312155e-02 1.932887695754556e-01 5.725037122123935e-02 -1.696598125509682e-02 4.434537600098025e-01
            -1.686479850173810e-02 4.434244321561772e-01 1.932673079480091e-01 5.718176294503363e-02 1.058312336747925e-01 -1.324955315694882e-02 1.054489760882286e-01 -1.520021567074686e-02
            1.933258416298853e-01 5.731330939963436e-02 -1.690978029514086e-02 4.434824748660693e-01 1.054825104410605e-01 -1.520062507490658e-02 1.059131133002964e-01 -1.334214836612071e-02
555445000.0000000000 8.848175340569124e-02 -2.740243859024950e-02 8.960031614104727e-02 -2.217802070559417e-02 1.368928421330860e-01 4.225463194914825e-01 2.036861915349895e-01 -1.183754097471753e-02
            8.953887507332113e-02 -2.220653749388326e-02 8.847738203996713e-02 -2.732406096816899e-02 2.036685614158784e-01 -1.187413533910207e-02 1.368799664601666e-01 4.225362314109532e-01
            1.369304614884095e-01 4.225564888418473e-01 2.036322765752304e-01 -1.186016113761494e-02 9.101618802160247e-02 -2.184075632883093e-02 9.070303604760349e-02 -2.443943661082399e-02
            2.036142680109833e-01 -1.194156020998446e-02 1.368938315461082e-01 4.225501204115982e-01 9.076494852049308e-02 -2.444824849231482e-02 9.107970396999128e-02 -2.190497599653009e-02
556277500.0000000000 7.021758179623806e-02 -2.304364678769185e-02 7.226047763309279e-02 -1.874691880161425e-02 2.749963025601500e-01 3.489245006829066e-01 1.905108036944848e-01 -8.209521827742859e-02
            7.228669309474303e-02 -1.869394803666151e-02 7.022779567114940e-02 -2.309351850995004e-02 1.905458204959025e-01 -8.204604225773222e-02 2.750265729769654e-01 3.489623511344995e-01
            2.749884508309853e-01 3.489709275750874e-01 1.904977521672935e-01 -8.212760884118842e-02 7.416440079256116e-02 -1.850270592180553e-02 7.365369771674034e-02 -2.170091120816351e-02
            1.905187756449669e-01 -8.201893855113154e-02 2.749481809518969e-01 3.488215622527555e-01 7.364998311077919e-02 -2.169999093566094e-02 7.415876499783845e-02 -1.847009605180105e-02
557110000.0000000000 5.878197574395324e-02 -7.496986239115767e-03 6.153433719032317e-02 -4.527788801362966e-03 3.784887619287562e-01 2.309088646858191e-01 1.531017175637679e-01 -1.458375012843213e-01
            6.159137811852463e-02 -4.497344403155210e-03 5.872394688980816e-02 -7.537442270265435e-03 1.530652333015352e-01 -1.458350909233546e-01 3.784705566634645e-01 2.308561429518776e-01
            3.784086165319119e-01 2.308556290586282e-01 1.530386006436945e-01 -1.456991114110035e-01 6.402674898514372e-02 -4.511100437247985e-03 6.296458748538127e-02 -8.359472837993837e-03
            1.530561274887279e-01 -1.457466676881411e-01 3.784335196455424e-01 2.308754751198583e-01 6.295295223834746e-02 -8.374149578028562e-03 6.390929773813461e-02 -4.551226634280380e-03
557942500.0000000000 5.983467189497134e-02 1.201592751977873e-02 6.304663156542246e-02 1.333618358415444e-02 4.330251217256836e-01 8.438848592363388e-02 9.350526711308225e-02 -1.933667184419033e-01
            6.295160215003648e-02 1.326414469069712e-02 5.986838062824290e-02 1.201819794103839e-02 9.346316479738839e-02 -1.933400698908033e-01 4.330251478442765e-01 8.435926493819768e-02
            4.330222106094638e-01 8.437145972652883e-02 9.349569038503719e-02 -1.934109053894553e-01 6.598716436534720e-02 1.273333774426711e-02 6.409591107980106e-02 8.631598436545191e-03
            9.344135164146053e-02 -1.933026529903273e-01 4.330380130224835e-01 8.437830090890029e-02 6.414593344720369e-02 8.630272719691801e-03 6.592691629648477e-02 1.278301951281911e-02
558775000.0000000000 7.322116847408165e-02 2.620604702670182e-02 7.590107227389678e-02 2.566292697107331e-02 4.325083354835330e-01 -7.015985158139258e-02 1.921265851807834e-02 -2.162553988643872e-01
            7.586826747278091e-02 2.566258835027216e-02 7.311714623249913e-02 2.612035591513174e-02 1.923287518785654e-02 -2.162324999717141e-01 4.325054719142299e-01 -7.014073154298558e-02
            4.326027491728611e-01 -7.016059988343970e-02 1.923801722477898e-02 -2.162418778250165e-01 7.914854950705227e-02 2.436472755108805e-02 7.630012776839779e-02 2.035454570458437e-02
            1.928452960989457e-02 -2.162608939195929e-01 4.325341167166264e-01 -7.012248942356097e-02 7.630191380538208e-02 2.032717734822785e-02 7.917011181457187e-02 2.449403431943569e-02
559607500.0000000000 9.201325900330527e-02 2.866853881102936e-02 9.371091131425811e-02 2.665290256565484e-02 3.796749475288184e-01 -2.129361248884554e-01 -5.847581032288918e-02 -2.102804753604458e-01
            9.368868524921845e-02 2.659868983048467e-02 9.192564764224401e-02 2.860136791852139e-02 -5.846981561937404e-02 -2.102903269098244e-01 3.796114910702144e-01 -2.129338942318850e-01
            3.795893492119580e-01 -2.129311354116705e-01 -5.845495723555334e-02 -2.102798273517900e-01 9.705272702862910e-02 2.426325377238660e-02 9.324453215966272e-02 2.071994734463696e-02
            -5.840479500960899e-02 -2.102767575454217e-01 3.795486998849539e-01 -2.128297724698500e-01 9.327172348698712e-02 2.073538931268317e-02 9.709051425081190e-02 2.430878682153394e-02
560440000.0000000000 1.075335502927090e-01 1.887790184971574e-02 1.080188840407607e-01 1.603887661090371e-02 2.826265334016478e-01 -3.280844454617278e-01 -1.282819745201471e-01 -1.771615314771855e-01
            1.078672008499835e-01 1.595199707300604e-02 1.075122148295368e-01 1.890846201804480e-02 -1.282988543004794e-01 -1.771111411536326e-01 2.826762373132493e-01 -3.280860110634798e-01
            2.827091608861938e-01 -3.280279231042839e-01 -1.283020298601566e-01 -1.771591483957485e-01 1.107269107770218e-01 1.250546240919161e-02 1.061941678309955e-01 9.854661493256575e-03
            -1.283358189814331e-01 -1.771474803853374e-01 2.826988471038592e-01 -3.280981280401443e-01 1.062532049755875e-01 9.871794153225952e-03 1.107392159488747e-01 1.255330148607314e-02
561272500.0000000000 1.130962109552055e-01 2.159473477407039e-03 1.121356098242804e-01 -1.074080591021582e-03 1.534353140643867e-01 -4.038339776174064e-01 -1.818565998556416e-01 -1.227801844997452e-01
            1.121155359378935e-01 -1.057371825874626e-03 1.131432875582325e-01 2.084594145214805e-03 -1.817276288142246e-01 -1.227211018048952e-01 1.535486205083531e-01 -4.038421802548043e-01
            1.535091657488740e-01 -4.038461815336229e-01 -1.817983860169905e-01 -1.226627346996127e-01 1.138097994943689e-01 -5.595122721982771e-03 1.090199695232325e-01 -7.038303134233184e-03
            -1.817822402204926e-01 -1.226980721815806e-01 1.535220858654892e-01 -4.038626026372201e-01 1.090318343831653e-01 -7.093147153986469e-03 1.137408874975569e-01 -5.603185828942159e-03
562105000.0000000000 1.066904704671655e-01 -1.367349135023012e-02 1.047601446660725e-01 -1.679386916409923e-02 5.934362394746803e-03 -4.319674505422199e-01 -2.140668294276556e-01 -5.408159900491925e-02
            1.047123563431154e-01 -1.671715803908691e-02 1.065729744290509e-01 -1.369877282648974e-02 -2.140647751793015e-01 -5.398217685942553e-02 5.988455773509226e-03 -4.319602530253213e-01
            6.064177130593530e-03 -4.319453307044132e-01 -2.139822390935892e-01 -5.393178916066876e-02 1.045440362119963e-01 -2.180388696708921e-02 1.003171401202909e-01 -2.206231878632399e-02
            -2.140589762673667e-01 -5.404101601933264e-02 5.991800691909657e-03 -4.319059591041725e-01 1.001735115678929e-01 -2.208065879097068e-02 1.046163413320515e-01 -2.182369913233596e-02
562937500.0000000000 9.149895070749299e-02 -2.130657782743881e-02 8.892264594052890e-02 -2.419257239940242e-02 -1.434900081464565e-01 -4.077955429153645e-01 -2.222019938389684e-01 2.201023322908995e-02
            8.900332126120213e-02 -2.413178187663950e-02 9.144691798391828e-02 -2.141100046201391e-02 -2.222416907686835e-01 2.205089155194340e-02 -1.434200509946345e-01 -4.078251625652047e-01
            -1.434779114320333e-01 -4.078729675123219e-01 -2.223078422824196e-01 2.207110201007789e-02 8.690703805143947e-02 -2.861722729534428e-02 8.354159383715305e-02 -2.809803932262429e-02
            -2.222200850958003e-01 2.209409140290085e-02 -1.434703397396531e-01 -4.078790516237962e-01 8.350896408060608e-02 -2.812213217339731e-02 8.687613195168439e-02 -2.865048973651345e-02
563770000.0000000000 7.516225231404190e-02 -1.679926131477280e-02 7.251049276250285e-02 -1.941980992163582e-02 -2.760172332716282e-01 -3.325319641913489e-01 -2.045035999082209e-01 9.825751916681373e-02
            7.251400226573865e-02 -1.954660149436278e-02 7.515493673800472e-02 -1.674219649412457e-02 -2.044414373498984e-01 9.831088827781333e-02 -2.759567514478296e-01 -3.325620447713158e-01
            -2.759488809797110e-01 -3.325932606543949e-01 -2.045026074560794e-01 9.829578244880270e-02 6.866943361734455e-02 -2.249582960324512e-02 6.664306013934407e-02 -2.175987070754292e-02
            -2.044694582974010e-01 9.838699273656636e-02 -2.759794297384890e-01 -3.325851537958071e-01 6.663090616761862e-02 -2.168224156784119e-02 6.868811693130605e-02 -2.258143027741990e-02
564602500.0000000000 6.611390989033435e-02 -2.201378944714027e-03 6.325895193262646e-02 -5.205876322294105e-03 -3.735033644181496e-01 -2.149993135957491e-01 -1.602152589506868e-01 1.659277470190856e-01
            6.326584782893040e-02 -5.163787606375766e-03 6.610337117698883e-02 -2.268032863568285e-03 -1.603165358748486e-01 1.659093057587420e-01 -3.735343527380554e-01 -2.149615253679844e-01
            -3.734949703695143e-01 -2.149173959608881e-01 -1.603072798869615e-01 1.659465988895510e-01 5.879414277461113e-02 -5.944770090468274e-03 5.798433129616289e-02 -5.856687753207409e-03
            -1.603296755179446e-01 1.659430271359815e-01 -3.735353921528767e-01 -2.149873234955546e-01 5.800936325551172e-02 -5.838697944426706e-03 5.873818282458369e-02 -6.009059523006157e-03
565435000.0000000000 6.924320334224782e-02 1.489438660986720e-02 6.607703276716062e-02 1.129350439079453e-02 -4.226142631985814e-01 -7.127636550110725e-02 -9.308349357999837e-02 2.146013380187307e-01
            6.608998510108906e-02 1.128888497181512e-02 6.931724405447176e-02 1.482161593814898e-02 -9.304816345504249e-02 2.145906391024163e-01 -4.226082231073174e-01 -7.124322542746542e-02
            -4.225193162309328e-01 -7.122003544434835e-02 -9.307949378474122e-02 2.145978276561916e-01 6.206064010113960e-02 1.294899342188194e-02 6.193893748877072e-02 1.171391776775530e-02
            -9.310140202347882e-02 2.145564890057424e-01 -4.225877035895894e-01 -7.129280901652492e-02 6.200430837150877e-02 1.178840410605451e-02 6.190723764655800e-02 1.292800321240460e-02
566267500.0000000000 8.313427636651527e-02 2.565202480338673e-02 7.904416215296182e-02 2.154090695087164e-02 -4.181500920579754e-01 7.863093489860028e-02 -1.146583868655100e-02 2.356468245785427e-01
            7.912290489800783e-02 2.160220201100024e-02 8.309179670956307e-02 2.552498467649485e-02 -1.149627428571002e-02 2.356899111336665e-01 -4.181282564097460e-01 7.863644824410994e-02
            -4.181700504964199e-01 7.859503248821545e-02 -1.152353246414586e-02 2.357075824104498e-01 7.649750202765757e-02 2.496936234100640e-02 7.649378774992222e-02 2.219822085242945e-02
            -1.149858784668643e-02 2.356904951221281e-01 -4.180289855844643e-01 7.858471434637392e-02 7.646079418911632e-02 2.210925285700214e-02 7.649069443150923e-02 2.497843458458502e-02
567100000.0000000000 1.007100667347885e-01 2.469587221587303e-02 9.545266983315266e-02 2.051690645647383e-02 -3.634393527632009e-01 2.156907240078084e-01 7.219133537260389e-02 2.256360828838257e-01
            9.547359516236964e-02 2.047720768833854e-02 1.006666601333366e-01 2.470855654108301e-02 7.217278711544760e-02 2.256211790222847e-01 -3.633405699121676e-01 2.157454967750699e-01
            -3.632931859651132e-01 2.157116229702930e-01 7.221452973240784e-02 2.255725146923441e-01 9.490922755363614e-02 2.464318361597869e-02 9.400050436905934e-02 2.042417760278769e-02
            7.214588527358037e-02 2.256177394055634e-01 -3.633322574837308e-01 2.157265770669095e-01 9.408563204638756e-02 2.038299990811837e-02 9.495902287682245e-02 2.463826674293450e-02
567932500.0000000000 1.135775910089637e-01 1.284500567999576e-02 1.069706197926848e-01 9.022816421595442e-03 -2.665594807779997e-01 3.252377366145697e-01 1.461812785948485e-01 1.870215637643073e-01
            1.070291035181925e-01 9.048265923402989e-03 1.135153795194471e-01 1.273902742831877e-02 1.462247269925555e-01 1.869769593976375e-01 -2.666675752002833e-01 3.252357902256408e-01
            -2.666488613568961e-01 3.252805777248001e-01 1.462634076018611e-01 1.869830676077343e-01 1.084156479187250e-01 1.262590701536202e-02 1.060578468583382e-01 7.551256485831587e-03
            1.462056345137910e-01 1.870637932914408e-01 -2.667026676237761e-01 3.253061978422810e-01 1.060709986530887e-01 7.569592925616995e-03 1.084200359692755e-01 1.261950740463012e-02
568765000.0000000000 1.158783249769541e-01 -4.434323752276004e-03 1.084000365849098e-01 -7.195960957432659e-03 -1.392807390409659e-01 3.958394083156130e-01 2.019773503578185e-01 1.259828682905954e-01
            1.083399993507714e-01 -7.169862831367182e-03 1.159223164482707e-01 -4.470058937231762e-03 2.020005128835506e-01 1.260609525765851e-01 -1.393980749416407e-01 3.958664979148380e-01
            -1.392949831640788e-01 3.957876818982046e-01 2.020942951937539e-01 1.259934527410807e-01 1.109984992952463e-01 -4.905104118210117e-03 1.068679643921856e-01 -1.002278169205100e-02
            2.019687398539098e-01 1.259751499736065e-01 -1.393699022657803e-01 3.958378703299841e-01 1.068687354485579e-01 -1.004341624073841e-02 1.109566258638950e-01 -4.903676466953788e-03
569597500.0000000000 1.067221983464610e-01 -1.918042055842588e-02 9.885499478880967e-02 -2.047520764465741e-02 4.881636765193017e-03 4.195791993167428e-01 2.343735044773248e-01 5.031807931237228e-02
            9.888491406636341e-02 -2.045319135843124e-02 1.067632586184772e-01 -1.916442957954231e-02 2.344336021521576e-01 5.021193524342504e-02 4.902930010379109e-03 4.196212850712701e-01
            4.856137964001746e-03 4.195836561145683e-01 2.343235936899238e-01 5.026138157808035e-02 1.015927972739655e-01 -1.983147479952627e-02 9.606351782411005e-02 -2.423425568997406e-02
            2.343730652485786e-01 5.029856884340469e-02 4.899845260528918e-03 4.195886594744853e-01 9.604770241154544e-02 -2.429625407085189e-02 1.015268180039328e-01 -1.985386142581940e-02
570430000.0000000000 9.041781222421207e-02 -2.465310480697965e-02 8.304862510310014e-02 -2.438906064932331e-02 1.494406760544174e-01 3.921720458473323e-01 2.402876919992669e-01 -3.284004561129446e-02
            8.296916975550342e-02 -2.437875209882457e-02 9.040919598926710e-02 -2.457369680086949e-02 2.401841146022982e-01 -3.279155427654993e-02 1.495720821705472e-01 3.921705711062658e-01
            1.495295047120079e-01 3.921893545799778e-01 2.402302237777970e-01 -3.281171305959012e-02 8.457099719493369e-02 -2.496675100652631e-02 7.824299523163873e-02 -2.828272902681382e-02
            2.401912242239420e-01 -3.285574111071900e-02 1.495276305026970e-01 3.922363368496434e-01 7.823009975248554e-02 -2.825715449110127e-02 8.453501974955074e-02 -2.493285694456134e-02
571262500.0000000000 7.442866983732005e-02 -1.793463777381207e-02 6.827804615125387e-02 -1.682224495422431e-02 2.762623174496197e-01 3.153865589154828e-01 2.174728597156406e-01 -1.149194017640808e-01
            6.825621413184095e-02 -1.676804480687916e-02 7.441038408608143e-02 -1.802305154250384e-02 2.175808352704491e-01 -1.149765111745425e-01 2.762924226663039e-01 3.153810631430872e-01
            2.763121990990884e-01 3.154310605465332e-01 2.175437453531479e-01 -1.148875864010254e-01 6.828947309619211e-02 -1.737113485908435e-02 6.171586942796112e-02 -1.972333200704345e-02
            2.174812137762226e-01 -1.149543933028491e-01 2.762574553000757e-01 3.154082824637577e-01 6.165731162259018e-02 -1.973515699533213e-02 6.834115257129898e-02 -1.738752848437934e-02
572095000.0000000000 6.698860682734994e-02 -2.493273330953424e-03 6.248899760210093e-02 -1.287134316791002e-03 3.674052570770474e-01 1.985343430074505e-01 1.664202804172021e-01 -1.861598327447734e-01
            6.250759071564835e-02 -1.331574667638653e-03 6.698010799999246e-02 -2.466502582773976e-03 1.664052807474825e-01 -1.861952614605198e-01 3.674029160308178e-01 1.986032147543724e-01
            3.674987985972070e-01 1.985261965515989e-01 1.664004536561380e-01 -1.862065969285374e-01 6.103737623230977e-02 -7.334416320826047e-04 5.454512404044532e-02 -2.370205792404564e-03
            1.664825114838749e-01 -1.861864877329869e-01 3.674139469464380e-01 1.985475634934764e-01 5.452632647494884e-02 -2.400876960498876e-03 6.099359930695822e-02 -7.310914102127845e-04
572927500.0000000000 7.176905114893295e-02 1.390605594773070e-02 6.886991418310232e-02 1.415045965007273e-02 4.108242437138180e-01 5.820191942300856e-02 9.144861072459232e-02 -2.354196890145172e-01
            6.881544035548333e-02 1.417533475201425e-02 7.173193308601271e-02 1.394757293762642e-02 9.144610552318330e-02 -2.353446729832385e-01 4.107892970963447e-01 5.820575775210038e-02
            4.107766740070538e-01 5.818628112289306e-02 9.140267986774686e-02 -2.354074080226067e-01 6.685449134338366e-02 1.677763779294661e-02 6.050760750246430e-02 1.527813345647975e-02
            9.140081749483206e-02 -2.354087864674471e-01 4.107545142870824e-01 5.817859512441773e-02 6.044221773119745e-02 1.534419821229204e-02 6.683479889780110e-02 1.686205519592066e-02
573760000.0000000000 8.604815925329708e-02 2.273755628839209e-02 8.392814427192594e-02 2.143270679553117e-02 4.025581185843266e-01 -8.640717301755260e-02 2.825430504238875e-03 -2.542233466872165e-01
            8.394315355035099e-02 2.145620739256724e-02 8.608308017157747e-02 2.279045646391249e-02 2.796237894733978e-03 -2.542139084728999e-01 4.025683968775594e-01 -8.632210479107418e-02
            4.025356644035119e-01 -8.638701066824564e-02 2.774727419192125e-03 -2.542355318230472e-01 8.288185115405922e-02 2.629239276905037e-02 7.606683213589648e-02 2.480760299587155e-02
            2.845577793709610e-03 -2.542391707532709e-01 4.025098739672531e-01 -8.642639660291428e-02 7.613570634872299e-02 2.477687316247457e-02 8.275884197617397e-02 2.622446158226696e-02
574592500.0000000000 1.024852982344655e-01 2.000822822118144e-02 1.002455188690484e-01 1.665044155519035e-02 3.462099579694969e-01 -2.175233107606189e-01 -8.635333312286465e-02 -2.398413135437571e-01
            1.001995783994908e-01 1.663341798501949e-02 1.024691439016702e-01 2.002737728718006e-02 -8.645595680274866e-02 -2.399625950227908e-01 3.462888832027202e-01 -2.174658756070243e-01
            3.462364817034878e-01 -2.174299871517669e-01 -8.647630133768976e-02 -2.398556600478564e-01 1.011693991176588e-01 2.322556665687454e-02 9.362619492974883e-02 2.185350065063452e-02
            -8.645937043836159e-02 -2.398814966375330e-01 3.463175722675855e-01 -2.174776672429314e-01 9.362371119221545e-02 2.178847596639100e-02 1.011567576181782e-01 2.315264273576529e-02
575425000.0000000000 1.131141083673626e-01 7.240445482009463e-03 1.097305104166529e-01 2.194656207221293e-03 2.502000980096952e-01 -3.210546115636997e-01 -1.642375156936516e-01 -1.955130560608205e-01
            1.097123990192038e-01 2.160359857846774e-03 1.131209438504616e-01 7.335070884908422e-03 -1.641860503389939e-01 -1.955551761919636e-01 2.502246735566917e-01 -3.210168770311215e-01
            2.501237986769649e-01 -3.210267636495767e-01 -1.641112230058116e-01 -1.954791198751486e-01 1.134514050878271e-01 9.078312699713285e-03 1.047900199234138e-01 8.598059996811033e-03
            -1.641661964306302e-01 -1.955105366613777e-01 2.501870054654598e-01 -3.210419037918176e-01 1.048573077535885e-01 8.546469004110399e-03 1.134068224737236e-01 9.070989366254794e-03
576257500.0000000000 1.129697955256699e-01 -9.334142820993891e-03 1.079217016989297e-01 -1.553879836415449e-02 1.253330300759480e-01 -3.864434564148743e-01 -2.217495190182813e-01 -1.281119508171248e-01
            1.078972971137870e-01 -1.557046707481216e-02 1.129892357377981e-01 -9.374788833786719e-03 -2.217240134260117e-01 -1.279958453463070e-01 1.253661919145246e-01 -3.865007534129365e-01
            1.253211494648235e-01 -3.864446085544176e-01 -2.217082839572916e-01 -1.280671899564936e-01 1.142649920925162e-01 -9.334973136875186e-03 1.047871070158320e-01 -8.407143724646566e-03
            -2.217498078759924e-01 -1.280717801826103e-01 1.254252361550101e-01 -3.864061111660292e-01 1.048110329043743e-01 -8.423277756802964e-03 1.142060634600135e-01 -9.288785584565187e-03
577090000.0000000000 1.020894379748389e-01 -2.213499135892682e-02 9.498255547006934e-02 -2.854029606578451e-02 -1.491397037897238e-02 -4.060084954339630e-01 -2.537198271305034e-01 -4.550015518968475e-02
            9.492824768015573e-02 -2.860426861502408e-02 1.020357303587791e-01 -2.207323142700207e-02 -2.536211162459004e-01 -4.548935210482087e-02 -1.488387299048515e-02 -4.060037524954426e-01
            -1.492849754970714e-02 -4.059417751175526e-01 -2.537325633010203e-01 -4.540476962089170e-02 1.034541528562807e-01 -2.413184548653568e-02 9.382199621084701e-02 -2.106099824210641e-02
            -2.536820094483784e-01 -4.545624790086313e-02 -1.488875076781361e-02 -4.059283184998350e-01 9.391416382584254e-02 -2.114996160584582e-02 1.034426607765153e-01 -2.404153249339390e-02
577922500.0000000000 8.520178528728174e-02 -2.478499814205401e-02 7.637276468824607e-02 -3.082534313232422e-02 -1.545227856424739e-01 -3.758283382204244e-01 -2.568189944755063e-01 4.399232846806898e-02
            7.632472569008016e-02 -3.078484805481503e-02 8.525791116700429e-02 -2.476629044868833e-02 -2.568741989666875e-01 4.407508568676026e-02 -1.544346504536085e-01 -3.757854112538484e-01
            -1.544994975011380e-01 -3.758419725837361e-01 -2.568737200233687e-01 4.410501136819368e-02 8.613549272126970e-02 -2.877611766699913e-02 7.724559094397186e-02 -2.357775098357581e-02
            -2.567120579781854e-01 4.411049125093959e-02 -1.544746090141487e-01 -3.758566308114816e-01 7.726498675676696e-02 -2.358260708688337e-02 8.603987047087409e-02 -2.874012769896725e-02
578755000.0000000000 7.049614034869094e-02 -1.573131412789987e-02 6.030706554865349e-02 -2.074193535839377e-02 -2.752132998358979e-01 -2.981042349893560e-01 -2.291950213867751e-01 1.313582854805099e-01
            6.029697547036125e-02 -2.071595648938918e-02 7.051573165590352e-02 -1.579376324068900e-02 -2.292247562024542e-01 1.314006594406378e-01 -2.752197237516865e-01 -2.980629040626309e-01
            -2.751520194905221e-01 -2.980984333257530e-01 -2.290949608067070e-01 1.314039849549939e-01 7.020580973021660e-02 -2.130987814408881e-02 6.324807844309199e-02 -1.444727423529197e-02
            -2.290939363779804e-01 1.313289241248309e-01 -2.751827441962788e-01 -2.980937569871592e-01 6.328573851425827e-02 -1.441404520728889e-02 7.029497271353656e-02 -2.124514641762147e-02
579587500.0000000000 6.510228220817867e-02 8.311781441851687e-04 5.414964232449725e-02 -2.847445348196439e-03 -3.601552351188234e-01 -1.826640891964717e-01 -1.714126077421146e-01 2.055720380158437e-01
            5.424165905953161e-02 -2.819871520299539e-03 6.504479533462058e-02 8.319138565678572e-04 -1.713952371368651e-01 2.056265465140270e-01 -3.600832607856482e-01 -1.826381126254453e-01
            -3.601833928215412e-01 -1.825959767743933e-01 -1.714844682116098e-01 2.056114916652912e-01 6.359896317988396e-02 -5.735455652482791e-03 5.896042138230444e-02 1.762933567514472e-03
            -1.714251419161024e-01 2.055732205415145e-01 -3.601568522145042e-01 -1.826302869351182e-01 5.904075049159031e-02 1.716066076431485e-03 6.364215780479276e-02 -5.811426078470932e-03
580420000.0000000000 7.182387755556646e-02 1.677630430121220e-02 6.076562572519141e-02 1.430978573336790e-02 -3.983714802135742e-01 -4.584183007938666e-02 -8.941584594539574e-02 2.551506696431671e-01
            6.073860162271395e-02 1.427412881598279e-02 7.186102600379637e-02 1.682231970184031e-02 -8.940056165002511e-02 2.551962135855383e-01 -3.984056131251521e-01 -4.586748420750995e-02
            -3.984106662876344e-01 -4.586488740905186e-02 -8.940807234911097e-02 2.551461832439119e-01 6.898742976716525e-02 9.422793344480080e-03 6.685807717267388e-02 1.649773075973303e-02
            -8.948119542412765e-02 2.551391538158762e-01 -3.984246138097545e-01 -4.590153947118559e-02 6.681717675192499e-02 1.646657717348177e-02 6.902358708412239e-02 9.382164985114239e-03
581252500.0000000000 8.715852952148180e-02 2.453610918043855e-02 7.610617056539005e-02 2.285694493833190e-02 -3.867901101314632e-01 9.355948397206888e-02 5.741278406446565e-03 2.719680550606189e-01
            7.613801514345821e-02 2.280398694125762e-02 8.708439990365133e-02 2.453777531574559e-02 5.712018007986433e-03 2.718253171764047e-01 -3.867763003768211e-01 9.349296988822395e-02
            -3.867434746777038e-01 9.357916165806195e-02 5.803326774892092e-03 2.718227055966337e-01 8.290805748761619e-02 1.644477548583670e-02 8.240109433031551e-02 2.188971264708249e-02
            5.695668819997354e-03 2.718853183721275e-01 -3.867064508955586e-01 9.362210569199765e-02 8.237706618588216e-02 2.182980694253159e-02 8.285724759593746e-02 1.640615376535861e-02
582085000.0000000000 1.032893120710209e-01 2.059642731046314e-02 9.251225079087166e-02 1.946605486570440e-02 -3.291256995813050e-01 2.188713240117803e-01 1.003512652733087e-01 2.535009214506700e-01
            9.249142181627394e-02 1.940726894439770e-02 1.032725499416942e-01 2.064454591278781e-02 1.003446944265587e-01 2.535204436489413e-01 -3.291464085382209e-01 2.188360011272393e-01
            -3.290864781898487e-01 2.187557161794327e-01 1.003112585242930e-01 2.535984312005730e-01 9.748192634440929e-02 1.201512112013227e-02 9.778455112565289e-02 1.539143396370926e-02
            1.003496770092011e-01 2.535891672215710e-01 -3.290937925979633e-01 2.188023285778987e-01 9.765399322370048e-02 1.540476729856317e-02 9.749904343792611e-02 1.202026136480246e-02
582917500.0000000000 1.129310378967523e-01 7.627459095784617e-03 1.020985562800162e-01 6.848685705588806e-03 -2.336774230152235e-01 3.167370425102837e-01 1.819118368860296e-01 2.038458769373937e-01
            1.021435555534783e-01 6.883943921402882e-03 1.129434307610487e-01 7.665443648731481e-03 1.819138306823559e-01 2.038702801777472e-01 -2.336326407280018e-01 3.167907403007219e-01
            -2.336514051489192e-01 3.167279066900563e-01 1.819643182112912e-01 2.038371649450920e-01 1.051691421027007e-01 -1.462697288103328e-03 1.047702434550776e-01 2.584369540183753e-04
            1.819471331661116e-01 2.038742101395661e-01 -2.336769453114705e-01 3.166862678016557e-01 1.047669396287371e-01 1.788424796379658e-04 1.051426431734348e-01 -1.479468319121624e-03
583750000.0000000000 1.120751223792993e-01 -7.838133494761281e-03 1.011152254914373e-01 -8.374973922477966e-03 -1.109271250226081e-01 3.768009761820647e-01 2.414975262775683e-01 1.298678336725045e-01
            1.011455347857488e-01 -8.418007258954498e-03 1.120437303278634e-01 -7.806715140629065e-03 2.415635535027112e-01 1.298650005149297e-01 -1.109364105107945e-01 3.768227237160310e-01
            -1.109025665441911e-01 3.768559244995661e-01 2.415756372248872e-01 1.300190337193540e-01 1.018661925055798e-01 -1.712965213865091e-02 1.000310614313409e-01 -1.647322360823327e-02
            2.416121901637485e-01 1.299048364607143e-01 -1.109155171111694e-01 3.768204474077653e-01 1.001225759556034e-01 -1.633770826331433e-02 1.018378473763936e-01 -1.712628794983558e-02
584582500.0000000000 1.014087980493712e-01 -1.865025096816968e-02 9.046963187773800e-02 -1.894386860001604e-02 2.557050492008948e-02 3.917822718188400e-01 2.733493972015379e-01 4.022101288430193e-02
            9.037590059645140e-02 -1.881353168445726e-02 1.014537960736792e-01 -1.866314755340824e-02 2.733963911866648e-01 4.012956729636861e-02 2.566731477540908e-02 3.917865607525816e-01
            2.555499209105490e-02 3.918051566679752e-01 2.733669805352431e-01 4.012914506929757e-02 8.832757169749893e-02 -2.733100609374830e-02 8.524020468804192e-02 -2.639029451274210e-02
            2.733372838418313e-01 4.024622088658579e-02 2.553898792271187e-02 3.917953344092944e-01 8.529539712644899e-02 -2.634198386053015e-02 8.840648331422840e-02 -2.744546018591962e-02
585415000.0000000000 8.669434574802945e-02 -1.962794106916267e-02 7.557155988081478e-02 -1.942403566262789e-02 1.597196421365063e-01 3.581696340809499e-01 2.735278744899390e-01 -5.629692258603405e-02
            7.553945269218192e-02 -1.945822908070150e-02 8.662700608232893e-02 -1.956869195925700e-02 2.735216252623263e-01 -5.634525645736185e-02 1.596035156904718e-01 3.581886939844058e-01
            1.597100005645463e-01 3.581225475645995e-01 2.735389931280727e-01 -5.630085579986187e-02 7.062219846750066e-02 -2.650292995719870e-02 6.670110587466646e-02 -2.452869130761894e-02
            2.735259010782683e-01 -5.622230564115230e-02 1.596409683871574e-01 3.581762303709433e-01 6.671168968260915e-02 -2.441519561968653e-02 7.061560842053864e-02 -2.650254713056504e-02
586247500.0000000000 7.536761460237293e-02 -1.041097245590404e-02 6.422285096995617e-02 -9.666001825113089e-03 2.735757487253545e-01 2.792220330157344e-01 2.401295060049047e-01 -1.490581012513783e-01
            6.418670218400337e-02 -9.617137970056951e-03 7.533022206466387e-02 -1.040598743313839e-02 2.401242255181547e-01 -1.491208899965116e-01 2.735537877232769e-01 2.791274942998218e-01
            2.735374733725862e-01 2.791802074594157e-01 2.401244038273807e-01 -1.490862468681851e-01 5.708738107223047e-02 -1.412423741064989e-02 5.321492219452625e-02 -1.070306381295740e-02
            2.401497043824963e-01 -1.490544897856741e-01 2.735306932090610e-01 2.790903999592351e-01 5.326630733610039e-02 -1.064410666742376e-02 5.698510036246644e-02 -1.405546011712138e-02
587080000.0000000000 7.367419288010600e-02 4.210228429418292e-03 6.258341094807288e-02 5.276328970759953e-03 3.514394916158969e-01 1.654094741982162e-01 1.749932905195274e-01 -2.259233569950766e-01
            6.260237465838839e-02 5.298209670631654e-03 7.361089489202172e-02 4.188470741030836e-03 1.749906753732996e-01 -2.259149064381145e-01 3.515487135612042e-01 1.653918567821509e-01
            3.515076152595417e-01 1.654379410089474e-01 1.750333604265325e-01 -2.258866094041934e-01 5.426287088879164e-02 4.394950521090238e-03 5.160124626708637e-02 8.832234014854012e-03
            1.750554414680489e-01 -2.258691657621644e-01 3.515498151329881e-01 1.654275060818087e-01 5.152982808224376e-02 8.813813173659750e-03 5.426510564027792e-02 4.452025181688612e-03
587912500.0000000000 8.247368173187579e-02 1.594079764762447e-02 7.159347072060930e-02 1.743198350981405e-02 3.839312262973534e-01 3.319389440141399e-02 8.543364391069938e-02 -2.749950702385167e-01
            7.142338802793015e-02 1.747680487139081e-02 8.255213897365249e-02 1.595087761796846e-02 8.537725071227015e-02 -2.749741201547165e-01 3.839598249882190e-01 3.314058607301343e-02
            3.839841072758688e-01 3.323495938787745e-02 8.540977796727024e-02 -2.749058517202558e-01 6.385896770060780e-02 2.025812465495609e-02 6.266214819082631e-02 2.480954400080203e-02
            8.547609109172537e-02 -2.748899462893460e-01 3.839807965068460e-01 3.329021501369329e-02 6.266397067765135e-02 2.469908360177002e-02 6.383327775146548e-02 2.023234534566977e-02
588745000.0000000000 9.730575226945253e-02 1.861337504779170e-02 8.622802270766586e-02 2.028776918900225e-02 3.689347785401326e-01 -9.998733233540232e-02 -1.605841063603333e-02 -2.884825198933365e-01
            8.626444375476533e-02 2.019764712442166e-02 9.730506241168563e-02 1.855486077052295e-02 -1.610097725130259e-02 -2.885087965626151e-01 3.690327631264975e-01 -1.000095978974034e-01
            3.689855484811878e-01 -9.994276906054397e-02 -1.616674674938477e-02 -2.885528376370563e-01 8.060853378541431e-02 2.634482765618518e-02 8.095362003797950e-02 2.986713029450248e-02
            -1.618771704592772e-02 -2.884616272333296e-01 3.690132370540591e-01 -9.994822931038268e-02 8.101143326773588e-02 2.989575431334136e-02 8.057666329358178e-02 2.632931247764514e-02
589577500.0000000000 1.103543753448393e-01 1.053158928259555e-02 9.913437741750732e-02 1.257484202984349e-02 3.106926330945792e-01 -2.186240120153420e-01 -1.154047352938105e-01 -2.654707643129769e-01
            9.923079770036011e-02 1.253895316133773e-02 1.104515314349107e-01 1.050882351433512e-02 -1.153768717345907e-01 -2.654614474771238e-01 3.106027078831821e-01 -2.185530585127639e-01
            3.106442807648498e-01 -2.186058651737253e-01 -1.154774776323048e-01 -2.655510356700711e-01 9.673766476418652e-02 2.046947526297426e-02 9.768728377821843e-02 2.228296787039124e-02
            -1.154497937037106e-01 -2.654315757789534e-01 3.105376022758623e-01 -2.185944156334312e-01 9.770356320117554e-02 2.231304218825365e-02 9.674948804898197e-02 2.044886332732893e-02
590410000.0000000000 1.151432134900230e-01 -4.417672377411457e-03 1.038043256287347e-01 -1.892203481465390e-03 2.165252138989357e-01 -3.103564056890207e-01 -1.998523189549482e-01 -2.101271317512416e-01
            1.037682372829720e-01 -1.836465669812884e-03 1.151720056165936e-01 -4.486348384908472e-03 -1.999002507093343e-01 -2.100723335884609e-01 2.164805277784043e-01 -3.102387393737971e-01
            2.164817963989459e-01 -3.102870749276211e-01 -1.999154685347200e-01 -2.100898046787645e-01 1.048657615130023e-01 6.279259923720917e-03 1.053292703676967e-01 6.282235051412469e-03
            -1.999304147468578e-01 -2.101408649051430e-01 2.165305968640299e-01 -3.103716265306517e-01 1.053516362187046e-01 6.298621673636174e-03 1.048302612036550e-01 6.279012559331091e-03
591242500.0000000000 1.093146802244918e-01 -1.940874969520581e-02 9.764372867307344e-02 -1.612110314178159e-02 9.686307185736533e-02 -3.651590054063695e-01 -2.606175485748799e-01 -1.297708688955364e-01
            9.768378310241517e-02 -1.616730296178316e-02 1.092525032104035e-01 -1.954263278624065e-02 -2.605932118442989e-01 -1.297662477704767e-01 9.694938678302441e-02 -3.651205416562297e-01
            9.691705876994600e-02 -3.652387816909710e-01 -2.605627651114673e-01 -1.298434525792424e-01 1.017518062032776e-01 -9.165525843041748e-03 1.008313276770194e-01 -1.050548760334318e-02
            -2.605230189247833e-01 -1.298551530710093e-01 9.691409611259469e-02 -3.651548794623881e-01 1.008974320447023e-01 -1.048840135604859e-02 1.018029205130171e-01 -9.083077534673221e-03
592075000.0000000000 9.488982644778123e-02 -2.755601509583154e-02 8.329990597395968e-02 -2.311409634213483e-02 -3.501533352165935e-02 -3.759382689104713e-01 -2.914690586045632e-01 -3.347870518804140e-02
            8.331645578523068e-02 -2.304425409260437e-02 9.483704383479659e-02 -2.760684444834041e-02 -2.915213154992531e-01 -3.352114336033846e-02 -3.511254649026829e-02 -3.759533000237315e-01
            -3.506677943211416e-02 -3.759372900967042e-01 -2.914803054317892e-01 -3.351974344775407e-02 8.940373178728625e-02 -1.831041716060447e-02 8.643158501685817e-02 -2.013097324152627e-02
            -2.914610919905299e-01 -3.353068445032811e-02 -3.503316007050541e-02 -3.759581286094000e-01 8.645351763696320e-02 -2.010207212993203e-02 8.939293265196892e-02 -1.828218413623686e-02
592907500.0000000000 7.840002800618050e-02 -2.454111384459520e-02 6.733806720671015e-02 -1.877472131646892e-02 -1.631866130464781e-01 -3.397224101472619e-01 -2.883460784483680e-01 6.912342297701431e-02
            6.729451307143663e-02 -1.871808961337551e-02 7.839039639240863e-02 -2.446037097068894e-02 -2.883348738838563e-01 6.909798061870781e-02 -1.632524850166600e-01 -3.396870302117219e-01
            -1.632240318073454e-01 -3.396578887580449e-01 -2.883044535589634e-01 6.920545070106536e-02 7.410201459261576e-02 -1.669704234677649e-02 6.907829226307935e-02 -1.771395041259109e-02
            -2.883387206970623e-01 6.918903644015073e-02 -1.631338297631533e-01 -3.396846481264156e-01 6.913560441652718e-02 -1.766733967023109e-02 7.421169804860669e-02 -1.674118576606996e-02
593740000.0000000000 6.788145345991861e-02 -1.152007494202480e-02 5.774315528870091e-02 -4.591800763532872e-03 -2.702133836591017e-01 -2.601655692187687e-01 -2.493833320230429e-01 1.664889617096609e-01
            5.772025068920378e-02 -4.527132227947911e-03 6.789510297213443e-02 -1.147366734282811e-02 -2.493730708386042e-01 1.665342939867941e-01 -2.702384091030353e-01 -2.602378300859443e-01
            -2.701693092782302e-01 -2.601867047829267e-01 -2.493237116792724e-01 1.664862905282912e-01 6.398505315541114e-02 -4.871594734368497e-03 5.754141830095340e-02 -4.218451934284265e-03
            -2.493100202688637e-01 1.665128311846463e-01 -2.702308308238467e-01 -2.602709951810949e-01 5.752983867775807e-02 -4.236021368872988e-03 6.393641320279193e-02 -4.898503058397355e-03
594572500.0000000000 6.833705845789513e-02 5.040346498732513e-03 5.973191606918456e-02 1.287638104499388e-02 -3.414515502328129e-01 -1.488870668185975e-01 -1.771484039859731e-01 2.452700550005316e-01
            5.979439181454185e-02 1.288147124304722e-02 6.830426178224550e-02 4.954357921208853e-03 -1.772057350835994e-01 2.452941042216729e-01 -3.413804190564932e-01 -1.488320816322928e-01
            -3.414272078230854e-01 -1.488302423471637e-01 -1.771034169244496e-01 2.453347263680817e-01 6.461821543080151e-02 1.109817354674205e-02 5.772451525472563e-02 1.374215606865973e-02
            -1.771637268351577e-01 2.453266942217650e-01 -3.413470224248593e-01 -1.489526533550866e-01 5.771240863719422e-02 1.373686676786753e-02 6.466187492248722e-02 1.109948091623853e-02
595405000.0000000000 7.941751143347356e-02 1.668254937300868e-02 7.264667956056721e-02 2.485041426860172e-02 -3.684973882087212e-01 -2.150690282571252e-02 -8.052935086874534e-02 2.934489699348538e-01
            7.272474111000216e-02 2.488781835425806e-02 7.937810305655348e-02 1.682755631925096e-02 -8.056607597620215e-02 2.934189325309896e-01 -3.684896829100798e-01 -2.146275233277562e-02
            -3.684659892144774e-01 -2.149700161410006e-02 -8.046449187933179e-02 2.934849804770156e-01 7.603133677856823e-02 2.260011110566356e-02 6.953025809098874e-02 2.734918815551336e-02
            -8.050797011454905e-02 2.934771625388638e-01 -3.684496448174001e-01 -2.151248555481931e-02 6.957099281752027e-02 2.726068782223862e-02 7.608670417403571e-02 2.264144806604821e-02
596237500.0000000000 9.510382014717812e-02 1.816019071164601e-02 9.044214060790315e-02 2.586482729284619e-02 -3.505064776412656e-01 1.052103672490089e-01 2.698907505998062e-02 3.038325463839820e-01
            9.039774929966113e-02 2.585311379905086e-02 9.506380379069546e-02 1.813534686302690e-02 2.691295996586749e-02 3.038015411572967e-01 -3.504623779910624e-01 1.052272006459027e-01
            -3.504494892081911e-01 1.052460725981217e-01 2.690111274953522e-02 3.038353047559306e-01 9.258842671405117e-02 2.371211241463943e-02 8.706231320652146e-02 3.001752412488964e-02
            2.689946102879379e-02 3.038589800629008e-01 -3.504919043824568e-01 1.052386577272586e-01 8.707436356577336e-02 3.002779610125568e-02 9.262575545573887e-02 2.381860854632772e-02
597070000.0000000000 1.074537614965663e-01 8.902326819963060e-03 1.045652318985695e-01 1.543833680764710e-02 -2.917510174306688e-01 2.171969253135466e-01 1.303815280515971e-01 2.759418958327617e-01
            1.046201642822171e-01 1.544083344399279e-02 1.074121643128770e-01 8.979775823371318e-03 1.303957673271086e-01 2.759550852293524e-01 -2.917583784058043e-01 2.171225615401525e-01
            -2.917219019284821e-01 2.171211536255069e-01 1.304314574670025e-01 2.760129801764921e-01 1.060314356572143e-01 1.374082092986515e-02 1.018142199578944e-01 2.107716804809726e-02
            1.303964671684080e-01 2.760420781581645e-01 -2.917613000456529e-01 2.171582237142649e-01 1.017957385025900e-01 2.108840906408234e-02 1.060033000658864e-01 1.372656125808138e-02
597902500.0000000000 1.105219911095717e-01 -6.208096206614766e-03 1.089888614733209e-01 -1.394677265933482e-03 -1.994300287711594e-01 3.026255913262570e-01 2.173459501946918e-01 2.149519880300450e-01
            1.089725921867502e-01 -1.399866172899535e-03 1.105125859033385e-01 -6.113697013135846e-03 2.173982903390727e-01 2.149607863221284e-01 -1.994248521760261e-01 3.026395189454025e-01
            -1.994618536277065e-01 3.026445620890331e-01 2.173872234009532e-01 2.148858379025050e-01 1.100001468116460e-01 -2.764325214722634e-03 1.071230160805467e-01 5.311978451350915e-03
            2.174070427446174e-01 2.149048080320462e-01 -1.994755858684798e-01 3.026611224077543e-01 1.071164889147491e-01 5.360957156186278e-03 1.100781811412109e-01 -2.774980670469762e-03
598735000.0000000000 1.027064195138048e-01 -1.966148057611525e-02 1.018935672626892e-01 -1.708934258432960e-02 -8.340753294891762e-02 3.523095498961776e-01 2.787392732230977e-01 1.285550825737249e-01
            1.018825890319511e-01 -1.707095094039882e-02 1.028096686551732e-01 -1.966529826846227e-02 2.787476382762931e-01 1.286407172463615e-01 -8.338870405252756e-02 3.522464869983048e-01
            -8.334722170819221e-02 3.523032587763347e-01 2.787751803432832e-01 1.285937986365167e-01 1.025627744809808e-01 -1.834604385970786e-02 1.009840051711142e-01 -9.655265625454013e-03
            2.787360454085521e-01 1.286522333468093e-01 -8.335777540994516e-02 3.523416528816526e-01 1.009606408924679e-01 -9.649645632723103e-03 1.025826417762105e-01 -1.828910709377608e-02
599567500.0000000000 8.758617388034838e-02 -2.477050101026180e-02 8.644929789073026e-02 -2.456474421838783e-02 4.353600712737885e-02 3.590684144118508e-01 3.083752174475733e-01 2.610085004993361e-02
            8.652052962405514e-02 -2.469898188158066e-02 8.766075688710967e-02 -2.477719941872480e-02 3.082788563502448e-01 2.603670815098390e-02 4.349906016133080e-02 3.590986014494935e-01
            4.348568285140015e-02 3.591124889165117e-01 3.082607565018909e-01 2.608637389566780e-02 8.670194413135951e-02 -2.583535060069789e-02 8.668224723750301e-02 -1.656397989888847e-02
            3.082362198545240e-01 2.610552507988575e-02 4.347787057206112e-02 3.591396493789545e-01 8.664466784644151e-02 -1.651350077338989e-02 8.673702156923657e-02 -2.586578249452290e-02
600400000.0000000000 7.236567267828106e-02 -1.849192573131897e-02 7.004625623801476e-02 -2.047244693905219e-02 1.655081895903281e-01 3.206070894532930e-01 3.015011945711510e-01 -8.223952908196981e-02
            7.018942865278982e-02 -2.045421438220776e-02 7.234840875308871e-02 -1.841541995520675e-02 3.015075034218020e-01 -8.220906674490462e-02 1.654352357434341e-01 3.205927054329246e-01
            1.655634100057522e-01 3.206807997517419e-01 3.015640126867176e-01 -8.206694512751236e-02 6.952796718221434e-02 -2.160195485510815e-02 7.122386415902035e-02 -1.184873088118910e-02
            3.015501957068246e-01 -8.217170327093934e-02 1.654563861708413e-01 3.205654044065430e-01 7.132464330872250e-02 -1.184618094395858e-02 6.947767937074664e-02 -2.149040946569864e-02
601232500.0000000000 6.485368986844242e-02 -3.153236569723642e-03 6.055378554975877e-02 -6.707413685912687e-03 2.654597358076025e-01 2.414038714876884e-01 2.569702536077600e-01 -1.835098010357631e-01
            6.059765408992964e-02 -6.759642115122790e-03 6.472674977486600e-02 -3.078350709829230e-03 2.569044811159419e-01 -1.834515528712868e-01 2.654567062148210e-01 2.413736808671094e-01
            2.655224658992336e-01 2.413232210313344e-01 2.570056650898950e-01 -1.834276603659545e-01 5.914719612165801e-02 -7.218247858121461e-03 6.317069488681051e-02 2.498847910443749e-03
            2.569884264939261e-01 -1.834625434291993e-01 2.654709900418810e-01 2.413464863614292e-01 6.316260477716107e-02 2.492243587306857e-03 5.910258129630930e-02 -7.244986878333331e-03
602065000.0000000000 6.926209345877937e-02 1.389705068682987e-02 6.265878485588895e-02 9.371129121325702e-03 3.300813060880043e-01 1.328411570754723e-01 1.781780844735909e-01 -2.637108271217219e-01
            6.254057431823101e-02 9.405811603354176e-03 6.926928118123557e-02 1.386413374572783e-02 1.781070239147214e-01 -2.638085569213653e-01 3.300637252431764e-01 1.328679280624990e-01
            3.300730884515926e-01 1.328018672216548e-01 1.781461056471503e-01 -2.637079363817984e-01 6.042973591959216e-02 1.016975201742342e-02 6.703192932314034e-02 1.912190367271109e-02
            1.781965138716315e-01 -2.638233465524937e-01 3.300514570120774e-01 1.327913909494073e-01 6.709589629664611e-02 1.910397626056935e-02 6.040476547236435e-02 1.017684295075690e-02
602897500.0000000000 8.389924507062016e-02 2.397759268692675e-02 7.460561983246564e-02 1.981957375287433e-02 3.521667482107356e-01 1.062761904694142e-02 7.498481647217693e-02 -3.106909097300002e-01
            7.457622456972650e-02 1.981987767689476e-02 8.392721280858031e-02 2.396221325972646e-02 7.497261549217159e-02 -3.107836072260342e-01 3.522252740628920e-01 1.064816231404165e-02
            3.522767593463877e-01 1.073091242591306e-02 7.504575941302499e-02 -3.106618443450801e-01 7.230734154885217e-02 2.202952472968095e-02 8.146076915042565e-02 2.929918352059468e-02
            7.500159922820462e-02 -3.106984322931664e-01 3.522583195068608e-01 1.063806675357797e-02 8.143702116153075e-02 2.920763059353676e-02 7.223901174481230e-02 2.204474548381029e-02
603730000.0000000000 1.017023696347896e-01 2.216318278617889e-02 8.993488549969482e-02 1.941387693760711e-02 3.316953024414460e-01 -1.096164075658534e-01 -3.780036144177137e-02 -3.178802679867049e-01
            8.989230898306905e-02 1.940864373557382e-02 1.017460854573981e-01 2.217581194152119e-02 -3.783315439239019e-02 -3.178321703936277e-01 3.316178382448730e-01 -1.096464690059876e-01
            3.316682373256498e-01 -1.097165526603045e-01 -3.774352175995158e-02 -3.178619193789713e-01 8.836341780119719e-02 2.314166014014855e-02 9.939262592525794e-02 2.766404444951713e-02
            -3.775637063637646e-02 -3.178801496262764e-01 3.317143161977356e-01 -1.096553715333812e-01 9.936773135167977e-02 2.772860594088623e-02 8.835260447695384e-02 2.315593291420106e-02
604562500.0000000000 1.143669325783174e-01 9.520744566471482e-03 1.008869404573697e-01 9.065806515014476e-03 2.728282270821573e-01 -2.148913930311869e-01 -1.451714685700531e-01 -2.854063261134192e-01
            1.009124114438835e-01 9.035443543089237e-03 1.144276828697059e-01 9.531001496345429e-03 -1.450887307784176e-01 -2.854205547161487e-01 2.728008891145235e-01 -2.148089689198499e-01
            2.728481140456201e-01 -2.147857820495609e-01 -1.451901974270633e-01 -2.853667682364338e-01 1.005782033594450e-01 1.381018589425175e-02 1.125034656899822e-01 1.502566458066754e-02
            -1.450870541626176e-01 -2.854058744075798e-01 2.728036379275975e-01 -2.149133760330871e-01 1.125359206813177e-01 1.506145810445085e-02 1.005677777667945e-01 1.374629483086430e-02
605395000.0000000000 1.161598595957381e-01 -8.172922180745196e-03 1.020442024142594e-01 -5.981754157479797e-03 1.824596615916764e-01 -2.941028396267120e-01 -2.343909245104747e-01 -2.189664345031179e-01
            1.022202671384202e-01 -5.894890232159663e-03 1.161994432421121e-01 -8.169104706106446e-03 -2.343624481429318e-01 -2.189482595451203e-01 1.824891059361324e-01 -2.941235494918329e-01
            1.824957145920577e-01 -2.941070987826622e-01 -2.343603161655769e-01 -2.188879776615673e-01 1.033479946484323e-01 -8.490845490118461e-04 1.150188863507951e-01 -3.041102586381219e-03
            -2.343109022908481e-01 -2.189783855053387e-01 1.825451164436760e-01 -2.940721580289363e-01 1.149460641625752e-01 -3.026891034916607e-03 1.033947477440507e-01 -8.629738089775053e-04
606227500.0000000000 1.064235092060927e-01 -2.319829943176261e-02 9.309894657469636e-02 -1.807488295878501e-02 7.017647976402806e-02 -3.386135646531458e-01 -2.962624496415243e-01 -1.266420714798865e-01
            9.306907912914966e-02 -1.805420912197511e-02 1.063775000782497e-01 -2.318043796441302e-02 -2.962712888293559e-01 -1.266900374314000e-01 7.017669195818434e-02 -3.385168492054416e-01
            7.012537910536296e-02 -3.385383453321077e-01 -2.963094107819688e-01 -1.266142767484543e-01 9.555165724233412e-02 -1.356606686201346e-02 1.057143497712875e-01 -1.860875948728227e-02
            -2.963073607464444e-01 -1.266657156073704e-01 7.009889299983202e-02 -3.385694511558848e-01 1.057138451477773e-01 -1.852543854969733e-02 9.558638899584850e-02 -1.360771630078283e-02
607060000.0000000000 8.920869078241996e-02 -2.858834270898816e-02 7.770793344694500e-02 -2.127068299956937e-02 -5.151996775018064e-02 -3.414525105488874e-01 -3.242897049627319e-01 -1.805596565977452e-02
            7.771167088050272e-02 -2.135271617131020e-02 8.926551616378753e-02 -2.856196633539845e-02 -3.242615695469690e-01 -1.804057793452455e-02 -5.140990294816453e-02 -3.414846998130581e-01
            -5.142470294849690e-02 -3.413972704036373e-01 -3.242406926542302e-01 -1.800822697539433e-02 8.109013764231855e-02 -1.770200186616341e-02 8.897390829210501e-02 -2.464862117821542e-02
            -3.241862930202172e-01 -1.799492963819633e-02 -5.141453787478700e-02 -3.414450863137042e-01 8.899086944660341e-02 -2.475627941281401e-02 8.105817231537595e-02 -1.773164516634940e-02
607892500.0000000000 7.266178681761798e-02 -2.163878887459798e-02 6.367582744811090e-02 -1.332305474967602e-02 -1.667047458075473e-01 -3.009592693466267e-01 -3.137102543446778e-01 9.555924755114094e-02
            6.373602732188044e-02 -1.318471025665740e-02 7.267846201274228e-02 -2.160435894836311e-02 -3.136785552030573e-01 9.555477967420682e-02 -1.667192735772701e-01 -3.010418434441718e-01
            -1.667111679220941e-01 -3.010158763062276e-01 -3.137206178449842e-01 9.559285403102377e-02 6.694352067532440e-02 -1.084227957522346e-02 7.257643079859502e-02 -1.862403748372483e-02
            -3.136445033292810e-01 9.554620789940389e-02 -1.667275965045801e-01 -3.009599205169988e-01 7.261203128999322e-02 -1.870868432531303e-02 6.703789727624095e-02 -1.075847804012573e-02
608725000.0000000000 6.469492707054596e-02 -5.644413272360256e-03 5.830141403304328e-02 2.516570310736561e-03 -2.595904154524559e-01 -2.223826070672676e-01 -2.632956344638889e-01 2.003538507905394e-01
            5.828141964705268e-02 2.539394433308101e-03 6.457721524025377e-02 -5.719602869121275e-03 -2.634201921990550e-01 2.003048415234120e-01 -2.595848264970245e-01 -2.222684880932143e-01
            -2.595717122578051e-01 -2.222446090470590e-01 -2.633998678743312e-01 2.002944173924923e-01 6.102288279333835e-02 4.195861740305977e-03 6.461177609699476e-02 -3.574391472578937e-03
            -2.633920490514323e-01 2.002827083820650e-01 -2.596324361200439e-01 -2.223169310750526e-01 6.453609801936656e-02 -3.540279939142757e-03 6.098621675053166e-02 4.296989011708532e-03
609557500.0000000000 6.900509187586858e-02 1.133656441632028e-02 6.476962705134874e-02 1.824906444189111e-02 -3.175691364997908e-01 -1.170846205896762e-01 -1.780075345789518e-01 2.814423556284656e-01
            6.486364010921901e-02 1.827517933231172e-02 6.896524042989674e-02 1.139964450915508e-02 -1.780383635534704e-01 2.815002716368736e-01 -3.175118635700013e-01 -1.171531243896778e-01
            -3.177028761758204e-01 -1.171931554751269e-01 -1.780309302456614e-01 2.815848453310215e-01 6.655974391585923e-02 1.998565280505381e-02 6.871043370034083e-02 1.262302695835766e-02
            -1.780605618746278e-01 2.814624377529048e-01 -3.175821902235027e-01 -1.171803346069701e-01 6.871835046866402e-02 1.264285989295498e-02 6.654300236498394e-02 2.005850003346888e-02
610390000.0000000000 8.317205992379145e-02 2.109746102224782e-02 8.008225995834567e-02 2.600610593126930e-02 -3.351186417703492e-01 -5.701332902781447e-04 -6.879799748771480e-02 3.269889530180259e-01
            8.009452931373001e-02 2.585450324667537e-02 8.319418412132507e-02 2.117632274768664e-02 -6.873959464916873e-02 3.269240150085064e-01 -3.350470333807341e-01 -6.094602317157549e-04
            -3.350467203190798e-01 -4.858502305023158e-04 -6.877807354806627e-02 3.270272904024004e-01 8.126274549095812e-02 2.856690457166687e-02 8.261915702798815e-02 2.151565868998476e-02
            -6.865261254481311e-02 3.269373636894203e-01 -3.350466093296785e-01 -5.906483294479037e-04 8.258263746723374e-02 2.156919763487086e-02 8.123124233428626e-02 2.845306664617137e-02
611222500.0000000000 9.976482270902656e-02 1.921875946888226e-02 9.669640694974863e-02 2.194159543065799e-02 -3.123291496836351e-01 1.129871820204103e-01 4.905891008628352e-02 3.307089696504246e-01
            9.675237767371445e-02 2.196578473280698e-02 9.983196012276953e-02 1.923517050339836e-02 4.900525152490212e-02 3.306982517705887e-01 -3.123695291136790e-01 1.129708132019407e-01
            -3.123883629175507e-01 1.130704558234328e-01 4.910281010417901e-02 3.307490665239039e-01 9.783105294337342e-02 2.569110780663933e-02 9.876903158780573e-02 1.885734331386669e-02
            4.911584552748953e-02 3.306794628612543e-01 -3.123606877072060e-01 1.129834336059149e-01 9.884362388582679e-02 1.887198527433771e-02 9.788673359845838e-02 2.562788270047094e-02
612055000.0000000000 1.110150132574940e-01 7.121293763125943e-03 1.068908207511925e-01 8.390004349256205e-03 -2.536472030182743e-01 2.113951125445697e-01 1.598333982076387e-01 2.937008222571352e-01
            1.068104322847395e-01 8.412548775385272e-03 1.109455156687643e-01 7.150388996381070e-03 1.598012556234633e-01 2.937303874571113e-01 -2.537102427631699e-01 2.114580119504756e-01
            -2.536683407185842e-01 2.114015503866377e-01 1.598907312758195e-01 2.937242059863626e-01 1.088314342035143e-01 1.299042807840176e-02 1.093498274754978e-01 6.177210633088979e-03
            1.599204974775764e-01 2.936746591167407e-01 -2.537044725790872e-01 2.114123478853756e-01 1.093131474838714e-01 6.165586369431838e-03 1.086876439597652e-01 1.301195754909669e-02
612887500.0000000000 1.116905294959893e-01 -9.127348211460587e-03 1.061147889464391e-01 -8.362431153630018e-03 -1.657132049849432e-01 2.846423941518307e-01 2.510261764844609e-01 2.217666332812079e-01
            1.060476801299571e-01 -8.472203440219315e-03 1.117043105067192e-01 -9.210608060538491e-03 2.509716065699065e-01 2.218198624605828e-01 -1.656887823276830e-01 2.846428694390132e-01
            -1.657399981875153e-01 2.845754074813722e-01 2.510087958174246e-01 2.218503952806261e-01 1.091521717714694e-01 -3.320072303147193e-03 1.090232272219885e-01 -1.059614011279641e-02
            2.510367907699755e-01 2.218105305058401e-01 -1.657398888083315e-01 2.845446566007832e-01 1.090687852849786e-01 -1.057133681108310e-02 1.092183573144252e-01 -3.327210604167166e-03
613720000.0000000000 1.015710192667293e-01 -2.187420458389037e-02 9.457281901461805e-02 -2.086268132673990e-02 -5.750540922166175e-02 3.238553956829620e-01 3.130893405480447e-01 1.236415796161325e-01
            9.460730826014997e-02 -2.082765115455306e-02 1.016178642218160e-01 -2.194584447846578e-02 3.131262246429663e-01 1.236322027969028e-01 -5.748663809559035e-02 3.238476365169557e-01
            -5.742539214452871e-02 3.238551207055076e-01 3.130568517226501e-01 1.237377000094542e-01 9.904519183067305e-02 -1.608013190914924e-02 9.792506704721773e-02 -2.337291876327147e-02
            3.130258725049478e-01 1.236475307281180e-01 -5.737362712138569e-02 3.239042250327274e-01 9.798688660578929e-02 -2.348757116182221e-02 9.902291530572808e-02 -1.609269196764156e-02
614552500.0000000000 8.554689177229209e-02 -2.497747670564059e-02 7.780995683726195e-02 -2.297470804583169e-02 5.856205448210175e-02 3.230570214462841e-01 3.391211011243727e-01 9.288976364380365e-03
            7.770958842296674e-02 -2.294119480255696e-02 8.542655590693976e-02 -2.500253490232399e-02 3.390750264498281e-01 9.255441167194062e-03 5.853985423267713e-02 3.230612883260017e-01
            5.852902892058991e-02 3.230537872102916e-01 3.391195751904226e-01 9.304345174984350e-03 8.309064461001169e-02 -1.909776991604792e-02 8.105614486133733e-02 -2.620562728194962e-02
            3.390000565881401e-01 9.315988381916827e-03 5.853369662571764e-02 3.229819614884482e-01 8.103570939819878e-02 -2.606649301500456e-02 8.316298476143140e-02 -1.905336916726839e-02
615385000.0000000000 7.121686045471334e-02 -1.665674181620314e-02 6.361266602298407e-02 -1.346129375790970e-02 1.669647607230882e-01 2.809356218684645e-01 3.243975566512615e-01 -1.090951562023103e-01
            6.361082044810559e-02 -1.339094208683355e-02 7.118077816603012e-02 -1.659646529500332e-02 3.244618555347776e-01 -1.090911899454445e-01 1.669360430764366e-01 2.809239184410928e-01
            1.669063903162369e-01 2.809770169990339e-01 3.245023056484283e-01 -1.090426254413377e-01 6.911738328833159e-02 -1.061495371293958e-02 6.618592983517763e-02 -1.713155412725669e-02
            3.245057238282651e-01 -1.091138376577984e-01 1.670207443641906e-01 2.809537239477279e-01 6.612876524675264e-02 -1.715189779142516e-02 6.922312650565085e-02 -1.066834519941426e-02
616217500.0000000000 6.597980630784255e-02 -7.760874501420179e-04 5.927568110381023e-02 3.143617482367500e-03 2.525884860178068e-01 2.033037614101366e-01 2.685184925598481e-01 -2.167776363523061e-01
            5.918345956977227e-02 3.258807341569680e-03 6.596867156628659e-02 -8.381477635037815e-04 2.685086356520215e-01 -2.167588661291943e-01 2.525868168215807e-01 2.032933639767038e-01
            2.526291416467675e-01 2.032808510275431e-01 2.685158734964179e-01 -2.168555005705255e-01 6.443503905835363e-02 4.996083272242987e-03 6.100342249230786e-02 -6.011677322795459e-04
            2.685144317973287e-01 -2.168120842277513e-01 2.525066352323805e-01 2.032189195351229e-01 6.103479871618094e-02 -5.663834823044780e-04 6.440129702531927e-02 5.009103938557896e-03
617050000.0000000000 7.263356974131276e-02 1.439996853239208e-02 6.702595212446338e-02 1.846252363948875e-02 3.041797844857367e-01 1.019670389559839e-01 1.768388055751468e-01 -2.984634728684654e-01
            6.696705126359233e-02 1.845009349434570e-02 7.268916665248103e-02 1.443976965360380e-02 1.767976231773587e-01 -2.984364804899435e-01 3.042472296572754e-01 1.019450042828163e-01
            3.041830008180367e-01 1.019284880360524e-01 1.768655287337634e-01 -2.985050869598740e-01 7.137006491695841e-02 2.003001875517177e-02 6.798212287588079e-02 1.524595654349180e-02
            1.768401857023282e-01 -2.985000039824694e-01 3.042130845602649e-01 1.019098692014671e-01 6.795419654221627e-02 1.520332248812097e-02 7.130665011175528e-02 1.990017295944483e-02
617882500.0000000000 8.772318516978982e-02 2.147292493259323e-02 8.287321947616219e-02 2.477841115216156e-02 3.172191115247212e-01 -8.797292536039407e-03 6.181987292092162e-02 -3.421493510973743e-01
            8.291768387233080e-02 2.473869811575537e-02 8.766699872188512e-02 2.143850032111414e-02 6.183409602747656e-02 -3.420802128236399e-01 3.172923176512379e-01 -8.802665862165378e-03
            3.172082122678364e-01 -8.862619118537767e-03 6.185388566464336e-02 -3.420832475807499e-01 8.644067438039144e-02 2.667191511793651e-02 8.348244410120721e-02 2.226121864601459e-02
            6.183420401323245e-02 -3.421258599650592e-01 3.172362074029247e-01 -8.756036666254957e-03 8.349645025364717e-02 2.229642458999782e-02 8.639873282093168e-02 2.669358638253365e-02
618715000.0000000000 1.034759011885999e-01 1.697394381598245e-02 9.893967014461244e-02 1.923610101009383e-02 2.926608633870181e-01 -1.154781739197593e-01 -6.040896185382813e-02 -3.424581210236451e-01
            9.899588971937924e-02 1.914455337696280e-02 1.034650515009085e-01 1.704539032338112e-02 -6.051216366852914e-02 -3.423745610401351e-01 2.926301620064090e-01 -1.155349444722129e-01
            2.926529261062621e-01 -1.155413627617025e-01 -6.041695002027166e-02 -3.423918733979661e-01 1.022732170109894e-01 2.196085883686539e-02 9.984482501761495e-02 1.746780851882632e-02
            -6.045354912079873e-02 -3.424008782232830e-01 2.926031441243893e-01 -1.154528463577135e-01 9.978716216778567e-02 1.736379787570412e-02 1.022236510007267e-01 2.192956300993823e-02
619547500.0000000000 1.125511998838619e-01 3.467057161763210e-03 1.076378851746427e-01 4.536035085359333e-03 2.344747898840019e-01 -2.071517746185349e-01 -1.743706556424848e-01 -3.008036520077744e-01
            1.075564082372291e-01 4.560690177898060e-03 1.126543679629402e-01 3.449346868348060e-03 -1.743276086276923e-01 -3.008117970647426e-01 2.344455476953082e-01 -2.071246235465124e-01
            2.345552210074414e-01 -2.070948267958544e-01 -1.743428533084022e-01 -3.007939080860647e-01 1.112953630828281e-01 8.276672335455273e-03 1.090773435144994e-01 3.299076558622158e-03
            -1.743063358117635e-01 -3.007793829059203e-01 2.345260714085355e-01 -2.071511804280078e-01 1.090733900631150e-01 3.370533134998073e-03 1.112895293101894e-01 8.319842562384307e-03
620380000.0000000000 1.108106098084212e-01 -1.279128083119184e-02 1.048830290530969e-01 -1.217010139368068e-02 1.490609489701664e-01 -2.741589820982315e-01 -2.670590047505984e-01 -2.237351245253205e-01
            1.047875948772690e-01 -1.227095805868218e-02 1.108230106268708e-01 -1.278429582473498e-02 -2.670184740505481e-01 -2.237326831956204e-01 1.490746747426593e-01 -2.741013051501235e-01
            1.491252490088328e-01 -2.741800414487529e-01 -2.670039733479202e-01 -2.237001779437609e-01 1.096773146880123e-01 -7.857383003827462e-03 1.072318351402740e-01 -1.358260489954475e-02
            -2.670517141304937e-01 -2.237168313764957e-01 1.491025372264861e-01 -2.741492932035708e-01 1.071394363851344e-01 -1.354341985562531e-02 1.096221974461053e-01 -7.841246734491944e-03
621212500.0000000000 9.908894940924286e-02 -2.439333228141305e-02 9.188528457359937e-02 -2.345610009014763e-02 4.524026429504847e-02 -3.083732777384964e-01 -3.288729328478113e-01 -1.199337811785755e-01
            9.187167492652300e-02 -2.347698115154545e-02 9.908592471958984e-02 -2.427781835187608e-02 -3.289882951081689e-01 -1.198668282387802e-01 4.522956381779409e-02 -3.083297892067178e-01
            4.530704749061004e-02 -3.084086423064676e-01 -3.289560268419223e-01 -1.200001260052379e-01 9.806600546142800e-02 -1.919673921994543e-02 9.485156066699535e-02 -2.544397721072024e-02
            -3.289222457025890e-01 -1.199981459522498e-01 4.525159362214460e-02 -3.083301693663567e-01 9.486875997938228e-02 -2.539801837766629e-02 9.807662755840361e-02 -1.924338585853397e-02
622045000.0000000000 8.243511756141284e-02 -2.565777684384659e-02 7.454888915875474e-02 -2.377338553960542e-02 -6.474050849566357e-02 -3.041057841117391e-01 -3.527038034569199e-01 -2.043581455427825e-04
            7.444965390435661e-02 -2.383656440076912e-02 8.251241641903255e-02 -2.563747865130672e-02 -3.527202866811952e-01 -1.609743248834957e-04 -6.478224232735595e-02 -3.040982571761536e-01
            -6.473376778875442e-02 -3.040991455407070e-01 -3.527037695157539e-01 -1.642631617536613e-04 8.202847470797354e-02 -2.030786616539984e-02 7.769723082815669e-02 -2.675794841753433e-02
            -3.528049586553232e-01 -9.207427980259175e-05 -6.471363333587032e-02 -3.040705073574267e-01 7.775108875100575e-02 -2.676340495891764e-02 8.197497475249821e-02 -2.036707091528940e-02
622877500.0000000000 6.887640632563256e-02 -1.588340730627345e-02 6.098397143525406e-02 -1.290041932166039e-02 -1.661551067295663e-01 -2.607322229722176e-01 -3.340240192845764e-01 1.225251193227726e-01
            6.095777301038704e-02 -1.279953787458553e-02 6.898953142637504e-02 -1.586397737481821e-02 -3.340272781915491e-01 1.225083966708091e-01 -1.661673107463935e-01 -2.608043367358074e-01
            -1.661780793613223e-01 -2.607785564087383e-01 -3.339694335688826e-01 1.225959385053274e-01 6.918267148786271e-02 -1.061721140437156e-02 6.385864136567536e-02 -1.667859445400822e-02
            -3.339272068659055e-01 1.225345997035994e-01 -1.661854523439671e-01 -2.607677655178485e-01 6.384794766815853e-02 -1.669523006561639e-02 6.910186441214895e-02 -1.069029429131721e-02
623710000.0000000000 6.497362911019570e-02 1.956333369702292e-04 5.796779245309663e-02 4.286324402241516e-03 -2.446076127376652e-01 -1.847289184865917e-01 -2.725434367096206e-01 2.326465830808903e-01
            5.789911549339024e-02 4.261405158243563e-03 6.495871570275624e-02 1.476370368113863e-04 -2.725538069663084e-01 2.326598886642213e-01 -2.445953991406369e-01 -1.845344738675175e-01
            -2.446198018613095e-01 -1.845689404325210e-01 -2.725592869124122e-01 2.326134919782293e-01 6.602516448364017e-02 4.978860017029716e-03 5.999133139395542e-02 -3.132085101952033e-04
            -2.726286439914419e-01 2.326732462058251e-01 -2.447117325535734e-01 -1.845874174462742e-01 6.009144519538922e-02 -2.094586847602076e-04 6.591958505872351e-02 5.030488238841026e-03
624542500.0000000000 7.241743052919043e-02 1.456367582413639e-02 6.672485045898321e-02 1.910235494261430e-02 -2.902639882279175e-01 -8.731269588946849e-02 -1.750731430628483e-01 3.144742422668409e-01
            6.673973408904525e-02 1.899512810496864e-02 7.242745237300521e-02 1.449842802059817e-02 -1.750761138645722e-01 3.144281319260163e-01 -2.903217739383221e-01 -8.725870929937338e-02
            -2.901946534052272e-01 -8.729915392605749e-02 -1.751277489634648e-01 3.144409976466166e-01 7.394925138414320e-02 1.863837658318232e-02 6.788119086007481e-02 1.404810804837497e-02
            -1.750839768313994e-01 3.144616537025031e-01 -2.902408389057037e-01 -8.730605929427790e-02 6.789718755253521e-02 1.411293330321178e-02 7.397820095650430e-02 1.864556675675378e-02
625375000.0000000000 8.695633479597044e-02 2.026164205315325e-02 8.268854566000987e-02 2.414431402032754e-02 -2.991786863951633e-01 1.761712981486254e-02 -5.490510597788873e-02 3.563858342721302e-01
            8.264808942102000e-02 2.416756362258262e-02 8.694767642175040e-02 2.022684009627966e-02 -5.487925266030337e-02 3.563656285877884e-01 -2.992051311275766e-01 1.764844719668255e-02
            -2.991822731575596e-01 1.760157734700604e-02 -5.478382177854309e-02 3.563659429706384e-01 8.885748159533677e-02 2.340098107324476e-02 8.285024698074976e-02 1.940827251440209e-02
            -5.487004974845725e-02 3.564043730649384e-01 -2.992508091447466e-01 1.759028230242146e-02 8.285895127526363e-02 1.947458930167514e-02 8.887888727275001e-02 2.329232509074267e-02
626207500.0000000000 1.010905550733730e-01 1.497660224652216e-02 9.757397699997651e-02 1.771591443435365e-02 -2.729307700135681e-01 1.177000598423475e-01 7.174563990378995e-02 3.534659176325665e-01
            9.753653359012183e-02 1.772056979347440e-02 1.010663504497796e-01 1.500178102317097e-02 7.174860037866236e-02 3.535018722398070e-01 -2.727763778643668e-01 1.177846850340635e-01
            -2.728315183373087e-01 1.177511490585254e-01 7.170246767226214e-02 3.534295458127663e-01 1.028599906973481e-01 1.716026517680072e-02 9.714128568831308e-02 1.349733498930894e-02
            7.179370375121935e-02 3.534642869503393e-01 -2.728221901302438e-01 1.177285596699252e-01 9.709825724809772e-02 1.348357130786689e-02 1.028551036655803e-01 1.716884437413816e-02
627040000.0000000000 1.078609994471300e-01 2.059419284908361e-03 1.043773520041077e-01 3.227211995158822e-03 -2.150207939908064e-01 2.025958545869781e-01 1.888256476540552e-01 3.075592068124676e-01
            1.044323853715249e-01 3.226885400477065e-03 1.078693797445978e-01 1.934277960115389e-03 1.887091761436007e-01 3.075329942774206e-01 -2.151072682911168e-01 2.025856021030105e-01
            -2.149506030201318e-01 2.026473584978368e-01 1.887762305683691e-01 3.075477592067276e-01 1.093749242302991e-01 3.573696002812139e-03 1.036977361775429e-01 -2.848270308127498e-04
            1.887888738512725e-01 3.076007922212675e-01 -2.149928240303523e-01 2.027201490359573e-01 1.036968393714965e-01 -3.551865312482277e-04 1.093462204868537e-01 3.534310072351663e-03
627872500.0000000000 1.042999247132609e-01 -1.193719782185531e-02 9.991048389051935e-02 -1.202804539758031e-02 -1.319891427592880e-01 2.633762692604262e-01 2.832714499294662e-01 2.251694955980103e-01
            9.994048168111987e-02 -1.203920584961628e-02 1.042708056727725e-01 -1.194696334999008e-02 2.831872979911434e-01 2.251368885927334e-01 -1.319352147759770e-01 2.633166679662539e-01
            -1.319363986109260e-01 2.634386317136636e-01 2.833285138692262e-01 2.251276395319584e-01 1.053388179447471e-01 -1.084111111337168e-02 9.936746757206946e-02 -1.500232216026617e-02
            2.832837143188595e-01 2.251005313927566e-01 -1.319490811534892e-01 2.634385555607601e-01 9.943927552965946e-02 -1.504256713964671e-02 1.053423282657321e-01 -1.089654628163462e-02
628705000.0000000000 9.198883318740671e-02 -2.003562036865760e-02 8.637874713139640e-02 -2.061379377707676e-02 -3.240066879828581e-02 2.920056954343470e-01 3.450142862674540e-01 1.154778400034276e-01
            8.640083036774360e-02 -2.061840646657218e-02 9.194401083446592e-02 -2.001729557921908e-02 3.449956063672722e-01 1.154600329264904e-01 -3.243044459621317e-02 2.920127095062217e-01
            -3.238333920564810e-02 2.920051668433509e-01 3.449439860411262e-01 1.154560857568902e-01 9.282994812225907e-02 -1.914440582380343e-02 8.611919082310392e-02 -2.330796969715376e-02
            3.450286403677822e-01 1.154422092299723e-01 -3.243395988177854e-02 2.920099298928223e-01 8.603979559138497e-02 -2.321958358479296e-02 9.274176490068937e-02 -1.914920666638860e-02
629537500.0000000000 7.701168727005364e-02 -1.767653514486836e-02 7.000849715538367e-02 -1.789115211937677e-02 7.121066259736297e-02 2.837207153175365e-01 3.662977333064725e-01 -1.025640518756798e-02
            7.002414827529438e-02 -1.794089943143512e-02 7.699518132134442e-02 -1.767048463810382e-02 3.663137073743754e-01 -1.027090493140428e-02 7.121329171832062e-02 2.836923892959299e-01
            7.117739788151410e-02 2.836948370151007e-01 3.662501977119039e-01 -1.021737005005624e-02 7.776359775309120e-02 -1.682908491893102e-02 7.025211715920618e-02 -2.062149705060864e-02
            3.662684375781100e-01 -1.019007183025946e-02 7.125256645045043e-02 2.836659288167149e-01 7.027747785648353e-02 -2.069069083103610e-02 7.773023910742012e-02 -1.684164688703661e-02
630370000.0000000000 6.699545397770415e-02 -5.394157209488121e-03 5.926765311176692e-02 -4.758314901066362e-03 1.647647536637789e-01 2.388905251435190e-01 3.425748278888285e-01 -1.373736264478106e-01
            5.926145834541137e-02 -4.766804692011697e-03 6.702514318437729e-02 -5.385471766264617e-03 3.425383911088242e-01 -1.373620663295840e-01 1.646782135641821e-01 2.388955419470505e-01
            1.647595032526040e-01 2.389160739680359e-01 3.425529667542415e-01 -1.373781938256046e-01 6.806836472454665e-02 -4.823873557070298e-03 5.999042958006021e-02 -7.769804079565883e-03
            3.426256777930958e-01 -1.374398160805710e-01 1.647448176867226e-01 2.389558187842091e-01 5.995862364811776e-02 -7.750481671799941e-03 6.799450810359169e-02 -4.921631417207369e-03
631202500.0000000000 6.767789806369828e-02 1.092921318391222e-02 5.980016380030607e-02 1.277162266178490e-02 2.350252526167558e-01 1.645395527686845e-01 2.748089852193855e-01 -2.494173750168504e-01
            5.980669644121086e-02 1.278262628085925e-02 6.767104749243383e-02 1.086876053626280e-02 2.747323465610191e-01 -2.494363293334355e-01 2.350080930682716e-01 1.646424999949573e-01
            2.350196538816681e-01 1.646854880058017e-01 2.747694965904853e-01 -2.494273519949356e-01 6.904038448368607e-02 1.084713281528186e-02 6.079777376352516e-02 8.981334874176128e-03
            2.747590711220473e-01 -2.494538548952069e-01 2.350179603182334e-01 1.646603349041310e-01 6.087050089734605e-02 9.028022176472273e-03 6.898432642757550e-02 1.088228996155958e-02
632035000.0000000000 7.906371359091752e-02 2.322093375469330e-02 7.166319923147296e-02 2.583094133935079e-02 2.738764954060270e-01 7.235235724911612e-02 1.709490327480718e-01 -3.303407501460827e-01
            7.163115370134659e-02 2.587287762399554e-02 7.901983764878508e-02 2.328558006324693e-02 1.709998835177309e-01 -3.304406907357207e-01 2.739043965983866e-01 7.228622229451911e-02
            2.739016763920516e-01 7.233618080889059e-02 1.709957145910718e-01 -3.303360758511918e-01 8.054310960455165e-02 2.190398478057202e-02 7.273505809525166e-02 2.111894876676574e-02
            1.708788237210077e-01 -3.303434695007952e-01 2.739013684129871e-01 7.238668291380218e-02 7.270644925164287e-02 2.110551872012321e-02 8.048424870186296e-02 2.200600208331201e-02
632867500.0000000000 9.563587960512769e-02 2.546980919720619e-02 8.926732984995044e-02 2.833332917113890e-02 2.788916159697954e-01 -2.534724935171914e-02 4.562987472000293e-02 -3.691378925813857e-01
            8.919761281979419e-02 2.832139275902149e-02 9.556395845773923e-02 2.547089426942811e-02 4.557704873649379e-02 -3.691595346509622e-01 2.788122038218746e-01 -2.541169856288636e-02
            2.789411895501829e-01 -2.528195435706913e-02 4.563189705331994e-02 -3.691542105292407e-01 9.665161421560342e-02 2.281801080069190e-02 8.967931480624579e-02 2.251234952108004e-02
            4.562882483350614e-02 -3.691791754778737e-01 2.788559306667071e-01 -2.542124263376803e-02 8.973875834592916e-02 2.254502869706002e-02 9.671023997901129e-02 2.279075440713278e-02
633700000.0000000000 1.098608330158181e-01 1.689949831303118e-02 1.041757231836396e-01 1.940925830115238e-02 2.514717271378070e-01 -1.176530207738822e-01 -8.429890899253532e-02 -3.619511217036349e-01
            1.041975762606748e-01 1.928452599498967e-02 1.098519981544784e-01 1.687550132878221e-02 -8.436536250965840e-02 -3.619226266429484e-01 2.515561983002622e-01 -1.177658477673082e-01
            2.515182587277682e-01 -1.177412332141537e-01 -8.427973516893886e-02 -3.619984631456630e-01 1.098251152630588e-01 1.288275434608754e-02 1.035880786933451e-01 1.254023680305386e-02
            -8.429097386361317e-02 -3.619691144299088e-01 2.515384928669060e-01 -1.177144143288134e-01 1.036022692263485e-01 1.255081456355863e-02 1.097398316797944e-01 1.288296866312750e-02
634532500.0000000000 1.154582453042637e-01 1.518901222589819e-03 1.100966600502582e-01 3.282715807069046e-03 1.954411187076529e-01 -1.955006171023938e-01 -2.030261633014288e-01 -3.113375341280906e-01
            1.100811334822696e-01 3.213641732383602e-03 1.154922190502073e-01 1.573118900023206e-03 -2.030085237454562e-01 -3.113721891208546e-01 1.955124369488280e-01 -1.954762768217003e-01
            1.954309975022482e-01 -1.954244122931529e-01 -2.030433475187916e-01 -3.113954755685721e-01 1.136036036515014e-01 -3.410718407670167e-03 1.079219237534603e-01 -4.235440286981413e-03
            -2.030809092433233e-01 -3.113497810812077e-01 1.954450848903640e-01 -1.954442504585391e-01 1.079392297200992e-01 -4.279966137482973e-03 1.135794783201187e-01 -3.412601772139848e-03
635365000.0000000000 1.102205982923950e-01 -1.354743857433787e-02 1.045612862000495e-01 -1.269725695798186e-02 1.162292147823892e-01 -2.501243274494636e-01 -2.978016520987607e-01 -2.241242161151945e-01
            1.046374151746810e-01 -1.270543308849499e-02 1.102765796632079e-01 -1.358108471120822e-02 -2.978583546317686e-01 -2.241181032541269e-01 1.161734412351422e-01 -2.501387044261226e-01
            1.161884903879301e-01 -2.501328391709517e-01 -2.977691399447033e-01 -2.241919674084616e-01 1.062615885230318e-01 -1.862158805489807e-02 1.005275818751236e-01 -2.020173124385844e-02
            -2.977486140397094e-01 -2.242101359988889e-01 1.161414490463558e-01 -2.502072052616769e-01 1.005357806696869e-01 -2.013540334207619e-02 1.063370223904478e-01 -1.861740089926752e-02
636197500.0000000000 9.695115065178812e-02 -2.174987770771897e-02 9.041836350506373e-02 -2.131195321801182e-02 2.211083204665360e-02 -2.742995619902341e-01 -3.584174201810750e-01 -1.096189544847578e-01
            9.033616863159251e-02 -2.121705566927698e-02 9.700060108319532e-02 -2.172572320746020e-02 -3.583597671387920e-01 -1.096475710344703e-01 2.209080278072011e-02 -2.743535629542887e-01
            2.200000780520093e-02 -2.743714579509406e-01 -3.584174022857810e-01 -1.096979036130403e-01 9.081618370382230e-02 -2.596305941600403e-02 8.437432796273503e-02 -2.796388861233666e-02
            -3.583442413250341e-01 -1.096270858001865e-01 2.202879531479467e-02 -2.743761146813357e-01 8.433507326384838e-02 -2.801697037890992e-02 9.072759750450278e-02 -2.605719914725713e-02
637030000.0000000000 8.200229170863003e-02 -1.914695164311601e-02 7.432292925735069e-02 -1.847944003556859e-02 -7.515393512177083e-02 -2.635445905207282e-01 -3.769167278090081e-01 2.025359589737266e-02
            7.425188415930201e-02 -1.853074321481422e-02 8.201141089241763e-02 -1.913041995470480e-02 -3.769296845467329e-01 2.023991352179542e-02 -7.510556060074555e-02 -2.635432053545557e-01
            -7.507930694822013e-02 -2.634929801042894e-01 -3.768524984538029e-01 2.021576895656534e-02 7.402807628310928e-02 -2.173136631854181e-02 6.675197784758438e-02 -2.368901382569563e-02
            -3.768977653069753e-01 2.020077987056759e-02 -7.507921279615964e-02 -2.635524592534266e-01 6.667059032972551e-02 -2.360548955391165e-02 7.403260133347998e-02 -2.166326911112821e-02
637862500.0000000000 7.267180814854927e-02 -7.503744464646402e-03 6.431569782132941e-02 -5.840710291183300e-03 -1.614668675317349e-01 -2.185845557427486e-01 -3.490701411111675e-01 1.506288911760631e-01
            6.422134101936096e-02 -5.800065441784593e-03 7.267831872590727e-02 -7.581675663791342e-03 -3.490762274878673e-01 1.504499062811676e-01 -1.613837714745439e-01 -2.185881442401877e-01
            -1.614689572615772e-01 -2.185819572280512e-01 -3.490272505545459e-01 1.505436062569228e-01 6.408089363058106e-02 -7.605116369721822e-03 5.568615457114687e-02 -8.903131954113241e-03
            -3.490549761182079e-01 1.505450855968719e-01 -1.614874227200690e-01 -2.185413016020787e-01 5.574957922723702e-02 -8.916743983653724e-03 6.407249785968140e-02 -7.597427983165362e-03
638695000.0000000000 7.387865573699580e-02 7.155977206936071e-03 6.526020318824477e-02 1.013318942044219e-02 -2.247634909168255e-01 -1.466885588958191e-01 -2.762153973654362e-01 2.639562696265477e-01
            6.530867573694552e-02 1.018260976229761e-02 7.384942524888020e-02 7.089981305088281e-03 -2.762489188202240e-01 2.639904486158275e-01 -2.248805944563245e-01 -1.466568829393005e-01
            -2.248357661238448e-01 -1.465942796333525e-01 -2.762683397227566e-01 2.638800915151553e-01 6.573676372834882e-02 9.428806539163817e-03 5.675271639853974e-02 9.257211318397235e-03
            -2.762929887698143e-01 2.639459736293148e-01 -2.248304986830892e-01 -1.466262177039910e-01 5.676322598918241e-02 9.250130836360768e-03 6.571760399567197e-02 9.423419329636236e-03
639527500.0000000000 8.457254777342409e-02 1.687811156465403e-02 7.670117180624797e-02 2.131151980325298e-02 -2.581690452059786e-01 -5.906490015566682e-02 -1.674249592755647e-01 3.443055578997237e-01
            7.664692234227839e-02 2.123014806629789e-02 8.454500744327945e-02 1.688133781982007e-02 -1.673935181918633e-01 3.443795811096508e-01 -2.582007448770857e-01 -5.911701413931903e-02
            -2.581295056172987e-01 -5.909551329645133e-02 -1.673468487096241e-01 3.443730064379875e-01 7.789648410786375e-02 2.085550159100124e-02 6.908710893963900e-02 2.207724664811902e-02
            -1.674764381037641e-01 3.444355901336288e-01 -2.582158384314695e-01 -5.914603182330112e-02 6.910931692846520e-02 2.206103047467031e-02 7.787376115197420e-02 2.091111427896898e-02
640360000.0000000000 9.898509571348552e-02 1.672236236368681e-02 9.237557175745480e-02 2.196214422495241e-02 -2.597613935033575e-01 3.246335064791411e-02 -3.769680561401673e-02 3.811120208837861e-01
            9.240896902749679e-02 2.190570170874866e-02 9.900568644415073e-02 1.672528238563351e-02 -3.761090031839013e-02 3.810868933177270e-01 -2.597117379709691e-01 3.249375267354479e-02
            -2.597917856744771e-01 3.243773744913920e-02 -3.765803045499432e-02 3.810669312649970e-01 9.427608957382175e-02 2.142131503980226e-02 8.610726634224132e-02 2.375548162639198e-02
            -3.769248302468482e-02 3.810700786007876e-01 -2.596200032924941e-01 3.249466017370099e-02 8.600904184485074e-02 2.380089860800095e-02 9.430709579520878e-02 2.142734120068056e-02
641192500.0000000000 1.097639287234193e-01 6.913495361976281e-03 1.046372640390647e-01 1.224595063112421e-02 -2.310923543554290e-01 1.180050788440294e-01 9.581477208507208e-02 3.704949141951836e-01
            1.046639756218473e-01 1.229235704793051e-02 1.096382663658620e-01 6.933567966280431e-03 9.578912257725608e-02 3.705480648757354e-01 -2.310436308840974e-01 1.180038703260416e-01
            -2.310626337556328e-01 1.178887226907786e-01 9.575728056972811e-02 3.705658421066491e-01 1.068246219563614e-01 1.120492337063956e-02 9.961800712691972e-02 1.442062817534347e-02
            9.573206227297010e-02 3.705215276251171e-01 -2.310543569844246e-01 1.180558104787741e-01 9.963878051391614e-02 1.448183112587798e-02 1.067496150526485e-01 1.123390780757505e-02
642025000.0000000000 1.112016405060772e-01 -7.794854329835121e-03 1.075655124640109e-01 -2.887645750999790e-03 -1.760293469990352e-01 1.889582274478150e-01 2.169139256712364e-01 3.156416240950264e-01
            1.075290792520541e-01 -2.879155361198959e-03 1.112504749002557e-01 -7.826800455716616e-03 2.169589138949142e-01 3.156635527536559e-01 -1.760372991397881e-01 1.889476845673763e-01
            -1.760318044265036e-01 1.889363697163673e-01 2.169733130831464e-01 3.156545950220889e-01 1.095346836954323e-01 -4.589652457775730e-03 1.035330228747422e-01 -9.546656122035614e-04
            2.169204182712182e-01 3.156905477777269e-01 -1.759874160394652e-01 1.888919906151408e-01 1.034826910684132e-01 -9.686163830366163e-04 1.095130099837418e-01 -4.575302978915408e-03
642857500.0000000000 1.025812607725510e-01 -2.027729231738587e-02 1.000577233937014e-01 -1.637767623288465e-02 -9.961953645918983e-02 2.372630073535298e-01 3.126310631095631e-01 2.233337664326761e-01
            1.000524307038572e-01 -1.624050718337612e-02 1.025549549078927e-01 -2.035631509041718e-02 3.126341558410386e-01 2.233902908080963e-01 -9.975904480559876e-02 2.372941414557533e-01
            -9.975789364614958e-02 2.373547662498125e-01 3.126089289897429e-01 2.232848829669846e-01 1.012799681857797e-01 -1.839516682017505e-02 9.632228829507361e-02 -1.482969606601626e-02
            3.126673550949146e-01 2.233419952352531e-01 -9.978428228408237e-02 2.373187954080650e-01 9.633686467102226e-02 -1.491378590365490e-02 1.013419931707246e-01 -1.835563641682036e-02
643690000.0000000000 8.746086561096524e-02 -2.431332547677655e-02 8.548297835522629e-02 -2.156175224539344e-02 -1.072713829083444e-02 2.563089453087496e-01 3.722632281178080e-01 1.033869030520638e-01
            8.547330708688193e-02 -2.154802104923180e-02 8.740839274062907e-02 -2.436515862546580e-02 3.722974084457658e-01 1.034745012951149e-01 -1.076805562588970e-02 2.562597664901085e-01
            -1.071841344816841e-02 2.562675546375527e-01 3.722212538352860e-01 1.033375005793035e-01 8.583915016493678e-02 -2.350245846179813e-02 8.170161167261730e-02 -2.026241315358933e-02
            3.722160496873489e-01 1.034186361539460e-01 -1.066538028933091e-02 2.562917389174991e-01 8.168594861544308e-02 -2.024246974181886e-02 8.595034063357265e-02 -2.355004692456305e-02
644522500.0000000000 7.287730674128422e-02 -1.747481269060232e-02 7.118806821864564e-02 -1.575497269562868e-02 7.934297464074352e-02 2.421713741064089e-01 3.876554232367728e-01 -3.141642844394896e-02
            7.125754056162224e-02 -1.561685743940258e-02 7.283133292174226e-02 -1.742707657491974e-02 3.877209245784844e-01 -3.135262896203724e-02 7.935848605446974e-02 2.420515235989668e-01
            7.933064464384135e-02 2.420376653046790e-01 3.876235050458241e-01 -3.137265261544698e-02 7.055693263622367e-02 -1.714391065217773e-02 6.700043148131167e-02 -1.435253327906977e-02
            3.876702886474081e-01 -3.132558083052034e-02 7.935755687656186e-02 2.420862557131707e-01 6.702748947506691e-02 -1.438564851997112e-02 7.053463396186589e-02 -1.718266715055052e-02
645355000.0000000000 6.604923829311125e-02 -2.433752557246447e-03 6.450121518922605e-02 -1.512424721009692e-03 1.575413383543924e-01 1.967680373226454e-01 3.547445977313097e-01 -1.649254741983113e-01
            6.453235206978368e-02 -1.571727173458246e-03 6.607595824950296e-02 -2.543648815656591e-03 3.546883296283015e-01 -1.648999242205518e-01 1.574739788874011e-01 1.966505663558642e-01
            1.574950771601802e-01 1.967800615309696e-01 3.546871316961311e-01 -1.649202219278435e-01 6.295032022356595e-02 -2.184006611101594e-03 6.000462778752341e-02 3.002347848228230e-04
            3.548040166976945e-01 -1.648936329070411e-01 1.575586762391900e-01 1.967131913653939e-01 6.007438216357647e-02 2.378513325235961e-04 6.297527636565520e-02 -2.130410719091379e-03
646187500.0000000000 7.061248580785398e-02 1.354443585622478e-02 6.907658518905213e-02 1.351280769646427e-02 2.131337563011442e-01 1.277320624051748e-01 2.760806821210861e-01 -2.790772861202400e-01
            6.910708576543136e-02 1.356298102124708e-02 7.066683520605832e-02 1.346305565871877e-02 2.760838180804285e-01 -2.790482101108525e-01 2.131517538501839e-01 1.277352264438299e-01
            2.131496839978557e-01 1.277893128402152e-01 2.761069925432319e-01 -2.791047084266273e-01 6.716893357724261e-02 1.424960708355234e-02 6.478783391425433e-02 1.609617752880444e-02
            2.760373023664515e-01 -2.790762417539507e-01 2.130949398528425e-01 1.277072746745231e-01 6.478551031934718e-02 1.610971797481554e-02 6.713814491774193e-02 1.428191835153306e-02
647020000.0000000000 8.431781719791287e-02 2.270065812959601e-02 8.293631521132200e-02 2.173842124411970e-02 2.404752848945827e-01 4.581912348377656e-02 1.618964226417414e-01 -3.580068872554883e-01
            8.291757272893194e-02 2.171443977063690e-02 8.425346317573852e-02 2.264364353368789e-02 1.618286175199281e-01 -3.580257665558518e-01 2.404908334130332e-01 4.587558251435929e-02
            2.405257770444609e-01 4.586468096183176e-02 1.618691335410613e-01 -3.579510400807547e-01 8.096534156605671e-02 2.397410462464705e-02 7.908909571391255e-02 2.482348674995151e-02
            1.618188093068849e-01 -3.578935901525474e-01 2.405603665723582e-01 4.585502401430788e-02 7.909723101001399e-02 2.484664426476825e-02 8.092284990790950e-02 2.395736085235412e-02
647852500.0000000000 1.002830997047432e-01 2.087157000489234e-02 9.899426318292531e-02 1.875728156938955e-02 2.387697987615145e-01 -3.847150448464472e-02 2.798741268458535e-02 -3.915053967777438e-01
            9.895741386275450e-02 1.875178065990239e-02 1.002510719976809e-01 2.087931745483413e-02 2.797926077934960e-02 -3.915104289616057e-01 2.388822145838515e-01 -3.850249444585075e-02
            2.387930628766721e-01 -3.840374841291323e-02 2.799957833284999e-02 -3.914783744910966e-01 9.760935621179215e-02 2.240897555768233e-02 9.581998340725562e-02 2.217384164646060e-02
            2.808251491808757e-02 -3.914784133372445e-01 2.388461392623331e-01 -3.848782453457780e-02 9.589631204056356e-02 2.216456350200798e-02 9.758812281897707e-02 2.245985538949312e-02
648685000.0000000000 1.111704805129371e-01 9.684772583260734e-03 1.095390000676355e-01 5.957739003802897e-03 2.098118487667849e-01 -1.164248773195753e-01 -1.080791385967682e-01 -3.769143818536089e-01
            1.095077417240483e-01 5.903889135509591e-03 1.111231232521002e-01 9.641612832537175e-03 -1.080317204328807e-01 -3.768619785551621e-01 2.098036082995451e-01 -1.165089566157235e-01
            2.098101702248490e-01 -1.164058350022099e-01 -1.079852149944323e-01 -3.769610120163443e-01 1.092194796432646e-01 1.086260501602014e-02 1.069123620059504e-01 9.288544835648362e-03
            -1.079910590103981e-01 -3.769053840325182e-01 2.097505596084512e-01 -1.163504611128611e-01 1.069979095201619e-01 9.302527472495712e-03 1.091641373052279e-01 1.082458911889257e-02
649517500.0000000000 1.121616403294125e-01 -5.648638438913562e-03 1.095619798769734e-01 -1.093382549212260e-02 1.567028845659407e-01 -1.804072797543662e-01 -2.304062712300482e-01 -3.176347632459885e-01
            1.096797040460010e-01 -1.091960797198768e-02 1.121117137513920e-01 -5.642219112411833e-03 -2.304238960974991e-01 -3.175862928594302e-01 1.566209759456592e-01 -1.803912825454563e-01
            1.566818219649533e-01 -1.803990571798515e-01 -2.304193184010186e-01 -3.176338316415904e-01 1.107565283451783e-01 -5.185682200533490e-03 1.073015898976138e-01 -7.815181907382189e-03
            -2.304696110800684e-01 -3.176273073918867e-01 1.566093716978146e-01 -1.804208418688702e-01 1.073149143593484e-01 -7.918576520045880e-03 1.107185800332125e-01 -5.111380472475073e-03
650350000.0000000000 1.031284980118099e-01 -1.760994944072331e-02 9.905006101222501e-02 -2.442413219057056e-02 8.440661239671668e-02 -2.228949091692258e-01 -3.259940174247858e-01 -2.207261482425036e-01
            9.902994246687430e-02 -2.444600832165732e-02 1.030907894572778e-01 -1.765771767375355e-02 -3.260209038332020e-01 -2.206605132227879e-01 8.441235180388981e-02 -2.227964813968304e-01
            8.439864486983663e-02 -2.228222263401015e-01 -3.260045575739273e-01 -2.207181184603608e-01 1.019044896760373e-01 -1.831076924825963e-02 9.659816448247306e-02 -2.153211367966033e-02
            -3.260119685423924e-01 -2.206531615180164e-01 8.449388858918652e-02 -2.228768229938869e-01 9.659399917626343e-02 -2.151813902338036e-02 1.018827359609717e-01 -1.825447345460983e-02
651182500.0000000000 8.834032457762264e-02 -2.052047885299505e-02 8.227255532118158e-02 -2.835561370722977e-02 1.120906397040777e-03 -2.373172773775165e-01 -3.839517030323933e-01 -9.625362561855859e-02
            8.232770256562905e-02 -2.828276300979250e-02 8.830717837762847e-02 -2.062344053878837e-02 -3.839529668566624e-01 -9.631092134314997e-02 1.197409788472248e-03 -2.372621027903389e-01
            1.167749550540803e-03 -2.372651519013391e-01 -3.840466867758310e-01 -9.624503264413503e-02 8.674603099571547e-02 -2.234924731115633e-02 7.942104068247485e-02 -2.517565786430999e-02
            -3.839285124253474e-01 -9.628173998839161e-02 1.218364004222134e-03 -2.372983956658116e-01 7.948152008562485e-02 -2.517378136069047e-02 8.676450634601932e-02 -2.239872648844780e-02
652015000.0000000000 7.523083557238397e-02 -1.285166607423138e-02 6.678281227452726e-02 -2.065952108505801e-02 -8.174626707299487e-02 -2.208288362791404e-01 -3.962170050513345e-01 4.224936894920581e-02
            6.676678128925492e-02 -2.072586912218001e-02 7.528217157570753e-02 -1.284611138274188e-02 -3.961847652212893e-01 4.230900697095879e-02 -8.185602580859305e-02 -2.208096776572014e-01
            -8.176705268149055e-02 -2.208009227066127e-01 -3.962646213134430e-01 4.224255915987550e-02 7.290604785715409e-02 -1.565432389903881e-02 6.375332478290564e-02 -1.669576578481251e-02
            -3.962074306517731e-01 4.224595511952613e-02 -8.181221608343957e-02 -2.208774791632178e-01 6.377315574720098e-02 -1.671164555771123e-02 7.287661563609457e-02 -1.565837835486517e-02
652847500.0000000000 7.073432708851110e-02 2.021083612385730e-03 5.996128814409701e-02 -5.203039850006347e-03 -1.523490755916335e-01 -1.757688183108233e-01 -3.588315885539828e-01 1.780562441144617e-01
            5.997664520712164e-02 -5.135485020154080e-03 7.070779469576242e-02 2.079176859007777e-03 -3.588035856040946e-01 1.781290487109164e-01 -1.523760941193695e-01 -1.757737030257660e-01
            -1.523416657097202e-01 -1.757609969412691e-01 -3.588014664037994e-01 1.781265388400451e-01 6.736466645775954e-02 -1.466762170789341e-03 5.730118220023182e-02 -1.491123193705934e-04
            -3.588140989897091e-01 1.780667522827475e-01 -1.523065127743613e-01 -1.758120736445527e-01 5.731094820693612e-02 -1.069671996426416e-04 6.729268008306129e-02 -1.446940228424947e-03
653680000.0000000000 7.739435142615886e-02 1.638479694204491e-02 6.491043246598052e-02 1.054864377920769e-02 -2.009045699794024e-01 -1.100910781511838e-01 -2.751387598847908e-01 2.927193499339540e-01
            6.479514058153285e-02 1.046908738964893e-02 7.740722483326196e-02 1.638631222561981e-02 -2.752201993620264e-01 2.926957936884190e-01 -2.009045472587712e-01 -1.099266955575877e-01
            -2.008827518078217e-01 -1.099794878673933e-01 -2.752094801959660e-01 2.926907592125031e-01 7.275225595223596e-02 1.262757906164762e-02 6.322767058283454e-02 1.671072477333679e-02
            -2.751320941320921e-01 2.926749529326589e-01 -2.009048972587771e-01 -1.100486311820556e-01 6.318707464648848e-02 1.672211640070890e-02 7.275971910877284e-02 1.255264804184894e-02
654512500.0000000000 9.211936059565408e-02 2.288235931323101e-02 7.836288973789531e-02 1.880419802046914e-02 -2.230026256177581e-01 -3.358266527759696e-02 -1.564078539357191e-01 3.702166204210536e-01
            7.836564323462966e-02 1.883431421837983e-02 9.214505442671635e-02 2.290421506919433e-02 -1.563773007225761e-01 3.702194481132984e-01 -2.229987196957983e-01 -3.355578342364555e-02
            -2.230566971958649e-01 -3.352441992356268e-02 -1.563718440771034e-01 3.701386076063646e-01 8.626802788144876e-02 1.898594078041898e-02 7.846908044300384e-02 2.541602796583486e-02
            -1.564245045363338e-01 3.701311137833115e-01 -2.229875045711908e-01 -3.359029097353490e-02 7.856934382439737e-02 2.539811109698173e-02 8.619910172997125e-02 1.901370877325634e-02
655345000.0000000000 1.076544215916125e-01 1.828039108263917e-02 9.342308193765700e-02 1.610501547592551e-02 -2.183347368493757e-01 4.391953624454654e-02 -1.889732152981575e-02 4.009756601010327e-01
            9.341895944324539e-02 1.606459616017404e-02 1.076760046431834e-01 1.839454228301938e-02 -1.888777010581610e-02 4.010256490283966e-01 -2.182873792113255e-01 4.385729292349657e-02
            -2.183178748758822e-01 4.386077095667539e-02 -1.883771548555125e-02 4.009760021790637e-01 1.005243332480276e-01 1.463976149548676e-02 9.544898655617332e-02 2.225256309658883e-02
            -1.888492229595019e-02 4.008744850488330e-01 -2.182936691624841e-01 4.383557012902008e-02 9.551861388309932e-02 2.218436045616331e-02 1.005729788495360e-01 1.471314585287442e-02
656177500.0000000000 1.168656394498337e-01 4.994800081350276e-03 1.026246769220604e-01 4.363406788865239e-03 -1.887670342362129e-01 1.146116382237452e-01 1.197833971236051e-01 3.827960252623884e-01
            1.026124126445384e-01 4.390056524887988e-03 1.169138305183288e-01 5.048675889557516e-03 1.196912750849421e-01 3.827961501494405e-01 -1.887070095902603e-01 1.147252064114069e-01
            -1.887447049602313e-01 1.146175358255307e-01 1.196968418544102e-01 3.828512575413524e-01 1.083330211697393e-01 1.755311139054177e-03 1.062791726574017e-01 9.117876265834412e-03
            1.197787374133484e-01 3.828956582786844e-01 -1.887248518862291e-01 1.146972602342041e-01 1.062064551755000e-01 9.089303688353373e-03 1.085037024528913e-01 1.737385982948996e-03
657010000.0000000000 1.156285109010669e-01 -1.106189831863117e-02 1.017884650171058e-01 -1.030070638332184e-02 -1.373254046931680e-01 1.715751045822225e-01 2.435326929678405e-01 3.192507057268433e-01
            1.018779029926076e-01 -1.036022880117547e-02 1.156461509787663e-01 -1.112386320731446e-02 2.435534897687729e-01 3.192669387945425e-01 -1.373432272202731e-01 1.716424126861230e-01
            -1.373639231881743e-01 1.716492991374743e-01 2.435692703734967e-01 3.192437200800153e-01 1.059619885345615e-01 -1.353654738826028e-02 1.061635729154068e-01 -7.672583169085831e-03
            2.436096931631009e-01 3.192220271646412e-01 -1.373129332199853e-01 1.715650502503154e-01 1.061165528834656e-01 -7.608548402091119e-03 1.059568081754237e-01 -1.355823753712245e-02
657842500.0000000000 1.046621480439320e-01 -2.264317371771117e-02 9.147656517209862e-02 -2.086356059175275e-02 -6.902311487437601e-02 2.079096042072535e-01 3.391289394037532e-01 2.176313245863043e-01
            9.138348037543571e-02 -2.088047114164052e-02 1.046768126191578e-01 -2.270048219872658e-02 3.391063321439181e-01 2.176728162005685e-01 -6.902764087350775e-02 2.078724671053117e-01
            -6.898700068504189e-02 2.078981301540470e-01 3.391685332890880e-01 2.177097786115280e-01 9.370759866035515e-02 -2.393697513540342e-02 9.525234231026984e-02 -2.020615858421976e-02
            3.392232555983463e-01 2.175724295021381e-01 -6.903779759319097e-02 2.078683245681873e-01 9.529277285065392e-02 -2.028853793489519e-02 9.375420883356746e-02 -2.395370956376132e-02
658675000.0000000000 8.902941680667709e-02 -2.452265831137219e-02 7.644334707521275e-02 -2.189495191935661e-02 8.313016993502009e-03 2.177146620546362e-01 3.953826984608183e-01 8.861398671097184e-02
            7.647576439355119e-02 -2.196192375515984e-02 8.893075771529832e-02 -2.450230347636323e-02 3.953504921479499e-01 8.856797430490557e-02 8.252074630980533e-03 2.177074700557794e-01
            8.267290437375887e-03 2.176783244504538e-01 3.953745014080541e-01 8.850244075551414e-02 7.718547407197386e-02 -2.406981180533750e-02 7.881430805467443e-02 -2.278699401381517e-02
            3.953545018264334e-01 8.861738486289193e-02 8.290789408373739e-03 2.177410344257597e-01 7.875129250382289e-02 -2.280769341774761e-02 7.719915032160303e-02 -2.414733755695696e-02
659507500.0000000000 7.607769363641914e-02 -1.583663228965159e-02 6.437477264581787e-02 -1.264639572347817e-02 8.367545670482877e-02 1.988719132191306e-01 4.039763976949830e-01 -5.375592002472166e-02
            6.430075059203987e-02 -1.259868409019577e-02 7.611215802330629e-02 -1.577563165244650e-02 4.039396383634529e-01 -5.364058218137797e-02 8.379607035916216e-02 1.987966178949221e-01
            8.374489029561552e-02 1.988715685425589e-01 4.040201353931837e-01 -5.380057533079854e-02 6.405136507171205e-02 -1.331817969209428e-02 6.476608395472404e-02 -1.378746259554308e-02
            4.039339023978096e-01 -5.370442402526802e-02 8.372324898266359e-02 1.988358299995770e-01 6.468305058056575e-02 -1.383971339713324e-02 6.404664907188513e-02 -1.339875228127534e-02
660340000.0000000000 7.234480856923259e-02 -1.036038560978859e-03 6.155273653632432e-02 2.575984435757074e-03 1.462251011929447e-01 1.543891508552585e-01 3.617504837063236e-01 -1.915768247040188e-01
            6.151032500381894e-02 2.585680627361148e-03 7.238150019139662e-02 -1.026355678747908e-03 3.617342279492169e-01 -1.915388653629328e-01 1.461874168427142e-01 1.544955636298219e-01
            1.461990581519356e-01 1.545002809454754e-01 3.617683004078195e-01 -1.915507945225027e-01 6.077519125666847e-02 3.406235345593004e-03 6.018648614569223e-02 2.197213469714416e-03
            3.617220615119732e-01 -1.915329742174261e-01 1.461552174570116e-01 1.544666481722493e-01 6.018100741717401e-02 2.233005657847490e-03 6.077002295727404e-02 3.488424484014021e-03
661172500.0000000000 7.949814809931476e-02 1.223607068792807e-02 6.957491606891145e-02 1.575035972108087e-02 1.875227334258962e-01 9.230842671359876e-02 2.729442107097605e-01 -3.059841758523724e-01
            6.961829390578980e-02 1.583268393079601e-02 7.943390835543940e-02 1.221063322108072e-02 2.730445668981537e-01 -3.059663279023916e-01 1.875226987513345e-01 9.228759985942094e-02
            1.875322043088831e-01 9.228178974304352e-02 2.729855699343237e-01 -3.059988105539205e-01 6.909164598512443e-02 1.842105176149960e-02 6.746551461979094e-02 1.713881331822168e-02
            2.729698986238383e-01 -3.060370553077703e-01 1.875261311669436e-01 9.222985452760717e-02 6.747708789741307e-02 1.718503426491896e-02 6.915262899955398e-02 1.837028805198189e-02
662005000.0000000000 9.348318753850780e-02 1.710134400893046e-02 8.445912875891609e-02 2.040494223144411e-02 2.045231419384724e-01 2.183015703252556e-02 1.498211448481917e-01 -3.815250811189518e-01
            8.454169958858485e-02 2.045175744099853e-02 9.337972338477971e-02 1.701572055678712e-02 1.498203933489048e-01 -3.815836286375097e-01 2.043890148162051e-01 2.189959185512015e-02
            2.044465511909430e-01 2.192962494846058e-02 1.498786032888256e-01 -3.816713801602247e-01 8.475669096454538e-02 2.440163712128279e-02 8.257349313139946e-02 2.349388189379831e-02
            1.498684008714492e-01 -3.815649913378547e-01 2.044786801313520e-01 2.188483128771448e-02 8.252348068883834e-02 2.348649113671525e-02 8.471686599186014e-02 2.443820992385374e-02
662837500.0000000000 1.069135145056227e-01 1.149255244369973e-02 9.867692055337544e-02 1.411183530692653e-02 1.971477073557981e-01 -4.839539121317668e-02 9.075574222836391e-03 -4.092831308503301e-01
            9.870246359530571e-02 1.407208205331088e-02 1.069446026057011e-01 1.144653283326605e-02 9.065577649729893e-03 -4.092477432930722e-01 1.970963186216775e-01 -4.841967212136109e-02
            1.971496156876158e-01 -4.841151050656029e-02 9.074928031170153e-03 -4.092877287972793e-01 1.001085014590350e-01 1.912262979019648e-02 9.795299476964192e-02 1.842373342448495e-02
            9.148998177075547e-03 -4.092935017051722e-01 1.971465954560110e-01 -4.836685006065383e-02 9.798284872602332e-02 1.840043945431199e-02 1.001148103842743e-01 1.907157615179821e-02
663670000.0000000000 1.133033921577343e-01 -1.755848871634059e-03 1.053052569654136e-01 -7.288689742329387e-05 1.673842450181364e-01 -1.117719023641156e-01 -1.316250463033579e-01 -3.873223976499456e-01
            1.053730787042785e-01 -5.154441382996959e-05 1.132690870327694e-01 -1.692175486217257e-03 -1.316999217159196e-01 -3.874302487137063e-01 1.673906689731881e-01 -1.118489135056034e-01
            1.674700955382474e-01 -1.118519536258298e-01 -1.316725737745283e-01 -3.873850077007058e-01 1.081377289001884e-01 5.590100880888901e-03 1.063345930494971e-01 4.703867907761282e-03
            -1.316778198516501e-01 -3.874040439387327e-01 1.674116539741247e-01 -1.118181388562157e-01 1.063339642739777e-01 4.755692105607617e-03 1.079597433835398e-01 5.591844547455505e-03
664502500.0000000000 1.095561475966287e-01 -1.592430635244002e-02 1.013843031070168e-01 -1.536817958778942e-02 1.181364053006456e-01 -1.618084851731682e-01 -2.563899753436432e-01 -3.195896817220192e-01
            1.012562962411270e-01 -1.541894014987571e-02 1.096216967436094e-01 -1.589124546059803e-02 -2.564490598180475e-01 -3.195777944057122e-01 1.180568909443324e-01 -1.617369785859588e-01
            1.181674364728888e-01 -1.617986618502285e-01 -2.564471163152499e-01 -3.196328919772936e-01 1.054338614647384e-01 -9.443619048867855e-03 1.039712095301950e-01 -1.111859578453536e-02
            -2.563901366981132e-01 -3.195079984751552e-01 1.181315568007895e-01 -1.618176570977160e-01 1.039714790189010e-01 -1.115334982143751e-02 1.053973428889690e-01 -9.547107005416182e-03
665335000.0000000000 9.729346945589946e-02 -2.442774414023959e-02 8.809256962894403e-02 -2.467638450241327e-02 5.407202310404427e-02 -1.919485942811516e-01 -3.515123674075414e-01 -2.134796822557494e-01
            8.816034088699050e-02 -2.463099237908679e-02 9.736291421127233e-02 -2.442450443590098e-02 -3.515032281788109e-01 -2.134049948065069e-01 5.411377006741589e-02 -1.920169525987405e-01
            5.407409410970344e-02 -1.919742344564075e-01 -3.515439443566352e-01 -2.133873499532910e-01 9.374002894880458e-02 -1.884920613119482e-02 9.177368628697047e-02 -2.175996651790328e-02
            -3.515560325682702e-01 -2.134476524879508e-01 5.413119351273604e-02 -1.920415791083349e-01 9.175900159672569e-02 -2.172506399417393e-02 9.380084929140532e-02 -1.890987501800378e-02
666167500.0000000000 8.217631880633468e-02 -2.279671781392477e-02 7.172797809654829e-02 -2.330240276356457e-02 -1.690401721302433e-02 -1.973176136096728e-01 -4.056283287140254e-01 -7.999100043755956e-02
            7.177603557263722e-02 -2.334678404979929e-02 8.216497082364668e-02 -2.286377780504687e-02 -4.055742782815245e-01 -8.004622899760808e-02 -1.692001791235132e-02 -1.973900787776431e-01
            -1.692314395343435e-02 -1.973297301021760e-01 -4.056295494201966e-01 -8.002169219226644e-02 7.873628703187042e-02 -1.811751213860145e-02 7.562042919290760e-02 -2.181894015629924e-02
            -4.055453204874279e-01 -8.003940763695395e-02 -1.695593689960729e-02 -1.972876553743698e-01 7.561336791816047e-02 -2.184608753431031e-02 7.879792982732485e-02 -1.806085563625063e-02
667000000.0000000000 7.153804512123214e-02 -1.147540954469785e-02 5.990551047910669e-02 -1.143287306712231e-02 -8.460239786509779e-02 -1.764177371423921e-01 -4.102717069000004e-01 6.556097569303611e-02
            5.990679696582833e-02 -1.146927357933388e-02 7.162878752619244e-02 -1.142532611618470e-02 -4.103439174034112e-01 6.547215662639257e-02 -8.465069753414170e-02 -1.763110395130967e-01
            -8.470090681508684e-02 -1.764932178384351e-01 -4.102564010125249e-01 6.550697837786808e-02 6.821152333293130e-02 -7.247690426144234e-03 6.334219812635868e-02 -1.116143192727069e-02
            -4.103349603929683e-01 6.554374924301808e-02 -8.460837732753620e-02 -1.763882814718578e-01 6.338139770171640e-02 -1.127694897029217e-02 6.825386355421294e-02 -7.224956734411697e-03
667832500.0000000000 7.125765353448839e-02 4.265629654380825e-03 5.867081068418460e-02 5.271229052813253e-03 -1.389374964017664e-01 -1.330106974599670e-01 -3.631218850475177e-01 2.048252766467254e-01
            5.850437238806844e-02 5.277475106142997e-03 7.125609151077762e-02 4.309380785108142e-03 -3.631377610290177e-01 2.048554091757506e-01 -1.388600642636234e-01 -1.331133682851730e-01
            -1.389280569199174e-01 -1.330897491167204e-01 -3.631765136982588e-01 2.047423233382335e-01 6.784969377911482e-02 8.008888380012074e-03 6.111332089502230e-02 4.762065599221548e-03
            -3.631834408632273e-01 2.047874996381079e-01 -1.389061291831672e-01 -1.330156459321779e-01 6.116349333971963e-02 4.808069492761081e-03 6.783945687298959e-02 8.075569527104635e-03
668665000.0000000000 8.134737625803964e-02 1.638177554246419e-02 6.841303098940910e-02 1.878343804235149e-02 -1.730871927443391e-01 -7.509660281590085e-02 -2.695073342602639e-01 3.185407150748477e-01
            6.839083366569006e-02 1.878565032710158e-02 8.137003276351386e-02 1.639911799889594e-02 -2.695478339211562e-01 3.185401792610548e-01 -1.731855164708858e-01 -7.502342223622392e-02
            -1.730786550250729e-01 -7.505085662030606e-02 -2.695054193381535e-01 3.185242515877884e-01 7.797171168497356e-02 1.987725093269416e-02 7.019392006106683e-02 1.820122520640027e-02
            -2.695509550965046e-01 3.185430085384721e-01 -1.731106148284087e-01 -7.501924359187546e-02 7.019505222687530e-02 1.817433625348671e-02 7.798650488727400e-02 1.984428790407676e-02
669497500.0000000000 9.689985080406828e-02 1.888972086844730e-02 8.426035458930860e-02 2.255479158537610e-02 -1.851041135716803e-01 -1.101316152755126e-02 -1.423753006248108e-01 3.918449700325989e-01
            8.428310174213723e-02 2.252799740811059e-02 9.694673777443730e-02 1.889848257137574e-02 -1.423119255819373e-01 3.917341288209640e-01 -1.849946115382236e-01 -1.102027191511410e-02
            -1.850217156160172e-01 -1.103544676799070e-02 -1.422937812455042e-01 3.918183820111216e-01 9.369132031456016e-02 2.202294693032940e-02 8.559482963300659e-02 2.211002253169819e-02
            -1.423377525697219e-01 3.917342715001558e-01 -1.850109957333460e-01 -1.105331721832594e-02 8.562339925456632e-02 2.218958183538556e-02 9.362596102191602e-02 2.202046801520406e-02
670330000.0000000000 1.104117803613982e-01 1.087670668678361e-02 9.857329675095065e-02 1.540531436405081e-02 -1.754437331422365e-01 5.182375839900243e-02 1.106775282812362e-03 4.161687441800698e-01
            9.853822446898136e-02 1.542074867945965e-02 1.103209390149272e-01 1.085495954780344e-02 1.192494315617983e-03 4.161367471963736e-01 -1.754811707324270e-01 5.186573581951254e-02
            -1.754153512155251e-01 5.187512195883524e-02 1.141255354812541e-03 4.161896336663308e-01 1.071344519875076e-01 1.323511766290780e-02 9.974947167702281e-02 1.519266495942815e-02
            1.139650221600844e-03 4.161242074169095e-01 -1.754262727056907e-01 5.186254361402412e-02 9.974457264763913e-02 1.517391594273009e-02 1.070514427007617e-01 1.338978200356357e-02
671162500.0000000000 1.154426159493367e-01 -3.831035550152119e-03 1.047042895724833e-01 9.546468448171664e-04 -1.460731359222048e-01 1.077869577512637e-01 1.434246745989048e-01 3.903818784119661e-01
            1.047150126848026e-01 9.457390185321207e-04 1.154486949144271e-01 -3.989658743118233e-03 1.434735004092304e-01 3.904768339245493e-01 -1.460778460242674e-01 1.077702333293604e-01
            -1.460599892445311e-01 1.077030407955543e-01 1.434952245148791e-01 3.904400830176187e-01 1.119472964080461e-01 -2.122698449930760e-03 1.058747369047099e-01 7.047721510571975e-04
            1.433601445223400e-01 3.904596986081801e-01 -1.459979445855687e-01 1.078176536355410e-01 1.058415281165384e-01 7.464748849058386e-04 1.119479282998659e-01 -2.079023438525879e-03
671995000.0000000000 1.100686005657881e-01 -1.849082954623342e-02 1.001849320545541e-01 -1.381877869278813e-02 -9.947254333358337e-02 1.508310382632695e-01 2.685231447979017e-01 3.185246143655120e-01
            1.001395331213020e-01 -1.382740386810933e-02 1.100528248688411e-01 -1.850414695097889e-02 2.684448784032010e-01 3.185122224106308e-01 -9.938474357909578e-02 1.508216987997129e-01
            -9.939562536836623e-02 1.508733709059213e-01 2.685019698242225e-01 3.184487040018268e-01 1.058842234914657e-01 -1.717733729627562e-02 1.013011889871046e-01 -1.429141082553145e-02
            2.685608247558735e-01 3.184351747300022e-01 -9.936584426994532e-02 1.508648012846557e-01 1.012807074324581e-01 -1.425865551839710e-02 1.058714015338811e-01 -1.714085528735383e-02
672827500.0000000000 9.649891846385612e-02 -2.617429551544117e-02 8.710452101857928e-02 -2.208186823525609e-02 -4.010150018739392e-02 1.752101423327672e-01 3.627449015354046e-01 2.082415536475532e-01
            8.705339684186351e-02 -2.207580197943202e-02 9.653202484324186e-02 -2.630934613296881e-02 3.627380279104877e-01 2.081918595830351e-01 -4.004638643389162e-02 1.752086523851930e-01
            -4.010735237858116e-02 1.752309866657453e-01 3.627300914368447e-01 2.082247004933148e-01 9.150249247062191e-02 -2.511512280565281e-02 8.800791561839011e-02 -2.282350371594138e-02
            3.626629328784242e-01 2.081909797134744e-01 -4.006630503735632e-02 1.752363619119208e-01 8.792847439490142e-02 -2.286078942167271e-02 9.147031595613206e-02 -2.502017172812267e-02
673660000.0000000000 8.118608085365159e-02 -2.324585567017400e-02 7.187471744241912e-02 -1.971761240381651e-02 2.439046308478075e-02 1.765636498373198e-01 4.142297592024847e-01 7.111726898123942e-02
            7.174537926112445e-02 -1.978542162522772e-02 8.122762237159199e-02 -2.322865862719441e-02 4.142852937599965e-01 7.100744349553821e-02 2.438784051100536e-02 1.765911239011096e-01
            2.437408463794199e-02 1.765500628061170e-01 4.142968704640448e-01 7.115244818235414e-02 7.545136193736811e-02 -2.192014567159436e-02 7.207140838060283e-02 -2.065913589553210e-02
            4.142030656775987e-01 7.104131850434738e-02 2.436869853777938e-02 1.764493672980419e-01 7.208566493414659e-02 -2.062739457366898e-02 7.547857139506388e-02 -2.192821796697543e-02
674492500.0000000000 7.164834195193744e-02 -1.101732578050075e-02 6.181834693757491e-02 -7.840823968510094e-03 8.436146641099519e-02 1.542008707804680e-01 4.151789528087544e-01 -7.713300159619900e-02
            6.186514392467301e-02 -7.877652752316392e-03 7.159936653862099e-02 -1.101073428214831e-02 4.152000704010974e-01 -7.708066981196020e-02 8.424802180892432e-02 1.541106250695746e-01
            8.427827051710228e-02 1.541562350227310e-01 4.152150599050221e-01 -7.712954473331472e-02 6.533416163791415e-02 -9.170512200277129e-03 6.150813490895891e-02 -8.411703099720154e-03
            4.151594171730782e-01 -7.709450348965810e-02 8.426616338824966e-02 1.541762527494396e-01 6.145559227705527e-02 -8.498200693296981e-03 6.528417715088355e-02 -9.188268028252863e-03
675325000.0000000000 7.256889055861274e-02 4.549846518957465e-03 6.222519770627663e-02 7.643581360731370e-03 1.306758076686860e-01 1.123569354388880e-01 3.634131064664416e-01 -2.170661266292851e-01
            6.214994539569485e-02 7.615999130938164e-03 7.250323029042395e-02 4.596382477272226e-03 3.634358588442407e-01 -2.172017213205848e-01 1.306655604215282e-01 1.123695826611634e-01
            1.306989622025379e-01 1.123644351053307e-01 3.633276834891779e-01 -2.172114447416096e-01 6.615954176490903e-02 7.082774631702271e-03 6.152556167278973e-02 7.681443303078278e-03
            3.634226486954727e-01 -2.171485833403969e-01 1.306247894537874e-01 1.122842994380670e-01 6.157849713869700e-02 7.653713520265218e-03 6.613091148306297e-02 7.013995400095257e-03
676157500.0000000000 8.362105072692222e-02 1.552070112334082e-02 7.277327642256794e-02 1.882379189583587e-02 1.581926798374894e-01 5.865124826795597e-02 2.654086038767999e-01 -3.300411184054373e-01
            7.287402141477041e-02 1.882922574246852e-02 8.362675232339800e-02 1.555984235437674e-02 2.653993595225743e-01 -3.301022484988161e-01 1.581981071397567e-01 5.876858420840234e-02
            1.581435652103728e-01 5.870224848014293e-02 2.653261246368527e-01 -3.300858921688544e-01 7.744341931251433e-02 1.823854191442598e-02 7.228135456932083e-02 1.967079616508603e-02
            2.653642328694065e-01 -3.300373004142412e-01 1.581202186848287e-01 5.870625529196889e-02 7.227184533179601e-02 1.962141372678053e-02 7.740536422869497e-02 1.827694849410987e-02
676990000.0000000000 9.899501535169264e-02 1.659456631932362e-02 8.799498248145360e-02 2.026193741167741e-02 1.655529181466152e-01 8.876805708281758e-04 1.346871507995062e-01 -4.009150927792823e-01
            8.798632073875813e-02 2.028930919891908e-02 9.906024388042385e-02 1.653814924327415e-02 1.346718540625517e-01 -4.008285651532647e-01 1.655963560803849e-01 9.456264547171209e-04
            1.655308061976147e-01 9.619735256532639e-04 1.346688699893658e-01 -4.009263538049073e-01 9.294799474414957e-02 1.917896557838106e-02 8.802114144864315e-02 2.173103968607258e-02
            1.345784782709714e-01 -4.008951017034034e-01 1.655640302811172e-01 9.253430623242787e-04 8.798384524565062e-02 2.166111194084514e-02 9.307493894514048e-02 1.911726183289952e-02
677822500.0000000000 1.113179956129703e-01 7.420546261815153e-03 1.003205540415729e-01 1.159230686098741e-02 1.539075248384401e-01 -5.473674920585810e-02 -1.134603290384515e-02 -4.220480185932393e-01
            1.002893699726699e-01 1.159551700313750e-02 1.113522359028246e-01 7.389110155568870e-03 -1.131052046849135e-02 -4.220124149340608e-01 1.537986756466488e-01 -5.477455060821933e-02
            1.538706522453172e-01 -5.475090638152855e-02 -1.133022436356372e-02 -4.220243394110747e-01 1.052430603281943e-01 9.581136744246252e-03 1.010589017830250e-01 1.305216767206639e-02
            -1.131220044672942e-02 -4.220634043219152e-01 1.538822567436633e-01 -5.475716353354041e-02 1.010650103978607e-01 1.309560072375724e-02 1.052145959425645e-01 9.572208748829091e-03
678655000.0000000000 1.149040189249452e-01 -7.438177596376125e-03 1.039373993158755e-01 -2.824337715153507e-03 1.248165994869135e-01 -1.031046614589511e-01 -1.549959258438439e-01 -3.925811698344868e-01
            1.039094002045265e-01 -2.874551239530526e-03 1.149083987397914e-01 -7.447324975518909e-03 -1.549839862292049e-01 -3.926102670952684e-01 1.247894763513372e-01 -1.031303806097726e-01
            1.248585540050780e-01 -1.032474227020389e-01 -1.549042423629606e-01 -3.925859343970928e-01 1.082329050517965e-01 -5.791029731742758e-03 1.055630145612645e-01 -2.030150170266047e-03
            -1.549375890353181e-01 -3.926060973735137e-01 1.248536866181156e-01 -1.030982153971017e-01 1.055487934289395e-01 -2.007279703169060e-03 1.081760411425176e-01 -5.814208808628027e-03
679487500.0000000000 1.083063764874949e-01 -2.112158392737249e-02 9.737967339600240e-02 -1.624302968514747e-02 8.081735992726276e-02 -1.392871485523156e-01 -2.802891553179237e-01 -3.166625031353441e-01
            9.734938460996610e-02 -1.621701077697994e-02 1.082732775229684e-01 -2.112894254133466e-02 -2.803257923497933e-01 -3.166590711385385e-01 8.082555258368339e-02 -1.393081157701508e-01
            8.087345852627489e-02 -1.393285380454630e-01 -2.802662863291838e-01 -3.166258818313895e-01 1.003649086313632e-01 -1.958417477661110e-02 9.925622340439555e-02 -1.644870227098812e-02
            -2.803536493905692e-01 -3.166620885249398e-01 8.074248148295124e-02 -1.393970508179100e-01 9.931582304091871e-02 -1.643035825297098e-02 1.002833403769911e-01 -1.963128651080181e-02
680320000.0000000000 9.444798105086442e-02 -2.731725193147909e-02 8.361497983823064e-02 -2.210882102278254e-02 2.636802473980248e-02 -1.578941344226914e-01 -3.732179176197828e-01 -2.022452105600028e-01
            8.363569015034562e-02 -2.210310095666453e-02 9.449295229597059e-02 -2.727095951703588e-02 -3.731502945668581e-01 -2.023077069887253e-01 2.637313925131281e-02 -1.579252271658997e-01
            2.637052180823594e-02 -1.579662563669096e-01 -3.732889550162977e-01 -2.022213583216773e-01 8.503261337692582e-02 -2.522565265012458e-02 8.505940251147548e-02 -2.337996175392885e-02
            -3.732186145764251e-01 -2.023390452416186e-01 2.640802946928722e-02 -1.578989848905698e-01 8.507455493478640e-02 -2.341596797562950e-02 8.506132965011748e-02 -2.517095890261546e-02
681152500.0000000000 8.016336353142883e-02 -2.306450311409024e-02 6.920988190607856e-02 -1.745859166791367e-02 -3.131093380461011e-02 -1.552969441232686e-01 -4.220417080664977e-01 -6.153489168992293e-02
            6.937408809357075e-02 -1.751696891089330e-02 8.020725892461218e-02 -2.302593977253221e-02 -4.219959552818448e-01 -6.153374822698125e-02 -3.122982353357833e-02 -1.552679875146699e-01
            -3.127560447401286e-02 -1.551972381147795e-01 -4.220271722208031e-01 -6.155517696483529e-02 6.940432104606868e-02 -1.952089039667956e-02 6.960133751359220e-02 -1.950175858813747e-02
            -4.220773528724689e-01 -6.164286613543780e-02 -3.120836806611331e-02 -1.552093301500618e-01 6.964335712121769e-02 -1.947864005743533e-02 6.936399611669138e-02 -1.944721730422432e-02
681985000.0000000000 7.241105765058899e-02 -1.065857457257809e-02 6.149832899283952e-02 -4.426430142827835e-03 -8.310758642321724e-02 -1.315981597659906e-01 -4.188495793526089e-01 8.884909886540941e-02
            6.153067063836723e-02 -4.488356168380133e-03 7.248394806007313e-02 -1.065672651520679e-02 -4.187599306984500e-01 8.886227792768778e-02 -8.315181100372494e-02 -1.316042710528616e-01
            -8.317772326844046e-02 -1.315824756026410e-01 -4.188130996691968e-01 8.888620481547760e-02 6.092386514440028e-02 -4.824348529589044e-03 6.054802230051513e-02 -6.466181937868503e-03
            -4.188730483687186e-01 8.880743980123640e-02 -8.311160891513510e-02 -1.316574925946534e-01 6.052682317860069e-02 -6.473567019334106e-03 6.101935538837139e-02 -4.749562524312361e-03
682817500.0000000000 7.508997344267100e-02 3.535911532210194e-03 6.458649380196985e-02 1.048013565029177e-02 -1.215172681120654e-01 -9.169233839937527e-02 -3.624968254335075e-01 2.292927772666697e-01
            6.448591503580116e-02 1.040479028493818e-02 7.502064444717563e-02 3.588379766454366e-03 -3.624933397281165e-01 2.292893957468906e-01 -1.215048478328614e-01 -9.173493130300930e-02
            -1.215024920760524e-01 -9.171445839810598e-02 -3.624792171986389e-01 2.293728077551496e-01 6.408730289370988e-02 1.193431462206504e-02 6.230430388267555e-02 9.265497419845789e-03
            -3.625175780106478e-01 2.293160556933070e-01 -1.215224758516437e-01 -9.175324913375128e-02 6.223733077635051e-02 9.280881013525337e-03 6.410540525611810e-02 1.193948363606529e-02
683650000.0000000000 8.650246471095908e-02 1.204106797806846e-02 7.660570711148100e-02 1.956617379883421e-02 -1.424168305943809e-01 -4.270262845076823e-02 -2.601920645291405e-01 3.407248941391973e-01
            7.666276102523949e-02 1.961999323947906e-02 8.642660317948676e-02 1.207118504164565e-02 -2.602071384505243e-01 3.406921326858782e-01 -1.424813872701758e-01 -4.274188448007839e-02
            -1.424034857585461e-01 -4.273880519069147e-02 -2.602013010500616e-01 3.407001338739062e-01 7.722935757236422e-02 2.245582169902355e-02 7.379218737526116e-02 1.971365800537776e-02
            -2.602545352115994e-01 3.407092063384788e-01 -1.423509729649054e-01 -4.274869621890615e-02 7.375310135684915e-02 1.961007953927069e-02 7.720943224686852e-02 2.252645426680651e-02
684482500.0000000000 1.005224189305350e-01 1.065605755435973e-02 9.176556249776358e-02 1.855141688908075e-02 -1.455656182175628e-01 8.372633678762540e-03 -1.262254563453918e-01 4.089312575208368e-01
            9.172635422210498e-02 1.847738315177101e-02 1.005324770380252e-01 1.055852058669759e-02 -1.263145713811055e-01 4.088481538074138e-01 -1.454997530044717e-01 8.460778446428745e-03
            -1.454191804411673e-01 8.502115793707061e-03 -1.262147846591019e-01 4.088881842446518e-01 9.382658772714306e-02 2.214458070324863e-02 8.896978002411045e-02 1.989519425291733e-02
            -1.262891509665635e-01 4.088166830494510e-01 -1.454472358002867e-01 8.500689664659406e-03 8.903066406073017e-02 1.994011128633134e-02 9.383924553457909e-02 2.219640799328538e-02
685315000.0000000000 1.101712172926465e-01 -1.701378467983648e-05 1.025108427779936e-01 7.824080536386622e-03 -1.320368827638390e-01 5.669700675999666e-02 2.168902625350762e-02 4.266677074059831e-01
            1.024991197413111e-01 7.771145065226814e-03 1.100896553783696e-01 2.531389037354511e-05 2.174423664078219e-02 4.267103598724040e-01 -1.319345969505809e-01 5.668702572024637e-02
            -1.319627266261387e-01 5.671325833964090e-02 2.174066987018092e-02 4.267144207044195e-01 1.060550876832652e-01 1.156449904490133e-02 1.006585557392505e-01 1.015558125303938e-02
            2.172509625497566e-02 4.266975200859114e-01 -1.320178366643665e-01 5.670491264840147e-02 1.006245147954259e-01 1.018995489598499e-02 1.058945385892463e-01 1.153839523748136e-02
686147500.0000000000 1.104732191105541e-01 -1.447497078871779e-02 1.039769637384105e-01 -7.323770515639075e-03 -1.036437588483175e-01 9.769815475268713e-02 1.663773671149974e-01 3.936004539618173e-01
            1.040018647572465e-01 -7.380951365586785e-03 1.104674234378408e-01 -1.450539507830664e-02 1.662899486893526e-01 3.935629952801801e-01 -1.036914557952707e-01 9.770621899517730e-02
            -1.036022141597102e-01 9.770737976055940e-02 1.663929315613312e-01 3.935719900881986e-01 1.084831657493927e-01 -4.193254881670675e-03 1.030509822037785e-01 -4.617156894583223e-03
            1.662751472788997e-01 3.935403337995008e-01 -1.036477078756693e-01 9.775283402851385e-02 1.030179846228031e-01 -4.642681849154856e-03 1.083986382895269e-01 -4.141951714642369e-03
686980000.0000000000 1.011640740977488e-01 -2.614717432689705e-02 9.539070722788555e-02 -2.016985585271504e-02 -6.265453448813955e-02 1.270155389469207e-01 2.913509508526617e-01 3.136731728638660e-01
            9.534402260461464e-02 -2.023754687171902e-02 1.012753983458341e-01 -2.619266627520386e-02 2.913952525240519e-01 3.137061494922506e-01 -6.265011440413035e-02 1.269629466362815e-01
            -6.266975201702996e-02 1.270357945113344e-01 2.913554988209403e-01 3.137133038144752e-01 1.003438535270924e-01 -1.756272121848985e-02 9.516628643633324e-02 -1.768727157660311e-02
            2.914128128886447e-01 3.136732482459648e-01 -6.263566212331437e-02 1.270059121812867e-01 9.515956050089412e-02 -1.759674260595837e-02 1.002681315374153e-01 -1.761190020745486e-02
687812500.0000000000 8.628958999241813e-02 -2.926662280263318e-02 8.047523346178576e-02 -2.447686729815591e-02 -1.334844700586297e-02 1.398552008026024e-01 3.828100904950343e-01 1.954859668823834e-01
            8.048017287904538e-02 -2.455537590134348e-02 8.641199098848523e-02 -2.927580357915834e-02 3.827749755546350e-01 1.954500158589071e-01 -1.332218137088834e-02 1.398351252061351e-01
            -1.342954306431140e-02 1.398726641099509e-01 3.828157470831907e-01 1.954142491412799e-01 8.552504411596015e-02 -2.251114439909022e-02 8.060185643493434e-02 -2.255792568097238e-02
            3.827962325457143e-01 1.955238957580647e-01 -1.337507738879041e-02 1.399041146360993e-01 8.055987179356948e-02 -2.254927116290200e-02 8.553587397844896e-02 -2.252327562119106e-02
688645000.0000000000 7.261736694546279e-02 -2.214760692777917e-02 6.618793388870685e-02 -1.851513368945271e-02 3.725659403295892e-02 1.334985250665311e-01 4.286228997631314e-01 5.162077353525566e-02
            6.613459561906544e-02 -1.840205187200084e-02 7.270500937122258e-02 -2.208223142555674e-02 4.285975817205769e-01 5.169472927848694e-02 3.725358351593324e-02 1.335016119337964e-01
            3.724005093398252e-02 1.335931831129888e-01 4.285592941328011e-01 5.166690752100546e-02 7.123277942117935e-02 -1.663111628756620e-02 6.622684224891695e-02 -1.685360457619164e-02
            4.286475327491484e-01 5.167654040029667e-02 3.727415675437324e-02 1.336058391074711e-01 6.619304702428878e-02 -1.689363314620397e-02 7.121709901953922e-02 -1.669727779965041e-02
689477500.0000000000 6.680399707751375e-02 -7.699087000228679e-03 5.928763574908621e-02 -4.749109449760036e-03 8.106235552712410e-02 1.090924356156664e-01 4.213388058104875e-01 -1.005416313432603e-01
            5.925651248495749e-02 -4.728210556679269e-03 6.679761832142111e-02 -7.640872806135924e-03 4.212454351078522e-01 -1.004855885734476e-01 8.100409989474157e-02 1.091688167843486e-01
            8.111525652588646e-02 1.090579793397001e-01 4.212181062700535e-01 -1.004129605175997e-01 6.445569087108907e-02 -2.836311421765025e-03 5.892903259502823e-02 -3.145074136519396e-03
            4.212355677860494e-01 -1.004931699836435e-01 8.106511431232570e-02 1.090948706278091e-01 5.879114849315483e-02 -3.173811641857607e-03 6.441862090427909e-02 -2.902647905204404e-03
690310000.0000000000 7.162177228722837e-02 6.734250795177652e-03 6.301645436937074e-02 9.700561984624058e-03 1.116070849605554e-01 7.148242121917320e-02 3.604979611790618e-01 -2.409001675227768e-01
            6.296796220459792e-02 9.714034959680234e-03 7.166060043725365e-02 6.724601027927761e-03 3.605534562821309e-01 -2.408635848847187e-01 1.116998593514985e-01 7.140016680053969e-02
            1.116450248089900e-01 7.144907493684727e-02 3.605666139962355e-01 -2.409213046801145e-01 6.848057418967635e-02 1.172529127111143e-02 6.213894026853203e-02 1.180890362021263e-02
            3.605487021272453e-01 -2.408580830097957e-01 1.117363802861250e-01 7.153418401031721e-02 6.209991439448471e-02 1.176970161005203e-02 6.839610238471694e-02 1.172923456389243e-02
691142500.0000000000 8.447618678456435e-02 1.425425071757059e-02 7.482411399080371e-02 1.775046388961813e-02 1.262453166954617e-01 2.736423212870109e-02 2.544014946005084e-01 -3.506888678661957e-01
            7.490418025548098e-02 1.773094495634758e-02 8.448076613471921e-02 1.416871689453808e-02 2.543800268065577e-01 -3.506063408546201e-01 1.262400633210449e-01 2.739722223233792e-02
            1.262393532670203e-01 2.735363650565169e-02 2.544364357315122e-01 -3.506818330947519e-01 8.099962171245711e-02 1.965862012621163e-02 7.394047145736639e-02 2.074094661943979e-02
            2.544811402196202e-01 -3.506647911447695e-01 1.263077088781620e-01 2.731858933905677e-02 7.396898190258892e-02 2.062950889192666e-02 8.099170200624595e-02 1.968799046281762e-02
691975000.0000000000 9.852607436158980e-02 1.145156450029175e-02 8.840406761868295e-02 1.585822039702761e-02 1.251910335816242e-01 -1.739566603381237e-02 1.176577796455553e-01 -4.162492163918029e-01
            8.845483887585458e-02 1.586726293725907e-02 9.849060299585860e-02 1.147520567669529e-02 1.176194485951755e-01 -4.161971097003983e-01 1.251736646624936e-01 -1.727073340889108e-02
            1.252354305735521e-01 -1.728720600240590e-02 1.176860747051833e-01 -4.162216386004662e-01 9.517818481165062e-02 1.734666691548798e-02 8.818182476754433e-02 1.961097083930446e-02
            1.176331991237604e-01 -4.162604789378986e-01 1.252214371922407e-01 -1.737620399635868e-02 8.811242458946615e-02 1.969795293560709e-02 9.525504834289283e-02 1.729234477365546e-02
692807500.0000000000 1.069468926302758e-01 2.969278259598616e-04 9.685457260063997e-02 5.559513327147664e-03 1.099501216672549e-01 -5.842948563771771e-02 -3.230249884191681e-02 -4.308176281090605e-01
            9.685508360056301e-02 5.504833409680795e-03 1.069285808683567e-01 3.253923228580440e-04 -3.232430878669364e-02 -4.307887922550519e-01 1.099649984635746e-01 -5.838956637634751e-02
            1.099178962923431e-01 -5.837520292615587e-02 -3.236170516667104e-02 -4.308192002397328e-01 1.041262230696569e-01 6.255771939453128e-03 9.766560303775489e-02 9.908416278739774e-03
            -3.227684124919725e-02 -4.308468503877364e-01 1.098837198241656e-01 -5.836677844556473e-02 9.763598810095657e-02 9.812555681231322e-03 1.041787657135551e-01 6.165734989458470e-03
693640000.0000000000 1.057677899717014e-01 -1.348309523121349e-02 9.595551631337686e-02 -7.617600777675307e-03 8.198482227521506e-02 -9.183516940452055e-02 -1.779633173730835e-01 -3.939397846179086e-01
            9.607083216806366e-02 -7.598949029985755e-03 1.057351534722982e-01 -1.351072417197291e-02 -1.779392181772870e-01 -3.939151815976689e-01 8.206901502964331e-02 -9.196194929155459e-02
            8.202724908185545e-02 -9.187627655037343e-02 -1.779099574556535e-01 -3.938806108545959e-01 1.033856352468825e-01 -7.914379032163601e-03 9.810279688537969e-02 -3.269136224747376e-03
            -1.779388585076843e-01 -3.938567212678782e-01 8.195801698733601e-02 -9.186216610495666e-02 9.798674665561496e-02 -3.358398272406444e-03 1.033356914675039e-01 -7.916967766943953e-03
694472500.0000000000 9.548608404929904e-02 -2.307734611980335e-02 8.631769741348172e-02 -1.688205778726823e-02 4.393865404177345e-02 -1.138898230210266e-01 -3.028454110949956e-01 -3.098321374570754e-01
            8.628067935181255e-02 -1.686062101138732e-02 9.553446797304348e-02 -2.303780599771745e-02 -3.029031381771529e-01 -3.098249804324687e-01 4.382102414863041e-02 -1.138988242377492e-01
            4.393711391419001e-02 -1.139765069875155e-01 -3.027880491719712e-01 -3.098711843620588e-01 9.324990702893642e-02 -1.804319712717476e-02 8.933413151685082e-02 -1.330677580835405e-02
            -3.028144433135571e-01 -3.098047213350594e-01 4.390520520333198e-02 -1.139136853416275e-01 8.942030770152067e-02 -1.327353722145614e-02 9.324571825464693e-02 -1.805000960543068e-02
695305000.0000000000 8.113430524484745e-02 -2.322831796314894e-02 7.241471948897442e-02 -1.704135163184702e-02 3.084897961089898e-05 -1.206222854070755e-01 -3.923334206444995e-01 -1.873501948573014e-01
            7.240343716217219e-02 -1.704905937905656e-02 8.117035921799019e-02 -2.322559663714367e-02 -3.922859575521637e-01 -1.872899149345000e-01 1.658924149098800e-04 -1.206134423632247e-01
            9.990952400421480e-05 -1.205156357308060e-01 -3.923221796563136e-01 -1.873015534827832e-01 7.857750272221431e-02 -1.885592313485779e-02 7.602036520290412e-02 -1.451217524605221e-02
            -3.923773708344918e-01 -1.873185380011952e-01 4.670095227673956e-05 -1.205143891446784e-01 7.599377568723520e-02 -1.460392934696562e-02 7.857564855088249e-02 -1.885234434671430e-02
696137500.0000000000 6.993786850566200e-02 -1.336749776767343e-02 6.152448914799453e-02 -7.534417378665210e-03 -4.272106527966881e-02 -1.103673995751893e-01 -4.342763620073899e-01 -4.010541888327088e-02
            6.149658175353768e-02 -7.532237911785960e-03 6.999319058788742e-02 -1.338289931169296e-02 -4.342676402222438e-01 -4.009918806024629e-02 -4.266912113557644e-02 -1.103400868929615e-01
            -4.275607435226725e-02 -1.103193679050057e-01 -4.342759466482886e-01 -4.008086596963115e-02 6.682842953767650e-02 -9.347793636487986e-03 6.492131124183902e-02 -6.014632766208601e-03
            -4.342506181446912e-01 -4.010133050568347e-02 -4.281024153731239e-02 -1.102720402247564e-01 6.489104847074133e-02 -6.030385940831284e-03 6.685632164658804e-02 -9.312170687712463e-03
696970000.0000000000 6.809415926960516e-02 1.934674045017910e-03 5.943666033754511e-02 7.471589519545573e-03 -7.744657207436217e-02 -8.528555625440692e-02 -4.218675150552736e-01 1.134366657963383e-01
            5.943219394061278e-02 7.475396850313956e-03 6.799533211267537e-02 1.851612924795369e-03 -4.218444555324666e-01 1.134121913037080e-01 -7.747133457880949e-02 -8.528143077290772e-02
            -7.750950881782297e-02 -8.529402924279454e-02 -4.218081694003658e-01 1.134162577650165e-01 6.440123534735399e-02 6.080552847099481e-03 6.230849164293864e-02 8.323004101029279e-03
            -4.218553136850153e-01 1.134260133929110e-01 -7.746067533948420e-02 -8.524162528694691e-02 6.231766435030886e-02 8.335785308536939e-03 6.434847636848319e-02 6.032654808241724e-03
697802500.0000000000 7.686470110898229e-02 1.499215681606621e-02 6.791213036256666e-02 2.050949823464123e-02 -9.947779333879787e-02 -5.074589849828515e-02 -3.559171694229608e-01 2.527103000440445e-01
            6.791100074540468e-02 2.047131757176266e-02 7.686119916423462e-02 1.495088178826080e-02 -3.559920051037273e-01 2.527542540370880e-01 -9.952857748921036e-02 -5.080740913668174e-02
            -9.949041254850938e-02 -5.081599963565733e-02 -3.559803706421117e-01 2.527773284653884e-01 7.279602166536035e-02 1.954720314234423e-02 7.010557834457402e-02 2.133670908183749e-02
            -3.560084999191645e-01 2.527402917351777e-01 -9.948992944734800e-02 -5.077433599953139e-02 7.009767924067480e-02 2.135442758142779e-02 7.278774092977061e-02 1.942849307277414e-02
698635000.0000000000 9.234619284370174e-02 1.940209257489429e-02 8.288396529046718e-02 2.503982747984536e-02 -1.076250492606846e-01 -1.277758644762691e-02 -2.459455345633643e-01 3.594457300406148e-01
            8.298478389608814e-02 2.495832501869059e-02 9.220129864437045e-02 1.945280012678571e-02 -2.459516062817944e-01 3.594205096108659e-01 -1.076928510225273e-01 -1.284589753053398e-02
            -1.076112652882176e-01 -1.279413679632804e-02 -2.459655332283275e-01 3.594285104342284e-01 8.817505541051235e-02 2.432120282191089e-02 8.474734609107357e-02 2.642227321962848e-02
            -2.459989458708160e-01 3.594045827097830e-01 -1.076250376359236e-01 -1.285150600396427e-02 8.479847640424759e-02 2.648805642714818e-02 8.818933838639952e-02 2.429591920999020e-02
699467500.0000000000 1.070666928987557e-01 1.298794276812133e-02 9.743536630048184e-02 1.901125349597212e-02 -1.031783726392035e-01 2.414781672048832e-02 -1.071271178308472e-01 4.210349367463362e-01
            9.740606070636394e-02 1.898787091233478e-02 1.071362396335874e-01 1.302579920710546e-02 -1.071169543732602e-01 4.209944333409447e-01 -1.031984227334479e-01 2.412728729979428e-02
            -1.031958552126133e-01 2.415459517041548e-02 -1.071281373134154e-01 4.210386215203867e-01 1.032820166194751e-01 1.819511673004445e-02 9.951638977844300e-02 2.106832973432603e-02
            -1.071885930866071e-01 4.210298950806539e-01 -1.032278784945768e-01 2.405691928787308e-02 9.947339902010537e-02 2.100392940423250e-02 1.033009862276347e-01 1.818507358958311e-02
700300000.0000000000 1.146290836349808e-01 -1.222221965972900e-03 1.048627015548084e-01 5.172148613738537e-03 -8.757270212689279e-02 5.715562476226172e-02 4.333304200598195e-02 4.316068140091395e-01
            1.048331068800725e-01 5.165133075011793e-03 1.146333903719832e-01 -1.292632113594736e-03 4.332912137055241e-02 4.316824960433396e-01 -8.752560238833400e-02 5.720209728944671e-02
            -8.750384654521552e-02 5.709114276490753e-02 4.323847767612041e-02 4.316370051676880e-01 1.110079907875714e-01 3.733601358739716e-03 1.076677030509482e-01 7.743801047359391e-03
            4.332720667611589e-02 4.315108165109519e-01 -8.749799430054007e-02 5.710253372236998e-02 1.076114147497174e-01 7.790405600155417e-03 1.109952636519161e-01 3.768303610194788e-03
701132500.0000000000 1.116980683658859e-01 -1.712494207256346e-02 1.018378843323571e-01 -1.006539639837054e-02 -6.168470617104616e-02 8.330514793070710e-02 1.880833389331953e-01 3.912448839493020e-01
            1.018416526333628e-01 -1.008230338658553e-02 1.116945984086734e-01 -1.704801056161928e-02 1.881034511065208e-01 3.911052676400045e-01 -6.172164657129975e-02 8.334117079736816e-02
            -6.176478792280687e-02 8.329031736330618e-02 1.881653118803264e-01 3.911956542146323e-01 1.078835793678591e-01 -1.228423339074405e-02 1.057112447128844e-01 -7.636726583706037e-03
            1.881026395059188e-01 3.912282183598162e-01 -6.165323356514662e-02 8.332430737084894e-02 1.057662700883789e-01 -7.541013615823215e-03 1.079286915910094e-01 -1.236184442445775e-02
701965000.0000000000 9.964354435885633e-02 -2.743189895605085e-02 8.979926578234114e-02 -1.987565610150160e-02 -2.773091088018451e-02 9.919048510954219e-02 3.114816865678766e-01 3.039677358163241e-01
            8.974645330513914e-02 -1.988884577717957e-02 9.958126749543610e-02 -2.742987585042852e-02 3.114341703205767e-01 3.039435523818897e-01 -2.778152597123861e-02 9.925193161348729e-02
            -2.773918683554481e-02 9.926709324343062e-02 3.114564539347337e-01 3.039665354643175e-01 9.545850326033171e-02 -2.295751544867878e-02 9.484751587159360e-02 -1.813094361139514e-02
            3.114003322208064e-01 3.039951990690121e-01 -2.776618992733148e-02 9.922609901953620e-02 9.474865796358227e-02 -1.812962495890089e-02 9.533737788371720e-02 -2.289300548573344e-02
702797500.0000000000 8.390635765361328e-02 -2.777236393915268e-02 7.414377527082051e-02 -1.957936900703378e-02 1.014765870484205e-02 1.014146011843675e-01 3.985362905473573e-01 1.790290729082465e-01
            7.405700463391156e-02 -1.962365781813499e-02 8.398293000934411e-02 -2.780469361486338e-02 3.985491208778023e-01 1.791149507603922e-01 1.015667342340527e-02 1.014183429885842e-01
            1.018562313195876e-02 1.013757403000814e-01 3.984986477471301e-01 1.789873891127796e-01 7.892965694700327e-02 -2.306936372387021e-02 7.984198567126574e-02 -1.911839235821008e-02
            3.985070317300028e-01 1.790148548566638e-01 1.012565631518373e-02 1.015117778555433e-01 7.988659273070471e-02 -1.909344865838769e-02 7.905807660496955e-02 -2.306521882224722e-02
703630000.0000000000 7.197874690164446e-02 -1.794794564500612e-02 6.249786864249735e-02 -9.155353489637780e-03 4.591326173411629e-02 8.873681030701060e-02 4.373001216184261e-01 3.011669229442094e-02
            6.250271738323739e-02 -9.177089902430576e-03 7.197893374302636e-02 -1.792589833241276e-02 4.373497127339714e-01 3.016943940365196e-02 4.586684175716962e-02 8.883621313173910e-02
            4.584000630458535e-02 8.872830906164288e-02 4.373308859013119e-01 3.013216956399219e-02 6.641397858045339e-02 -1.258152063784710e-02 6.816525115444053e-02 -1.022190251291969e-02
            4.372948775893898e-01 3.024439692212192e-02 4.584266528115134e-02 8.873107250876347e-02 6.810477396262593e-02 -1.018364991660659e-02 6.640801374794135e-02 -1.260332531294144e-02
704462500.0000000000 6.960802499228816e-02 -2.957222563456032e-03 6.045748520454450e-02 6.360386363705025e-03 7.308246462423207e-02 6.387119772743652e-02 4.212304658262777e-01 -1.237975380748614e-01
            6.042901098565965e-02 6.522061430997871e-03 6.962079053058184e-02 -2.957627700568657e-03 4.213132695660796e-01 -1.237330284649578e-01 7.308589349263991e-02 6.389456072810201e-02
            7.303853459769309e-02 6.387536733227658e-02 4.212567623844424e-01 -1.238042869025486e-01 6.382762800299341e-02 3.415823246969503e-03 6.544811293025923e-02 4.063779322105803e-03
            4.212688530134827e-01 -1.238145671231125e-01 7.313139321032407e-02 6.391405858491839e-02 6.549583803544588e-02 4.079130538531207e-03 6.380926561519880e-02 3.367001468537876e-03
705295000.0000000000 7.782716947980328e-02 9.335597699629728e-03 6.906866136443018e-02 1.937018585066224e-02 8.807414047936971e-02 3.225599356908654e-02 3.517696649420909e-01 -2.622683987469811e-01
            6.902009626489659e-02 1.937253818969620e-02 7.776926439800273e-02 9.314809509243769e-03 3.518194477582257e-01 -2.622449291594866e-01 8.802336224563641e-02 3.224641268735996e-02
            8.814518023549303e-02 3.223592692383155e-02 3.518749161915384e-01 -2.622134844436271e-01 7.231349720900075e-02 1.690664757373892e-02 7.304158389391223e-02 1.621681312826563e-02
            3.518338387447135e-01 -2.622380976612241e-01 8.806502543371990e-02 3.228003517229103e-02 7.308187773305906e-02 1.625704235617277e-02 7.230083251023023e-02 1.694057409631550e-02
706127500.0000000000 9.198337035296540e-02 1.281562956733520e-02 8.387145288633473e-02 2.337726236179156e-02 9.059478803812708e-02 -6.299792669783777e-04 2.390614031139168e-01 -3.669175979293029e-01
            8.380609175887811e-02 2.346595653326166e-02 9.193521565092945e-02 1.285231296025812e-02 2.389932088364804e-01 -3.669098210494901e-01 9.065355387085697e-02 -6.780601255246927e-04
            9.064724126063063e-02 -6.565964606914868e-04 2.390217660286145e-01 -3.668470948797807e-01 8.734617579861823e-02 2.147962751445379e-02 8.677450775663383e-02 2.004587895801707e-02
            2.390110675232289e-01 -3.669256860405530e-01 9.069098624712835e-02 -6.482231002798918e-04 8.673137753050050e-02 2.003892928407590e-02 8.744690360768442e-02 2.142174378869481e-02
706960000.0000000000 1.046714408132893e-01 6.035827066670774e-03 9.738391238847677e-02 1.724966338288828e-02 8.272432106110861e-02 -3.103644594673332e-02 9.803114227044954e-02 -4.256922881205940e-01
            9.737939239708103e-02 1.712199695382163e-02 1.047319174054253e-01 6.001658580921771e-03 9.797631962872347e-02 -4.256788408675714e-01 8.263092533305627e-02 -3.103361343489143e-02
            8.264586042919511e-02 -3.113561482476085e-02 9.804532059069228e-02 -4.257051743161266e-01 1.015830564816844e-01 1.502171113207529e-02 9.940695041785592e-02 1.401777942298416e-02
            9.800993379965470e-02 -4.257024953416684e-01 8.267040017852888e-02 -3.103145926317580e-02 9.937643643432104e-02 1.400309901130997e-02 1.015082531192610e-01 1.491765374532739e-02
707792500.0000000000 1.098013012365419e-01 -7.648638920261873e-03 1.035594045236083e-01 3.760050082338874e-03 6.572696374399632e-02 -5.683166350956351e-02 -5.362492633923191e-02 -4.330543496863435e-01
            1.035249182445151e-01 3.733226878273065e-03 1.097968258681804e-01 -7.638904466852401e-03 -5.354088833740166e-02 -4.330368033098758e-01 6.570015768451874e-02 -5.677403106953791e-02
            6.578819049431946e-02 -5.677051334326243e-02 -5.350674996849662e-02 -4.330330422967285e-01 1.079586985037819e-01 9.528996362995322e-04 1.049307651147981e-01 1.131835592568569e-03
            -5.355352904797857e-02 -4.330546323631744e-01 6.569815477853887e-02 -5.685663902368167e-02 1.050224230854720e-01 1.114273791440713e-03 1.079166862812920e-01 1.004368479704711e-03
708625000.0000000000 1.047599377686859e-01 -2.162643479150615e-02 9.955315660246558e-02 -1.018798425596627e-02 4.106423017522640e-02 -7.562056855571796e-02 -1.985770881338033e-01 -3.889670196869351e-01
            9.950027893875070e-02 -1.017419127699393e-02 1.047640663961775e-01 -2.170765180609745e-02 -1.985017915277438e-01 -3.889940238827050e-01 4.103746108354823e-02 -7.564821117078666e-02
            4.109206737668883e-02 -7.563123950540834e-02 -1.985158603983827e-01 -3.889826049963906e-01 1.039961238230506e-01 -1.387322589407779e-02 1.007895640633459e-01 -1.232729514558057e-02
            -1.985160144334462e-01 -3.889397819730019e-01 4.101532250528633e-02 -7.557894199327408e-02 1.008493009874316e-01 -1.225418135193280e-02 1.038859913069844e-01 -1.381322192269429e-02
709457500.0000000000 9.167681462659398e-02 -2.933732292017035e-02 8.747812649335403e-02 -1.797124771292264e-02 1.079948550809286e-02 -8.467995184583570e-02 -3.207116657557532e-01 -2.980643927791256e-01
            8.744023945728420e-02 -1.794589241999021e-02 9.164359067494421e-02 -2.923169343009779e-02 -3.207045413560820e-01 -2.981753083140718e-01 1.078982699117040e-02 -8.473516231028894e-02
            1.077976100868959e-02 -8.461542391368916e-02 -3.206436867009098e-01 -2.980534203758069e-01 9.117068045925850e-02 -2.268984088905103e-02 8.885945385204221e-02 -1.975040607359422e-02
            -3.206502652879109e-01 -2.981148255674013e-01 1.078775162211142e-02 -8.466478470390930e-02 8.886821433220880e-02 -1.982114070907368e-02 9.116661682993474e-02 -2.267620651027384e-02
710290000.0000000000 7.634203880753102e-02 -2.676553357316259e-02 7.314285836876531e-02 -1.565559327312939e-02 -2.109241667240014e-02 -8.150878274014720e-02 -4.050365189764760e-01 -1.698804800045981e-01
            7.311142895633101e-02 -1.570301773686275e-02 7.644281563345230e-02 -2.674057323994658e-02 -4.051639370230318e-01 -1.698633836276826e-01 -2.111365410055423e-02 -8.158611710350266e-02
            -2.109680015098944e-02 -8.146999982893853e-02 -4.052082445916159e-01 -1.698640954382382e-01 7.566458932698079e-02 -2.115207668381161e-02 7.482473775247780e-02 -1.764895448680320e-02
            -4.051769010098600e-01 -1.698838938725930e-01 -2.106548494111434e-02 -8.159257738633927e-02 7.486361470737374e-02 -1.758639818629615e-02 7.558465326952826e-02 -2.112973157221063e-02
711122500.0000000000 6.616969835004329e-02 -1.500638492043664e-02 6.388504987155534e-02 -4.284712647427581e-03 -4.903054421993763e-02 -6.603778015984796e-02 -4.399695420572270e-01 -1.908874775071126e-02
            6.382156883025347e-02 -4.189716297787934e-03 6.619223148431207e-02 -1.490776126475745e-02 -4.400334737071272e-01 -1.900996166052015e-02 -4.895939057795677e-02 -6.608471004711405e-02
            -4.890714908665424e-02 -6.611275862707337e-02 -4.399567665939398e-01 -1.909331917528682e-02 6.477917522883649e-02 -9.869612001854176e-03 6.577407342083982e-02 -6.532575880753460e-03
            -4.400198507848935e-01 -1.905682257098002e-02 -4.896724790066977e-02 -6.604304382021361e-02 6.581115774588744e-02 -6.456125393142654e-03 6.477073182605214e-02 -9.792700268352030e-03
711955000.0000000000 6.592742436141552e-02 4.550870351541193e-04 6.474289705621539e-02 1.079251100192444e-02 -6.778770180489800e-02 -4.165130623111001e-02 -4.195323342652388e-01 1.350520624845927e-01
            6.476252383163020e-02 1.078928200155493e-02 6.600552843244126e-02 4.941345088481497e-04 -4.194824445418185e-01 1.350820855028071e-01 -6.777395471697191e-02 -4.161606707511150e-02
            -6.782163545281338e-02 -4.165029119549310e-02 -4.194270960553062e-01 1.351262087728059e-01 6.411445430540970e-02 5.663199825188155e-03 6.651044298717569e-02 8.005619725248474e-03
            -4.194399322754605e-01 1.350520343266315e-01 -6.780904274462744e-02 -4.172223796572780e-02 6.646015761344076e-02 8.094292561000489e-03 6.410214335314465e-02 5.568731144011709e-03
712787500.0000000000 7.568916297579677e-02 1.209403417057862e-02 7.553217732994724e-02 2.160727699554818e-02 -7.520663960357094e-02 -1.354689670950810e-02 -3.460927777162375e-01 2.717844264498821e-01
            7.558966879836010e-02 2.164723230986016e-02 7.577219186352969e-02 1.206013056808397e-02 -3.461279846344765e-01 2.717902445283527e-01 -7.521872446209993e-02 -1.348170035827971e-02
            -7.524188892074052e-02 -1.359632255426707e-02 -3.460353616023690e-01 2.719076317937429e-01 7.357501939574737e-02 1.746185642257964e-02 7.702637588469205e-02 1.838625195339836e-02
            -3.460569795320584e-01 2.718086171705931e-01 -7.525277276104209e-02 -1.362764407258845e-02 7.696701496474134e-02 1.839941160177193e-02 7.352628007732938e-02 1.758101257442912e-02
713620000.0000000000 9.009330678467004e-02 1.436521086940749e-02 9.107381694946325e-02 2.284679422110914e-02 -7.236113892534410e-02 1.356621483428837e-02 -2.303482515911596e-01 3.735536900460916e-01
            9.112207310640019e-02 2.278191284967347e-02 9.009969630981758e-02 1.432505195740785e-02 -2.303662118456174e-01 3.735239162971224e-01 -7.235671829681554e-02 1.361378522699316e-02
            -7.236531408202512e-02 1.357246462490457e-02 -2.303702642167536e-01 3.736658157085928e-01 8.816780958693232e-02 2.003656791516483e-02 9.198855021291882e-02 1.911161437302445e-02
            -2.302864187253507e-01 3.735198965554272e-01 -7.233471617412403e-02 1.350953769854911e-02 9.197180467642753e-02 1.923277192363276e-02 8.817492513826002e-02 2.003731654651662e-02
714452500.0000000000 1.020082197975551e-01 6.867224692507865e-03 1.039244698360039e-01 1.373409722898035e-02 -6.125053008321602e-02 3.697197315577108e-02 -8.783674397788277e-02 4.288811817715130e-01
            1.038759777286871e-01 1.365113415523243e-02 1.020381182207107e-01 6.888071130109188e-03 -8.786669822425885e-02 4.289161527003292e-01 -6.131617431170806e-02 3.688963312555954e-02
            -6.132398149851156e-02 3.684824582958113e-02 -8.787370897478429e-02 4.289183589186444e-01 1.003857309074831e-01 1.258410372917755e-02 1.042109734985449e-01 9.950513311995549e-03
            -8.782807260538318e-02 4.289239295614208e-01 -6.126746079412654e-02 3.682379636266868e-02 1.041876844800726e-01 9.898532928947618e-03 1.004224806616554e-01 1.259537523165932e-02
715285000.0000000000 1.059077422513444e-01 -6.289284094762026e-03 1.083378622849318e-01 -1.534743456031317e-03 -4.384055782674051e-02 5.507710127681056e-02 6.410120011143237e-02 4.325652925736588e-01
            1.081897952431515e-01 -1.513901855515290e-03 1.058337216147954e-01 -6.299150943257879e-03 6.403036863456835e-02 4.326743172586721e-01 -4.376574880655328e-02 5.503514236522109e-02
            -4.383369363625576e-02 5.494090709382293e-02 6.406523952293729e-02 4.327354002731318e-01 1.047585854473221e-01 -1.031373736736161e-03 1.078323068313729e-01 -5.274284356321997e-03
            6.402825521921088e-02 4.326901477756825e-01 -4.378711559002594e-02 5.500446569014930e-02 1.078014916387155e-01 -5.225186824961436e-03 1.047555728696420e-01 -1.002369529629768e-03
716117500.0000000000 1.001175825699615e-01 -1.868213162826720e-02 1.020401866529801e-01 -1.621881578030211e-02 -2.104450513821315e-02 6.652932394997872e-02 2.083663059679053e-01 3.850892760481470e-01
            1.021384318916589e-01 -1.612516584340745e-02 1.001322202910994e-01 -1.869626383223598e-02 2.083677436042803e-01 3.851156431645726e-01 -2.100606899106194e-02 6.659121461715345e-02
            -2.103463981760777e-02 6.658763168606732e-02 2.083801397113666e-01 3.850927999952872e-01 9.904699357009768e-02 -1.397677610800723e-02 1.010874902757200e-01 -1.954321824126213e-02
            2.083241724261541e-01 3.850910797243420e-01 -2.100813721799256e-02 6.657578796429674e-02 1.010232376182547e-01 -1.958592388787578e-02 9.897931542142580e-02 -1.396847344039355e-02
716950000.0000000000 8.744856297171158e-02 -2.401729128973120e-02 8.816418576429509e-02 -2.366656344505675e-02 5.113414358676989e-03 6.920800080808272e-02 3.286372175602169e-01 2.911404209985053e-01
            8.821730667211004e-02 -2.372078424949004e-02 8.747678904005945e-02 -2.405573444101361e-02 3.286270000515986e-01 2.909884599490753e-01 5.121419272577709e-03 6.926104369975028e-02
            5.088712708452732e-03 6.917686817613454e-02 3.286991365277770e-01 2.910388357702661e-01 8.604717506335731e-02 -2.006115147118178e-02 8.682810504571331e-02 -2.673777587515858e-02
            3.287316137180066e-01 2.910469286794038e-01 5.108527844389604e-03 6.918330946064279e-02 8.669036048911466e-02 -2.676052749276204e-02 8.603333245316298e-02 -2.005501155814861e-02
717782500.0000000000 7.422323465144441e-02 -1.959962688364313e-02 7.287919430398787e-02 -2.082598126364266e-02 3.074225230231395e-02 6.133946160246974e-02 4.101064723841329e-01 1.603271074337312e-01
            7.290574453911230e-02 -2.089404100321426e-02 7.416374408498344e-02 -1.956976195475778e-02 4.101160373200531e-01 1.603389795577899e-01 3.068722099528298e-02 6.144299629115134e-02
            3.073757016358977e-02 6.139415988675076e-02 4.101250673291597e-01 1.603131320751175e-01 7.200681559074960e-02 -1.595991605511150e-02 7.109699910239796e-02 -2.353766289083752e-02
            4.101395496695783e-01 1.601716559338610e-01 3.074119327417222e-02 6.144933499040135e-02 7.108872349065593e-02 -2.351897629322025e-02 7.199294095180359e-02 -1.599432398709004e-02
718615000.0000000000 6.706332863325720e-02 -7.151177007635664e-03 6.315534266586210e-02 -9.092121395678991e-03 5.087554005018621e-02 4.378928858994252e-02 4.411880216812425e-01 8.176048821215059e-03
            6.319346400599203e-02 -9.103409958082042e-03 6.709284058045220e-02 -7.145974597404844e-03 4.412013114210914e-01 8.150595907529047e-03 5.096696393754487e-02 4.373321330945747e-02
            5.093875243199698e-02 4.377124101530940e-02 4.412079707912981e-01 8.090319793027250e-03 6.410891114246485e-02 -3.434848008664660e-03 6.128769473781492e-02 -1.134004790017001e-02
            4.410883088855814e-01 8.194714868243318e-03 5.088617596614880e-02 4.372800304592801e-02 6.132250589192743e-02 -1.132816117212657e-02 6.418977806136665e-02 -3.349727566637310e-03
719447500.0000000000 7.007576065773093e-02 7.222856756444713e-03 6.354402969291445e-02 5.545427241159719e-03 6.171838628944345e-02 2.008147088929389e-02 4.166016014794892e-01 -1.454676128138740e-01
            6.352329630783163e-02 5.557134085374118e-03 7.004960589071138e-02 7.196868061368767e-03 4.165592363786246e-01 -1.455106155167261e-01 6.169847963431690e-02 2.002679364035739e-02
            6.175577724655822e-02 2.003825788103996e-02 4.166529963827827e-01 -1.455521945278758e-01 6.660516640009331e-02 1.146600459517084e-02 6.168880117406828e-02 3.718104855570884e-03
            4.165968909898204e-01 -1.456185993896604e-01 6.166836323705813e-02 2.004317509401017e-02 6.179294475054729e-02 3.790980627646058e-03 6.653800748729594e-02 1.145447132323492e-02
720280000.0000000000 8.179733185552114e-02 1.616869630605219e-02 7.308239347056174e-02 1.594508966701789e-02 6.216099623227325e-02 -4.386821099892167e-03 3.396857583751196e-01 -2.804294366135731e-01
            7.309970197553504e-02 1.587943143882953e-02 8.176925686810439e-02 1.617487843442281e-02 3.396541888815133e-01 -2.804558729998602e-01 6.209471053622413e-02 -4.560857202802753e-03
            6.212939096948975e-02 -4.419672296188806e-03 3.396451707942330e-01 -2.804292080986789e-01 7.828836191747905e-02 2.099040423778118e-02 7.147548863554119e-02 1.412317814743124e-02
            3.397379886119067e-01 -2.803916651941478e-01 6.214063211150597e-02 -4.479799814512788e-03 7.156451700582007e-02 1.418225135857519e-02 7.837551863505819e-02 2.104950131960373e-02
721112500.0000000000 9.660420643930165e-02 1.534534432925471e-02 8.667806497624632e-02 1.714852659080489e-02 5.402760527897008e-02 -2.582240970284016e-02 2.216042105053139e-01 -3.792783989396432e-01
            8.654956655369402e-02 1.712467515957692e-02 9.653469826052267e-02 1.534382119081827e-02 2.215703990225206e-01 -3.793141140929409e-01 5.401705194984740e-02 -2.590633995549749e-02
            5.400470595390044e-02 -2.580093719469161e-02 2.215508974980716e-01 -3.793239064795073e-01 9.342335089392442e-02 2.052405936351969e-02 8.504783902987072e-02 1.519535104572555e-02
            2.216375237773110e-01 -3.793207114156135e-01 5.411126727051394e-02 -2.581929665937947e-02 8.500925310893780e-02 1.519836150601177e-02 9.343496967156842e-02 2.048210552495934e-02
721945000.0000000000 1.072348591081757e-01 5.289909526899735e-03 9.698688010672052e-02 9.265813229829655e-03 3.993297749428167e-02 -4.224160182657893e-02 7.777951473294670e-02 -4.314651477760142e-01
            9.689056787873199e-02 9.224595172894017e-03 1.072261725813278e-01 5.230991939150766e-03 7.771843867718495e-02 -4.313390323205707e-01 4.002572016264420e-02 -4.225950803986726e-02
            4.002734240840563e-02 -4.225406502904003e-02 7.777500848192806e-02 -4.313190097872820e-01 1.045771828560634e-01 1.034049308423535e-02 9.528408945046873e-02 7.101549825230477e-03
            7.768994758595715e-02 -4.314174614782107e-01 4.003595020231989e-02 -4.220616199521325e-02 9.518351980532448e-02 7.067948600455389e-03 1.046469393195892e-01 1.028934927607391e-02
722777500.0000000000 1.089729265415831e-01 -9.234243525177092e-03 9.933677752885024e-02 -3.264164291043747e-03 2.189152134965423e-02 -5.294938078487151e-02 -7.452662138372386e-02 -4.316107183680748e-01
            9.934480041171347e-02 -3.335064752249658e-03 1.090209193179041e-01 -9.195674647830719e-03 -7.459741389349363e-02 -4.316614569135376e-01 2.184511681857250e-02 -5.299813461450751e-02
            2.182312634996775e-02 -5.296347031436066e-02 -7.455650823413992e-02 -4.316236295311275e-01 1.064981502519969e-01 -4.815395662671708e-03 9.704648768303918e-02 -5.769141928249170e-03
            -7.453658371447436e-02 -4.316601367429654e-01 2.188826466189769e-02 -5.295817523862986e-02 9.710005098658538e-02 -5.720764540868535e-03 1.065506013034146e-01 -4.824291581560746e-03
723610000.0000000000 1.011469806175509e-01 -2.137402482295715e-02 9.267375545361704e-02 -1.421181053390505e-02 7.930913436122662e-04 -5.709756278026844e-02 -2.181524336588100e-01 -3.804616235936779e-01
            9.266941564240733e-02 -1.423215521665485e-02 1.011730108338727e-01 -2.133293458989179e-02 -2.181127258398139e-01 -3.804762103856587e-01 8.408459218456029e-04 -5.709137043712918e-02
            8.718466323052321e-04 -5.705577657061432e-02 -2.181599886108560e-01 -3.803990255531539e-01 9.818955136667772e-02 -1.774548272627121e-02 8.951557723476863e-02 -1.681103699725538e-02
            -2.180719321723205e-01 -3.804462799970111e-01 8.388732367954406e-04 -5.702077090201209e-02 8.959572125889449e-02 -1.686646641030924e-02 9.820253206778205e-02 -1.763701242882812e-02
724442500.0000000000 8.737156086854932e-02 -2.545113572707306e-02 8.030898196321282e-02 -1.785496950935848e-02 -2.095272135465850e-02 -5.308955897651271e-02 -3.365311570656138e-01 -2.829870125873596e-01
            8.032197509230946e-02 -1.787545678952035e-02 8.741895237070652e-02 -2.565030712267586e-02 -3.364764356858304e-01 -2.830487247971351e-01 -2.100443856025765e-02 -5.308426539884614e-02
            -2.098831088653130e-02 -5.304672997951541e-02 -3.364235370841949e-01 -2.830361400988137e-01 8.331991730066619e-02 -2.225777638992534e-02 7.608121627373833e-02 -2.020089046948266e-02
            -3.364223837705738e-01 -2.829890281415512e-01 -2.107634445602259e-02 -5.309161837413798e-02 7.607684351304725e-02 -2.023297015470103e-02 8.336090380281107e-02 -2.221357581236463e-02
725275000.0000000000 7.433246628935691e-02 -1.967603349859832e-02 6.841939726357130e-02 -1.221427749148212e-02 -4.005117272199576e-02 -4.031295990835605e-02 -4.144622389481586e-01 -1.496101532614497e-01
            6.838304139238963e-02 -1.221884482742671e-02 7.433890986263655e-02 -1.964692267186593e-02 -4.145202586011156e-01 -1.496276576360706e-01 -3.995082274687103e-02 -4.032016392999358e-02
            -3.992891694920010e-02 -4.035950826865829e-02 -4.145084036451301e-01 -1.496627162549250e-01 6.891816002174780e-02 -1.612097239135651e-02 6.315760308393505e-02 -1.360577076128857e-02
            -4.144535440242217e-01 -1.496650839097799e-01 -3.997083067542104e-02 -4.035192972323287e-02 6.308834796214169e-02 -1.365661042089515e-02 6.894230772692655e-02 -1.611532051142082e-02
726107500.0000000000 6.848531315887739e-02 -6.760113227071231e-03 6.330388102618610e-02 2.584414488188750e-04 -5.192475611942562e-02 -2.064214638774061e-02 -4.410642244347588e-01 3.470984912757463e-03
            6.327223309157051e-02 1.840854201813288e-04 6.855141627769276e-02 -6.782026721589092e-03 -4.410537889417984e-01 3.516621526531136e-03 -5.192570716908957e-02 -2.059946259995732e-02
            -5.188916808567517e-02 -2.059321169528460e-02 -4.411846132755570e-01 3.395329055677899e-03 6.189179235995398e-02 -2.099025385618938e-03 5.726974528724243e-02 1.828541906214688e-04
            -4.411729981224532e-01 3.535492146227020e-03 -5.196893573072455e-02 -2.066376203760495e-02 5.730880788914217e-02 2.001515342992394e-04 6.189375374211557e-02 -2.128003679028926e-03
726940000.0000000000 7.281055659627654e-02 6.552218222540343e-03 6.768814764516753e-02 1.303905194627056e-02 -5.431957676377545e-02 1.711340589426541e-03 -4.121011357249650e-01 1.562729359716152e-01
            6.777850140774620e-02 1.301022173283464e-02 7.275989456518192e-02 6.585176772157515e-03 -4.120907360529098e-01 1.562914263392812e-01 -5.430022623452200e-02 1.781517169111518e-03
            -5.436388293897274e-02 1.665340972460260e-03 -4.120851456458076e-01 1.562367328618887e-01 6.565949828743940e-02 1.316499410938292e-02 6.178655908373990e-02 1.476563976817119e-02
            -4.120518741060794e-01 1.562467452048510e-01 -5.427616067261121e-02 1.731148835642686e-03 6.178428672814738e-02 1.475520270264418e-02 6.569304676673336e-02 1.309391431577654e-02
727772500.0000000000 8.475912862703759e-02 1.354557329598775e-02 7.961284181507601e-02 1.963405649437881e-02 -4.759485117782132e-02 2.192653144759271e-02 -3.317070635571927e-01 2.884640205091611e-01
            7.962671541502500e-02 1.966599206921698e-02 8.478994880273287e-02 1.352597992206582e-02 -3.317258369276615e-01 2.884869910799601e-01 -4.760483431079508e-02 2.204057410499882e-02
            -4.772009194218125e-02 2.200439783955890e-02 -3.317462320486625e-01 2.884600258294237e-01 7.820344172600352e-02 2.205123759765442e-02 7.444778564260356e-02 2.298791911930464e-02
            -3.317218287083481e-01 2.884386935182766e-01 -4.766202648814975e-02 2.201169966553104e-02 7.448338406172533e-02 2.302491084898096e-02 7.821915412264058e-02 2.194779704819162e-02
728605000.0000000000 9.823610733297047e-02 1.068333955200537e-02 9.296082974882508e-02 1.682644919217365e-02 -3.468051911344920e-02 3.708790036290040e-02 -2.114981916225065e-01 3.839141211064082e-01
            9.294299840957609e-02 1.694966438638494e-02 9.819252365780838e-02 1.056480980194933e-02 -2.114827988404790e-01 3.839027005784703e-01 -3.469695217256942e-02 3.695907650389143e-02
            -3.466584550053192e-02 3.711007127526254e-02 -2.114065826109178e-01 3.839139582399073e-01 9.316259993927739e-02 2.062245118287011e-02 8.903485657535698e-02 2.131991218730495e-02
            -2.114230566901946e-01 3.839066645478895e-01 -3.473349165978245e-02 3.701262693734243e-02 8.912683922256784e-02 2.135097765302182e-02 9.319518115309054e-02 2.060222588445053e-02
729437500.0000000000 1.063374489717066e-01 -4.482233089768206e-04 1.011333668490651e-01 6.106294167375523e-03 -1.830596302601339e-02 4.618442286869487e-02 -6.689320905539343e-02 4.321984624077491e-01
            1.011198125377743e-01 5.990713859524330e-03 1.063787010283633e-01 -4.281377641101489e-04 -6.696575973991438e-02 4.322216920582996e-01 -1.824844953932750e-02 4.613759199443134e-02
            -1.830466954420364e-02 4.617570065385818e-02 -6.694674968831611e-02 4.321367010562881e-01 1.032892828506494e-01 1.012469116260665e-02 9.884121395037176e-02 1.076735801818863e-02
            -6.687319577686189e-02 4.321246192999244e-01 -1.824322333039221e-02 4.616064821738235e-02 9.882804820721781e-02 1.082357258231268e-02 1.033885049641621e-01 1.014851548060068e-02
730270000.0000000000 1.051869039950766e-01 -1.423032060636578e-02 1.003033186481225e-01 -7.520309258053175e-03 -1.088965377570702e-04 4.943211130957356e-02 8.494048857995466e-02 4.289342910011091e-01
            1.002789542193017e-01 -7.555228026057570e-03 1.052261011037624e-01 -1.422182015452106e-02 8.493253993874410e-02 4.288680012983745e-01 -1.018794245874043e-04 4.937449012736850e-02
            -9.886644101154044e-05 4.938718560704170e-02 8.493127104625603e-02 4.288229465405182e-01 1.041931584592989e-01 -4.164015041999579e-03 9.948325082035589e-02 -3.076343432719260e-03
            8.496568017952605e-02 4.288891764574830e-01 -2.021749506287986e-05 4.949423573683469e-02 9.941484573414892e-02 -3.054393804859820e-03 1.042509479737943e-01 -4.154170612290843e-03
731102500.0000000000 9.516191857444552e-02 -2.415370501906592e-02 9.077183226294286e-02 -1.737062631071032e-02 1.856210189459996e-02 4.627237938205474e-02 2.270727763479499e-01 3.743480080429057e-01
            9.070871770587496e-02 -1.753933540896235e-02 9.518546711647329e-02 -2.415008711046544e-02 2.271038929387262e-01 3.743198642514227e-01 1.860949694410011e-02 4.633277127559166e-02
            1.861778450791102e-02 4.629104009837678e-02 2.271803479566975e-01 3.742880003687887e-01 9.549917072322960e-02 -1.539236678657261e-02 9.092133518168313e-02 -1.378309288507914e-02
            2.270591378866643e-01 3.742947250416769e-01 1.860459254132797e-02 4.636290178901660e-02 9.093187093006647e-02 -1.376110003163825e-02 9.564450777289646e-02 -1.549686703072907e-02
731935000.0000000000 8.060529670480918e-02 -2.513622448546257e-02 7.666385889437542e-02 -1.863656878426777e-02 3.572562331039239e-02 3.608948394934443e-02 3.428679457264870e-01 2.738050674244589e-01
            7.668693227253466e-02 -1.868172516271775e-02 8.065040498430807e-02 -2.513935662696448e-02 3.429053042828976e-01 2.738225540199646e-01 3.578382993904818e-02 3.607079469257386e-02
            3.570429843738037e-02 3.608953806868511e-02 3.428574683340682e-01 2.738464779340677e-01 8.168555611028516e-02 -1.813862651741177e-02 7.739270915753750e-02 -1.596598967215654e-02
            3.429508906862256e-01 2.738734382318379e-01 3.568896423355019e-02 3.603012867108439e-02 7.731483850940901e-02 -1.601613122401486e-02 8.172158341590850e-02 -1.813911605708192e-02
732767500.0000000000 6.869274344419685e-02 -1.618889273504438e-02 6.507727788205514e-02 -1.035497516823068e-02 4.781446719566625e-02 1.893932971506893e-02 4.172659273116950e-01 1.384614356840133e-01
            6.510190709903940e-02 -1.031257037142222e-02 6.873473461441475e-02 -1.617022950374247e-02 4.171664905989871e-01 1.384687384049106e-01 4.786134646207246e-02 1.902037845606976e-02
            4.791286862856103e-02 1.897258212842925e-02 4.172289895443177e-01 1.384812537319683e-01 6.952333420535410e-02 -1.077348039851340e-02 6.566998154986957e-02 -8.442156251544333e-03
            4.172163419409998e-01 1.384641490190927e-01 4.781175288317779e-02 1.901194829511909e-02 6.567851572235747e-02 -8.516452639820029e-03 6.954143433284452e-02 -1.071759769838303e-02
733600000.0000000000 6.535839451242770e-02 -1.288612713019907e-03 6.177202042051887e-02 3.913142092429815e-03 5.158977742450853e-02 -2.192554080869606e-03 4.394155692809515e-01 -1.495640783727098e-02
            6.176592031328030e-02 3.892356549024720e-03 6.539029588752311e-02 -1.386310435667779e-03 4.394350065157624e-01 -1.500728896974196e-02 5.157633110056967e-02 -2.213715369340691e-03
            5.153420266466476e-02 -2.200915504024975e-03 4.393647353618163e-01 -1.501914799627217e-02 6.546209896444219e-02 3.051081070668952e-03 6.194040379818889e-02 5.124993391086289e-03
            4.394538961574736e-01 -1.499119832338527e-02 5.162406507761107e-02 -2.195779051957569e-03 6.195613650291448e-02 5.167031953556540e-03 6.541768121111458e-02 2.994547427934973e-03
734432500.0000000000 7.262539959313298e-02 1.222576317357389e-02 6.862132296675759e-02 1.694516517681409e-02 4.586177671887721e-02 -2.276417041552204e-02 4.061773588610966e-01 -1.662042739737233e-01
            6.866321964692114e-02 1.689103787971635e-02 7.259176978562812e-02 1.225351666076948e-02 4.061057158830883e-01 -1.662641484354261e-01 4.581038074093668e-02 -2.277434657302009e-02
            4.581647276170358e-02 -2.267118548380983e-02 4.060679457233409e-01 -1.661924090823482e-01 7.171819354363616e-02 1.599252283018502e-02 6.841057031961646e-02 1.802766114473063e-02
            4.061360727859030e-01 -1.662003637977304e-01 4.583520318624807e-02 -2.274307365839430e-02 6.846779054737542e-02 1.805264402415777e-02 7.180453986704698e-02 1.606012186597722e-02
735265000.0000000000 8.681811802952157e-02 1.791181314201283e-02 8.222104045208649e-02 2.234594091157600e-02 3.243492135223561e-02 -3.831721347509048e-02 3.226464244571082e-01 -2.952628594194524e-01
            8.219523108765113e-02 2.230578429800864e-02 8.684163540908876e-02 1.783732959827213e-02 3.225456117701980e-01 -2.953336839965333e-01 3.246698936365285e-02 -3.837354517897103e-02
            3.248450993901538e-02 -3.835803490141457e-02 3.226058334761963e-01 -2.953125387307651e-01 8.533140367542734e-02 2.150056566326069e-02 8.173503904231305e-02 2.347198259492004e-02
            3.225909268761558e-01 -2.952952687487286e-01 3.241389871036089e-02 -3.844872149156695e-02 8.171577260671321e-02 2.341063509603733e-02 8.530280513967158e-02 2.155908682284236e-02
736097500.0000000000 1.012434601928141e-01 1.324404320284424e-02 9.602231828753416e-02 1.775457105836518e-02 1.505260866037336e-02 -4.698151850628903e-02 2.007975275784754e-01 -3.869661492219034e-01
            9.598748256160375e-02 1.763734627540655e-02 1.012243050988873e-01 1.322517723150281e-02 2.008060575385611e-01 -3.869386475298158e-01 1.502593620222873e-02 -4.702361012663047e-02
            1.507483258502462e-02 -4.697575921751478e-02 2.007632603024370e-01 -3.869102897084309e-01 9.928277243436490e-02 1.672795999488758e-02 9.542478920768616e-02 1.884897324115404e-02
            2.008378665783054e-01 -3.869057358520507e-01 1.503847339525868e-02 -4.704030523015017e-02 9.540714627007335e-02 1.890495146068699e-02 9.922435401316967e-02 1.672734907635000e-02
736930000.0000000000 1.093428302185656e-01 7.541973997085714e-04 1.035938358644492e-01 5.675039896408538e-03 -3.329685362889443e-03 -4.889348212109411e-02 5.621244666082006e-02 -4.313509908828814e-01
            1.036092268582890e-01 5.637965161536882e-03 1.093101610569500e-01 6.803627497286405e-04 5.616760507043584e-02 -4.314208720921752e-01 -3.390887932719084e-03 -4.881766005105719e-02
            -3.329251946274641e-03 -4.888229738304594e-02 5.611570264543130e-02 -4.314656095532559e-01 1.069666720996647e-01 3.792021397227328e-03 1.028711990888295e-01 6.513194181914595e-03
            5.619342537892662e-02 -4.314294673498638e-01 -3.388461374834140e-03 -4.882199028570151e-02 1.028478062756982e-01 6.545175450127179e-03 1.069417061819819e-01 3.849993418134211e-03
737762500.0000000000 1.076229848228895e-01 -1.389172391385913e-02 1.015566752310635e-01 -8.299940806250161e-03 -2.110931882404143e-02 -4.465273019508722e-02 -9.468377518143467e-02 -4.245645847998550e-01
            1.016234930303063e-01 -8.301439503781080e-03 1.076719229346385e-01 -1.395191239167883e-02 -9.473992561746274e-02 -4.245689617924941e-01 -2.107049824268771e-02 -4.477310990872352e-02
            -2.106354046569412e-02 -4.458846448817417e-02 -9.467226015526824e-02 -4.246097288724983e-01 1.046834450507075e-01 -1.133043763531291e-02 1.006587250921034e-01 -7.621369490686022e-03
            -9.464736007424590e-02 -4.245567404883985e-01 -2.103506679956446e-02 -4.468628013880398e-02 1.007430363066538e-01 -7.622499296706301e-03 1.046310087858061e-01 -1.138491204537622e-02
738595000.0000000000 9.717134928430296e-02 -2.397136403338012e-02 9.123967695572262e-02 -1.764976352022621e-02 -3.696419829521116e-02 -3.477876570256898e-02 -2.348291447498057e-01 -3.669947125772137e-01
            9.121704104035083e-02 -1.764410604563178e-02 9.723017206365409e-02 -2.400379836985886e-02 -2.349206839274260e-01 -3.669529482100967e-01 -3.687477781382952e-02 -3.466910443721572e-02
            -3.688806736655655e-02 -3.478551319819043e-02 -2.348644720709593e-01 -3.668969916695421e-01 9.306246353425397e-02 -2.175640868483498e-02 8.978954088516165e-02 -1.715924296278276e-02
            -2.348499921741532e-01 -3.670299848149034e-01 -3.694725969709818e-02 -3.481757385951265e-02 8.975196626449997e-02 -1.709789182447704e-02 9.303021265045038e-02 -2.180091413600368e-02
739427500.0000000000 8.286126138519834e-02 -2.482064694247875e-02 7.743836532117339e-02 -1.787432398812037e-02 -4.903577834982455e-02 -1.892172785462542e-02 -3.476623478783543e-01 -2.641586262630333e-01
            7.742336953626935e-02 -1.792892408184720e-02 8.295232903399227e-02 -2.484058338049777e-02 -3.478092371456779e-01 -2.641275464114289e-01 -4.900583324207891e-02 -1.885266318959812e-02
            -4.901507356987610e-02 -1.877282458878218e-02 -3.477146383133070e-01 -2.641659605776062e-01 7.722858453758262e-02 -2.256323507782037e-02 7.504370457960442e-02 -1.728104454148219e-02
            -3.477381619966847e-01 -2.641073442923899e-01 -4.902369629393753e-02 -1.881957724939326e-02 7.501653944040849e-02 -1.733995631312350e-02 7.722956247214581e-02 -2.275759742616725e-02
740260000.0000000000 7.188350397439103e-02 -1.630298477247764e-02 6.693450148079468e-02 -8.935631914869076e-03 -5.438565320204593e-02 1.815820631580897e-03 -4.183574106998960e-01 -1.275228181882078e-01
            6.696856518785192e-02 -8.941200672795734e-03 7.177906227836825e-02 -1.635129382617691e-02 -4.183691296365952e-01 -1.275451708929592e-01 -5.432298000733189e-02 1.897133835204112e-03
            -5.440756366055593e-02 1.880042196679211e-03 -4.183102178007058e-01 -1.275671376253716e-01 6.446637171088035e-02 -1.322029306320882e-02 6.367267080276164e-02 -7.733140408605931e-03
            -4.183808755312489e-01 -1.275434326780850e-01 -5.430809887144052e-02 1.848212168792893e-03 6.361164893279646e-02 -7.654059463427995e-03 6.446116417744648e-02 -1.326118289266536e-02
741092500.0000000000 6.927128182057007e-02 -2.702471726064686e-03 6.516928181046376e-02 4.717102973205328e-03 -5.041930065950188e-02 2.407301310629651e-02 -4.364478450514697e-01 2.561784961872447e-02
            6.512481083796995e-02 4.680184048445986e-03 6.936083790320977e-02 -2.737530258795699e-03 -4.365225309519211e-01 2.559922026877093e-02 -5.035505344840973e-02 2.407174666753126e-02
            -5.040911158091384e-02 2.412081606953067e-02 -4.365473126471722e-01 2.570978943379537e-02 6.081638730573137e-02 1.938448434288962e-03 6.124293892229436e-02 7.190007308773204e-03
            -4.365204767508118e-01 2.565003119901075e-02 -5.034248075957518e-02 2.401447030843186e-02 6.137844212696576e-02 7.198392581078608e-03 6.078535783678003e-02 1.919247125414423e-03
741925000.0000000000 7.644483167253273e-02 8.786236346863494e-03 7.305614972145577e-02 1.609812998399499e-02 -3.716040098619648e-02 4.269944023275488e-02 -3.995663947410102e-01 1.751452727354367e-01
            7.310472258074902e-02 1.605194817244079e-02 7.644599378223259e-02 8.846443051433350e-03 -3.995918055740613e-01 1.750395794928452e-01 -3.717139607284330e-02 4.269694247570989e-02
            -3.705154229074970e-02 4.271257165497792e-02 -3.995997821848105e-01 1.750554065172389e-01 6.777641170536630e-02 1.552050271788435e-02 6.930494510851218e-02 2.004182582013435e-02
            -3.996606421515079e-01 1.750945156036141e-01 -3.709818696304972e-02 4.276016426858138e-02 6.927556901316166e-02 2.007864769935610e-02 6.776386072280456e-02 1.546287979361980e-02
742757500.0000000000 8.923675865437641e-02 1.240778487552764e-02 8.651736864274988e-02 1.921352278960118e-02 -1.755355438843809e-02 5.402325376209296e-02 -3.134922106448679e-01 3.012382528137153e-01
            8.652262945986847e-02 1.928577454512716e-02 8.936559089954928e-02 1.239923690083405e-02 -3.135260519547346e-01 3.012434733814183e-01 -1.756407352022919e-02 5.398826366918549e-02
            -1.746526630444738e-02 5.393926811475630e-02 -3.135247177294027e-01 3.012640226867789e-01 8.130650091049260e-02 2.085107865129324e-02 8.353259023178863e-02 2.466787391205384e-02
            -3.134782204384556e-01 3.012035843316956e-01 -1.750863607966701e-02 5.397293482771882e-02 8.348914792629306e-02 2.463617621370783e-02 8.133446428628691e-02 2.088623443344237e-02
743590000.0000000000 1.011585471997569e-01 6.615988177055315e-03 9.863520205249361e-02 1.279888623741418e-02 4.217467120605056e-03 5.657677735165988e-02 -1.903843559651796e-01 3.893678790194888e-01
            9.877498061427895e-02 1.277348870166931e-02 1.011858513377457e-01 6.549775072411595e-03 -1.902963502786457e-01 3.893311656797777e-01 4.295967462800094e-03 5.659384862242062e-02
            4.268046303624817e-03 5.660285803379089e-02 -1.904294534999465e-01 3.893640962505635e-01 9.453927567733499e-02 1.608151878094813e-02 9.718474491647043e-02 1.899947123289336e-02
            -1.903180800812185e-01 3.894140935868311e-01 4.213646682513462e-03 5.653588666311183e-02 9.720609609275072e-02 1.906087521961763e-02 9.470384989895876e-02 1.608269947985760e-02
744422500.0000000000 1.061618785673456e-01 -5.525870764049762e-03 1.039305477633044e-01 -2.684230562564565e-04 2.464916521260945e-02 5.138757413576133e-02 -4.541356194542808e-02 4.302515987543556e-01
            1.038557180327914e-01 -1.570712074357665e-04 1.061709954669357e-01 -5.548726025399239e-03 -4.557736935360602e-02 4.302579459619967e-01 2.461411800783566e-02 5.138619777549822e-02
            2.469015759344020e-02 5.141070574210771e-02 -4.544767226775909e-02 4.301746903590464e-01 1.010592851642974e-01 3.866116864035954e-03 1.038694915915103e-01 6.272270246627113e-03
            -4.547888914107652e-02 4.302357547101761e-01 2.463686948176798e-02 5.137562496488659e-02 1.038944666326768e-01 6.327773715992504e-03 1.010329779693908e-01 3.898186473839573e-03
745255000.0000000000 1.019389371068599e-01 -1.800831268088376e-02 9.939988116871623e-02 -1.357118270785991e-02 4.219774537104031e-02 3.987461533158947e-02 1.045021527035850e-01 4.198121996399491e-01
            9.942331566181900e-02 -1.349852513203108e-02 1.019066743254666e-01 -1.802643719230392e-02 1.045461808627292e-01 4.198290150322863e-01 4.215292850946367e-02 3.984692152575121e-02
            4.215379843810900e-02 3.977027878793195e-02 1.045415441289848e-01 4.198113378583523e-01 9.773347336091608e-02 -9.610063540813495e-03 1.008868477768494e-01 -7.566076149130535e-03
            1.045091520950669e-01 4.198633732365827e-01 4.216755928742610e-02 3.992001274290952e-02 1.008433311386112e-01 -7.626102856841640e-03 9.770315903011260e-02 -9.640450251932629e-03
746087500.0000000000 9.041193118566543e-02 -2.480065262673950e-02 8.729075358813281e-02 -2.087444981899175e-02 5.533944103575231e-02 2.273383889799644e-02 2.426668585895491e-01 3.589166476226450e-01
            8.728160653431304e-02 -2.087447517280810e-02 9.040238177443685e-02 -2.477376791921631e-02 2.427278636803458e-01 3.589411338877098e-01 5.528685648012647e-02 2.280730581005864e-02
            5.536646083070428e-02 2.277514170501467e-02 2.427571866145062e-01 3.589457999713342e-01 8.611918488989516e-02 -1.772971300787397e-02 8.969881735386738e-02 -1.600660886497847e-02
            2.427845662868853e-01 3.590176732999263e-01 5.527779906012556e-02 2.279924255932189e-02 8.960747287716617e-02 -1.593644255434745e-02 8.616825678306010e-02 -1.764301539296511e-02
746920000.0000000000 7.707524957564013e-02 -2.233756842118132e-02 7.303698176264101e-02 -1.861370297862524e-02 6.223346509078162e-02 1.003600559886858e-03 3.523200665328992e-01 2.534799262045730e-01
            7.308697077623255e-02 -1.858004276200532e-02 7.711505598161271e-02 -2.222276149821151e-02 3.522718347490033e-01 2.534732198199455e-01 6.215961312193556e-02 9.593544840461629e-04
            6.224751569131154e-02 9.762753345981167e-04 3.523474881159816e-01 2.535266048857889e-01 7.165751918805130e-02 -1.602302836553912e-02 7.578237334473990e-02 -1.497567552943287e-02
            3.523947407765637e-01 2.535536341995516e-01 6.228343366210910e-02 9.428694797741283e-04 7.581922268191731e-02 -1.498386663833971e-02 7.165799750982840e-02 -1.597646156585194e-02
747752500.0000000000 6.874351860024781e-02 -1.142375522995973e-02 6.369301533792034e-02 -7.493696770394380e-03 6.029103440317773e-02 -2.352264997240070e-02 4.186102791207938e-01 1.156859061033952e-01
            6.376370703853311e-02 -7.607065456596627e-03 6.869148733039433e-02 -1.144732609129490e-02 4.187091630886806e-01 1.157292852751289e-01 6.028142503489603e-02 -2.349907136048885e-02
            6.031062341848369e-02 -2.352721846303515e-02 4.186159839909674e-01 1.156752387611966e-01 6.140860377723097e-02 -5.181296865249700e-03 6.615851097074260e-02 -4.841018435875393e-03
            4.186899102491335e-01 1.157236053148357e-01 6.025373583593931e-02 -2.346700138833653e-02 6.614540874459680e-02 -4.888086849518678e-03 6.149370982047017e-02 -5.107172053875617e-03
748585000.0000000000 6.964379750256204e-02 2.367471904816019e-03 6.398013260613936e-02 7.105042939747119e-03 4.816643995633063e-02 -4.632830112318212e-02 4.321906579294771e-01 -3.684949402692723e-02
            6.398274721323065e-02 7.091579912856570e-03 6.966249821956523e-02 2.380430464026560e-03 4.321921427346941e-01 -3.684264389419791e-02 4.810693933533447e-02 -4.626233982219134e-02
            4.805103299852069e-02 -4.637818721482931e-02 4.321809619535567e-01 -3.678467891115370e-02 6.084445475364055e-02 1.002625033927403e-02 6.588527375104125e-02 9.158402604610883e-03
            4.321715274674257e-01 -3.685276692016446e-02 4.804774043322543e-02 -4.637115144500173e-02 6.589107318148908e-02 9.050703336140819e-03 6.085840614936102e-02 1.012197453516145e-02
749417500.0000000000 7.957832795223095e-02 1.212799080124526e-02 7.362920564467750e-02 1.796201147406349e-02 2.705009557143328e-02 -6.249213115610808e-02 3.914938706510612e-01 -1.837025391656857e-01
            7.376441964552917e-02 1.786765548587000e-02 7.951987950588653e-02 1.212436856788229e-02 3.914655088345775e-01 -1.836966080186680e-01 2.709044519182451e-02 -6.252471489165190e-02
            2.706306046544414e-02 -6.248812365460113e-02 3.914597045251432e-01 -1.837569961707124e-01 7.011845608556064e-02 2.199452068491088e-02 7.525752531632569e-02 1.961897342501540e-02
            3.914025907788143e-01 -1.836654575294114e-01 2.708672544746615e-02 -6.247944862207568e-02 7.525243278989539e-02 1.963286307979958e-02 7.019899278664866e-02 2.190483961005081e-02
750250000.0000000000 9.351061974790173e-02 1.288627513512970e-02 8.809303654283329e-02 1.973899531210317e-02 1.401541947515453e-03 -6.869558652781581e-02 3.029461882641405e-01 -3.062153109127294e-01
            8.807923015692698e-02 1.986552428289133e-02 9.355752710021850e-02 1.286924821378972e-02 3.029938596400029e-01 -3.061766651903025e-01 1.424040629665453e-03 -6.875563982942240e-02
            1.520827760760117e-03 -6.871983980887585e-02 3.029547071528358e-01 -3.062216400218621e-01 8.476935628943620e-02 2.502082458315341e-02 8.935344406723804e-02 2.130481115873234e-02
            3.030125568017319e-01 -3.061937821315761e-01 1.464546595299806e-03 -6.880730062591232e-02 8.934760025482028e-02 2.129592587242702e-02 8.475071887462962e-02 2.512491322044619e-02
751082500.0000000000 1.046677690289736e-01 4.321734559060614e-03 1.002497348484150e-01 1.215465336446635e-02 -2.404233104704325e-02 -6.479400533265599e-02 1.790280084428927e-01 -3.902268315653691e-01
            1.001701893537400e-01 1.222269181672433e-02 1.047417954694980e-01 4.440882853164196e-03 1.790379078376473e-01 -3.902582758194347e-01 -2.403148970850132e-02 -6.491534191577307e-02
            -2.401780143306099e-02 -6.482390254851030e-02 1.789943656250829e-01 -3.902511535023063e-01 9.760403577058685e-02 1.806877857515708e-02 1.012523932655434e-01 1.328222311302706e-02
            1.790511374192251e-01 -3.903328575871458e-01 -2.406585323622227e-02 -6.473503900857069e-02 1.011817378050016e-01 1.324015958783222e-02 9.749137444007173e-02 1.812631885592465e-02
751915000.0000000000 1.077951745274641e-01 -9.343337098796292e-03 1.046543840115211e-01 -1.276832652955847e-03 -4.602739921358941e-02 -5.242465525097297e-02 3.471027068015911e-02 -4.273092637962789e-01
            1.046973115109284e-01 -1.290615775697459e-03 1.077524848567232e-01 -9.223365429187200e-03 3.463461848162813e-02 -4.272859050089281e-01 -4.598365685826115e-02 -5.244336590015793e-02
            -4.606868707935457e-02 -5.245317638719490e-02 3.463899002783182e-02 -4.272724283748236e-01 1.026673933017182e-01 4.487897844472403e-03 1.052194853709891e-01 -8.208233185247405e-04
            3.464824056751555e-02 -4.272439539309592e-01 -4.599699445845253e-02 -5.248355152411666e-02 1.051706419141882e-01 -7.839961724601257e-04 1.025821687066398e-01 4.715537441018077e-03
752747500.0000000000 1.014111500468622e-01 -2.171500922428103e-02 9.971637281395707e-02 -1.440297895771517e-02 -6.253413296101025e-02 -3.367134767147279e-02 -1.136861426486583e-01 -4.134001147439628e-01
            9.967210729754727e-02 -1.432270254118473e-02 1.013903954184915e-01 -2.175286873073940e-02 -1.136355393784364e-01 -4.134525932476432e-01 -6.256309811252879e-02 -3.366745716741055e-02
            -6.259097711192242e-02 -3.367725215936649e-02 -1.137664251629917e-01 -4.134310699241320e-01 9.783963039875153e-02 -8.848155314773978e-03 9.908177332459593e-02 -1.449881209554491e-02
            -1.137216188898883e-01 -4.134040694627559e-01 -6.254031485632798e-02 -3.364390036777919e-02 9.913090167917393e-02 -1.454441234182594e-02 9.783514630558147e-02 -8.856976528231057e-03
753580000.0000000000 8.846104536639454e-02 -2.733245398897437e-02 8.780936375239760e-02 -2.108961324163459e-02 -7.248240546405242e-02 -9.936843983016695e-03 -2.492980076305978e-01 -3.497025947609547e-01
            8.781760083207446e-02 -2.101619594844245e-02 8.842996431616924e-02 -2.732845521152602e-02 -2.492850322537963e-01 -3.497332241265876e-01 -7.250786660992183e-02 -1.001335804349303e-02
            -7.252095915190863e-02 -9.995689737355568e-03 -2.492544938621124e-01 -3.497125578494170e-01 8.513672138962809e-02 -1.596072774675791e-02 8.564851778498819e-02 -2.140022876089517e-02
            -2.492786928683119e-01 -3.496576634586288e-01 -7.249777850940298e-02 -9.931615010815825e-03 8.562688653628472e-02 -2.154039124468440e-02 8.521920189084951e-02 -1.585400728171368e-02
754412500.0000000000 7.496476300587597e-02 -2.309565094992537e-02 7.470405950430621e-02 -1.843622780816693e-02 -7.391138083624250e-02 1.717707409124881e-02 -3.552853048822314e-01 -2.424168099019054e-01
            7.461842617857006e-02 -1.847877935357718e-02 7.494471100254337e-02 -2.311709185293867e-02 -3.552956271075645e-01 -2.424321515751110e-01 -7.391167622685296e-02 1.712662370761561e-02
            -7.401062396789250e-02 1.712048687539129e-02 -3.552459566609972e-01 -2.424147421713863e-01 7.086489913991167e-02 -1.294424810193053e-02 7.056454528541325e-02 -1.818814013451237e-02
            -3.552840355870515e-01 -2.423705935985935e-01 -7.398702680688629e-02 1.713876809777528e-02 7.054232364035126e-02 -1.824950788960411e-02 7.087398552877565e-02 -1.293749389325080e-02
755245000.0000000000 6.769155377253598e-02 -1.113416633849873e-02 6.692066116418544e-02 -7.973696883216955e-03 -6.489303064529414e-02 4.469473306171200e-02 -4.174228372702080e-01 -1.040666578288586e-01
            6.690523990498699e-02 -7.918394472989292e-03 6.766770313642040e-02 -1.117964915190082e-02 -4.174507261070716e-01 -1.041094195444475e-01 -6.493150830109712e-02 4.463745824859879e-02
            -6.493223856500904e-02 4.463490290087330e-02 -4.174522895697002e-01 -1.041224353583110e-01 6.189278770885346e-02 -1.189202878572066e-03 6.098822154219765e-02 -6.257361105336091e-03
            -4.174071333699773e-01 -1.040228218618756e-01 -6.495829740417222e-02 4.460280061770790e-02 6.096538959607404e-02 -6.215997991495333e-03 6.182870840889186e-02 -1.180060971606909e-03
756077500.0000000000 7.010219796758807e-02 2.708657786798472e-03 6.835036885373294e-02 4.709219739614927e-03 -4.501898856747929e-02 6.765775660287839e-02 -4.268526315047840e-01 4.725808245511455e-02
            6.834459527945105e-02 4.804763511766827e-03 7.017378228876067e-02 2.702708906043108e-03 -4.268280807475499e-01 4.729142113347214e-02 -4.496931529097835e-02 6.766182658263518e-02
            -4.498708063944648e-02 6.768079473476141e-02 -4.268487233972531e-01 4.724736809573300e-02 6.274584110226256e-02 1.365646260515917e-02 6.139242483135268e-02 8.885066509237817e-03
            -4.268304746269020e-01 4.715453725678839e-02 -4.501272718955474e-02 6.763889941252481e-02 6.133514173893361e-02 8.853974967834410e-03 6.276490011837951e-02 1.367387655877500e-02
756910000.0000000000 8.135280443166742e-02 1.126541949016608e-02 7.814619115866295e-02 1.282687282286981e-02 -1.683675509910638e-02 8.119369129014058e-02 -3.826912340566159e-01 1.914390969106264e-01
            7.810609199894498e-02 1.275308630724273e-02 8.123098307334137e-02 1.128532788065200e-02 -3.827740329042912e-01 1.913831404470805e-01 -1.672433121455583e-02 8.133391296043739e-02
            -1.678617876553592e-02 8.130151419500739e-02 -3.827630319404771e-01 1.914197675929734e-01 7.311962159033167e-02 2.416268119201750e-02 7.113920756272937e-02 1.975985140642851e-02
            -3.827568675834503e-01 1.914696997350769e-01 -1.677622343091506e-02 8.123817795542375e-02 7.120059501515605e-02 1.979284516483463e-02 7.317729881394543e-02 2.412524622305095e-02
757742500.0000000000 9.537466767929799e-02 1.046581596062540e-02 9.074229715254276e-02 1.217039323030196e-02 1.447012567455472e-02 8.275430631570216e-02 -2.921691411371617e-01 3.103264477873479e-01
            9.075219128092429e-02 1.212153294348942e-02 9.531215078405796e-02 1.050056663266478e-02 -2.922114153997510e-01 3.103434978670765e-01 1.452383671185489e-02 8.271864739369318e-02
            1.449463657235828e-02 8.274715008907356e-02 -2.921915724607502e-01 3.103583426216810e-01 8.776321897615297e-02 2.509315763179482e-02 8.518212243960506e-02 2.137722997207129e-02
            -2.923053629725401e-01 3.102892580522760e-01 1.448582640863889e-02 8.281417949300443e-02 8.513344025508668e-02 2.139967345298359e-02 8.772383639991239e-02 2.517351280223696e-02
758575000.0000000000 1.056720696233255e-01 7.646071838648104e-04 1.001604932306906e-01 3.138390060899250e-03 4.369664845999810e-02 7.257618439062485e-02 -1.676712973395187e-01 3.904532857173397e-01
            1.000968549362324e-01 3.014662613001919e-03 1.057688554712031e-01 8.468369666944393e-04 -1.676125207653679e-01 3.904916896251440e-01 4.370569898830709e-02 7.253778290232908e-02
            4.367147740843264e-02 7.255218371894420e-02 -1.675691199621462e-01 3.904808677645710e-01 9.921220302769873e-02 1.635160750359841e-02 9.637364755503661e-02 1.345078046370518e-02
            -1.676314527471567e-01 3.904349371372755e-01 4.372808133219123e-02 7.253854398112328e-02 9.637082568997764e-02 1.345262733658166e-02 9.927112011986054e-02 1.641081914475893e-02
759407500.0000000000 1.077178972650654e-01 -1.324225001502115e-02 1.014325294997562e-01 -1.017830168701734e-02 6.706300699938553e-02 5.305921312284684e-02 -2.391471433040267e-02 4.236421746176652e-01
            1.015293281660094e-01 -1.018095450401747e-02 1.077755962667931e-01 -1.316713600732841e-02 -2.386507632233354e-02 4.236106605706676e-01 6.706905538472645e-02 5.306896040246335e-02
            6.705390826247765e-02 5.314797529142923e-02 -2.387743480468020e-02 4.235467328412433e-01 1.022592379924945e-01 1.917572950904018e-03 9.928013237859556e-02 9.916623177600662e-05
            -2.392737836886833e-02 4.236407093948040e-01 6.711998698537694e-02 5.310595463396013e-02 9.927131247495999e-02 6.660545042959593e-05 1.021811051645448e-01 1.931927851761098e-03
760240000.0000000000 1.008923348804995e-01 -2.536568953195159e-02 9.429324271072437e-02 -2.154678875067635e-02 8.274778993613224e-02 2.703949118885874e-02 1.228290803889312e-01 4.062842403765928e-01
            9.438780641002376e-02 -2.155036334081227e-02 1.008814248882306e-01 -2.533098648887871e-02 1.227805598739761e-01 4.062575244046067e-01 8.270263376596171e-02 2.701739612561325e-02
            8.265351668346248e-02 2.707218698734275e-02 1.227495275382969e-01 4.062740262380297e-01 9.490696782286312e-02 -1.142229252274444e-02 9.237043617370812e-02 -1.218538925448934e-02
            1.227598129543279e-01 4.062720631230869e-01 8.273322239702399e-02 2.707546683993035e-02 9.235645169007475e-02 -1.214502219874338e-02 9.485594797302103e-02 -1.139250922045593e-02
761072500.0000000000 8.846267898275695e-02 -3.055594884699500e-02 8.173719364934598e-02 -2.607897919293461e-02 8.932134831852880e-02 -3.255289317444404e-03 2.554118610366798e-01 3.396749103613143e-01
            8.178479688231140e-02 -2.609178990091050e-02 8.845833704995779e-02 -3.046711044076620e-02 2.552808881066926e-01 3.397115709802037e-01 8.922987169608330e-02 -3.347624948734741e-03
            8.932905917227640e-02 -3.409814004796452e-03 2.554276070585570e-01 3.396858459177511e-01 7.995183849246434e-02 -1.754145580872020e-02 7.843936764160246e-02 -1.726785723993988e-02
            2.553866278250762e-01 3.396814441433612e-01 8.927474327183034e-02 -3.317940983872587e-03 7.847097795325107e-02 -1.737375584771192e-02 7.993936774931820e-02 -1.748688122603211e-02
761905000.0000000000 7.659507988904858e-02 -2.705231172616882e-02 6.970983734917909e-02 -2.201650512458396e-02 8.508306430525674e-02 -3.565577087132268e-02 3.575005341069762e-01 2.306599710890532e-01
            6.974552759850410e-02 -2.198814403173838e-02 7.649233969354285e-02 -2.701720349043450e-02 3.574800602658848e-01 2.306769860175109e-01 8.505637028444871e-02 -3.563045893935037e-02
            8.503024203302545e-02 -3.560380571875519e-02 3.575489299476098e-01 2.306485355691199e-01 6.377084239103820e-02 -1.284664071574741e-02 6.366265293743255e-02 -1.226902603788557e-02
            3.575086577543931e-01 2.305851842603338e-01 8.514872025118500e-02 -3.557386188156293e-02 6.364206039978301e-02 -1.221692320159606e-02 6.367114973821966e-02 -1.285504238896394e-02
762737500.0000000000 7.071107299591244e-02 -1.758398987977682e-02 6.372165839237884e-02 -1.209619236121921e-02 6.898991304214926e-02 -6.571646143705126e-02 4.152460495097821e-01 9.217875351529797e-02
            6.372750216870031e-02 -1.200433286949295e-02 7.074925455405787e-02 -1.758700280205519e-02 4.152136931456290e-01 9.213770525881894e-02 6.893409420565527e-02 -6.576711284526937e-02
            6.888199293582750e-02 -6.576895891893840e-02 4.152459016825622e-01 9.221030741616920e-02 5.308929458464855e-02 1.249489508424447e-03 5.463067543492910e-02 1.469886419475149e-03
            4.152392358704853e-01 9.225340926834776e-02 6.881551196610344e-02 -6.578384762551844e-02 5.462497052880742e-02 1.442336842677916e-03 5.307150412178540e-02 1.183640576197575e-03
763570000.0000000000 7.323681735539839e-02 -8.371682082582566e-03 6.602916009754291e-02 -2.117436780837609e-03 4.128739544339458e-02 -8.875412777823884e-02 4.205507133555806e-01 -5.754321755298698e-02
            6.602952827549932e-02 -2.189584283219062e-03 7.319339151704063e-02 -8.304559283534787e-03 4.205878504652396e-01 -5.756016844396192e-02 4.135039312868672e-02 -8.876872370019008e-02
            4.128842936871985e-02 -8.879216337231258e-02 4.205744098849420e-01 -5.751068223061213e-02 5.259563043097316e-02 1.868552093555591e-02 5.545577574127977e-02 1.816533298630729e-02
            4.205739571619992e-01 -5.752740495902980e-02 4.137520911547290e-02 -8.881241625646565e-02 5.539887705709357e-02 1.804667972595945e-02 5.259712744038134e-02 1.868307556806257e-02
764402500.0000000000 8.124525219657866e-02 -5.046571724639261e-03 7.405762499672690e-02 2.018547924439797e-03 6.166838147947077e-03 -9.974033617573387e-02 3.732334062801324e-01 -1.988584545629933e-01
            7.415502642755240e-02 2.000396518034219e-03 8.122634607459121e-02 -5.087320845972307e-03 3.733726092320530e-01 -1.989477030598414e-01 6.189715235551012e-03 -9.977527968030978e-02
            6.141593218557870e-03 -9.978312090289237e-02 3.733944835479344e-01 -1.988618734088364e-01 6.179378026928873e-02 3.279936377748762e-02 6.544987557093622e-02 3.085794777459030e-02
            3.733004049699979e-01 -1.988554915960732e-01 6.205921849078415e-03 -9.976231793142090e-02 6.544517047818955e-02 3.085426617900596e-02 6.187202560318481e-02 3.290493529926550e-02
765235000.0000000000 8.874638111035554e-02 -1.016378593826263e-02 8.213213437354437e-02 -2.206173990752288e-03 -3.075268821986542e-02 -9.660153383270526e-02 2.808476507907136e-01 -3.141779117750412e-01
            8.211459398729054e-02 -2.251619986089014e-03 8.874937432713306e-02 -1.019154749894827e-02 2.807934184033703e-01 -3.142067790420267e-01 -3.072009022463721e-02 -9.661262135584328e-02
            -3.072933323701920e-02 -9.660222820616868e-02 2.808568946777072e-01 -3.141773407678289e-01 7.613205119769950e-02 3.881471326044129e-02 7.975000420163898e-02 3.533855970433622e-02
            2.809421898739601e-01 -3.141828982754930e-01 -3.078431068653235e-02 -9.664347587298504e-02 7.970316340784143e-02 3.534791732724996e-02 7.612341755302574e-02 3.883156261423272e-02
766067500.0000000000 8.973772027910705e-02 -2.119124465675800e-02 8.389013105987339e-02 -1.236533939407983e-02 -6.387854425156364e-02 -8.031126808374472e-02 1.553886019896928e-01 -3.904630614566870e-01
            8.391371853903273e-02 -1.242930779920925e-02 8.972479382191026e-02 -2.126450764822403e-02 1.553128872847154e-01 -3.905066241396281e-01 -6.394409098691883e-02 -8.024444500043330e-02
            -6.387794844947767e-02 -8.031843831436261e-02 1.554098317755181e-01 -3.904297427853074e-01 8.931086736840756e-02 3.626870640404761e-02 9.232300849756878e-02 3.146872016531931e-02
            1.554295582542739e-01 -3.904723196156397e-01 -6.388659992261890e-02 -8.022513092729169e-02 9.238154100147282e-02 3.150899962421211e-02 8.922866366762296e-02 3.624198428778717e-02
766900000.0000000000 8.106535846053760e-02 -3.195977678503534e-02 7.645298818457659e-02 -2.285029360403245e-02 -8.924777193631697e-02 -5.351292094629481e-02 1.184844138131972e-02 -4.194677187571248e-01
            7.641707630804624e-02 -2.282546729488400e-02 8.116067884519007e-02 -3.193633853383621e-02 1.184662548957981e-02 -4.194126914527814e-01 -8.924827158564418e-02 -5.346080404950007e-02
            -8.932569272359656e-02 -5.351017633158522e-02 1.181348239851854e-02 -4.194757064968780e-01 9.653037405851143e-02 2.842934563925815e-02 9.891113189440087e-02 2.307915985168321e-02
            1.182830824951291e-02 -4.194249488003342e-01 -8.921840184082627e-02 -5.343352671427917e-02 9.889673200115963e-02 2.313080986668294e-02 9.653651673912260e-02 2.853342433794811e-02
767732500.0000000000 6.474733557076567e-02 -3.566852561124963e-02 6.122006901715407e-02 -2.695381509706296e-02 -1.041608784904511e-01 -1.932899753800267e-02 -1.332136265621457e-01 -3.976524167991977e-01
            6.122494631970080e-02 -2.685601771758775e-02 6.478330477840606e-02 -3.575176607928855e-02 -1.331748695387545e-01 -3.976726176386327e-01 -1.042178446990842e-01 -1.939562247079318e-02
            -1.042327275700874e-01 -1.923719190687197e-02 -1.331728175317541e-01 -3.977027316478566e-01 9.715250758179639e-02 2.074432910131897e-02 9.862477044248413e-02 1.519947011072249e-02
            -1.332744889753867e-01 -3.977200750390200e-01 -1.042795181217318e-01 -1.929101507398949e-02 9.858230982309669e-02 1.522594139018283e-02 9.709314036228323e-02 2.075936781077265e-02
768565000.0000000000 4.674289996776546e-02 -2.807073780961240e-02 4.397000660868505e-02 -2.009721920079961e-02 -1.068065914925820e-01 1.894916671107653e-02 -2.622338484758104e-01 -3.269942158592214e-01
            4.398250342468542e-02 -2.010923075976684e-02 4.676257531873392e-02 -2.800651118560291e-02 -2.622196659232970e-01 -3.269636628142520e-01 -1.067866995017670e-01 1.890375039133460e-02
            -1.068141997924003e-01 1.900529638023138e-02 -2.622395054791028e-01 -3.269670936695431e-01 9.347432880350716e-02 1.751241883087288e-02 9.434327907296955e-02 1.218565105545945e-02
            -2.622615669819713e-01 -3.269890703481417e-01 -1.068011964815305e-01 1.895424875862664e-02 9.440986510965869e-02 1.208785100578804e-02 9.341542980319967e-02 1.740403440108646e-02
769397500.0000000000 3.498178263473361e-02 -9.529745054360576e-03 3.253913191126783e-02 -2.675918332190124e-03 -9.533387967830639e-02 5.715185945340064e-02 -3.588425497629188e-01 -2.154833725810746e-01
            3.250067711077724e-02 -2.580023088026572e-03 3.508954679997098e-02 -9.532026479986754e-03 -3.586998170225152e-01 -2.155622043467055e-01 -9.540346277125884e-02 5.717471703196839e-02
            -9.532593568784210e-02 5.711333440704017e-02 -3.587356507987997e-01 -2.154820251756452e-01 9.044139322972290e-02 1.991927975230792e-02 9.110608794208690e-02 1.488869616027092e-02
            -3.588790514575137e-01 -2.155473179237894e-01 -9.539660434234791e-02 5.709144179448288e-02 9.111798553074382e-02 1.488416149032475e-02 9.043597404696999e-02 1.991563354429946e-02
770230000.0000000000 3.579826426713641e-02 1.375215470785192e-02 3.281364186329219e-02 1.971251851234862e-02 -6.986989565893685e-02 8.959078356199777e-02 -4.098057237026669e-01 -7.750833244425959e-02
            3.279533885756521e-02 1.969765015913603e-02 3.577679695762366e-02 1.370671155212832e-02 -4.097931515475960e-01 -7.745903428435073e-02 -6.978818263229526e-02 8.956160306301883e-02
            -6.984859134709065e-02 8.953829606278831e-02 -4.098625920897871e-01 -7.756412520872337e-02 9.231303282220209e-02 2.565561087716441e-02 9.329108537339179e-02 2.070760155036864e-02
            -4.098493542602278e-01 -7.755670436004927e-02 -6.982048606806102e-02 8.945624615216020e-02 9.316968016216820e-02 2.070041961882581e-02 9.226931390877979e-02 2.566855666580049e-02
771062500.0000000000 4.979180030014512e-02 3.308101837865856e-02 4.576176788409391e-02 3.855137304453520e-02 -3.308328852873684e-02 1.104231169390143e-01 -4.094260849196656e-01 6.844918759084573e-02
            4.578611587045517e-02 3.859445077424640e-02 4.973995763654213e-02 3.308518930326947e-02 -4.094548791230386e-01 6.855400109657606e-02 -3.305007649169014e-02 1.103986698395551e-01
            -3.309316738256862e-02 1.103525321287855e-01 -4.094406093825412e-01 6.843395536737425e-02 1.003190295582917e-01 2.956273420191977e-02 1.014646434515585e-01 2.445120567886176e-02
            -4.094299541234520e-01 6.845695532795443e-02 -3.307669723650196e-02 1.103937203230681e-01 1.014473037820744e-01 2.444411145498770e-02 1.002437651199398e-01 2.960579578213139e-02
771895000.0000000000 7.171914763981239e-02 4.114018950362665e-02 6.666365556986853e-02 4.673800791659932e-02 8.892676998315616e-03 1.156765265064647e-01 -3.591321703026637e-01 2.038595721860521e-01
            6.662364728451001e-02 4.678203855125847e-02 7.175621902154314e-02 4.109102362837131e-02 -3.591251334006612e-01 2.038909590641240e-01 8.934700123055568e-03 1.157606231083322e-01
            8.957407878619953e-03 1.157183589038334e-01 -3.590691909274578e-01 2.039539824792866e-01 1.115625481434570e-01 2.729680165401698e-02 1.128180951356662e-01 2.174944106613681e-02
            -3.591108114539495e-01 2.039464373548618e-01 8.932308949301014e-03 1.158236357606811e-01 1.128432945510571e-01 2.166919866985065e-02 1.116594187403009e-01 2.728815079383200e-02
772727500.0000000000 9.329438155727969e-02 3.568201110177420e-02 8.731492073755108e-02 4.217182517760690e-02 4.941878287147019e-02 1.054111388792891e-01 -2.667290333562022e-01 3.131048820857661e-01
            8.735594896464570e-02 4.209025855009384e-02 9.328586247673769e-02 3.568586677012099e-02 -2.666877136678334e-01 3.130128071745261e-01 4.941169440885109e-02 1.055091292500283e-01
            4.957026799933153e-02 1.055386709281103e-01 -2.667190182421622e-01 3.130871067337793e-01 1.210439003747701e-01 1.754937608641313e-02 1.220622666401193e-01 1.151127077214243e-02
            -2.667731688257392e-01 3.131127007743382e-01 4.951720530695576e-02 1.055276961697061e-01 1.220406202686263e-01 1.159472402189190e-02 1.210525839285593e-01 1.750752874058166e-02
773560000.0000000000 1.066621728883859e-01 2.010361700199989e-02 1.004064630526935e-01 2.745192911128212e-02 8.321308608765757e-02 8.205434684314034e-02 -1.437255064951475e-01 3.843809567735767e-01
            1.004202398644270e-01 2.750835588779546e-02 1.066767989681265e-01 2.004295175470100e-02 -1.437090057653244e-01 3.844176617928327e-01 8.326140942561820e-02 8.213255203957849e-02
            8.323600472577641e-02 8.210293236693460e-02 -1.437044236368683e-01 3.844386325729022e-01 1.239407412213857e-01 2.658541572904369e-03 1.243759853695923e-01 -3.431999908477984e-03
            -1.437367662006594e-01 3.844352110108651e-01 8.316413858070228e-02 8.210455597222013e-02 1.244337746613181e-01 -3.423525150459935e-03 1.239185095702918e-01 2.718355949613307e-03
774392500.0000000000 1.080677464974833e-01 1.318822022152789e-03 1.018803068111331e-01 9.679546894958240e-03 1.070455489305697e-01 4.930144457454953e-02 -3.831226249237128e-03 4.104768763276241e-01
            1.018836115143450e-01 9.714206097426858e-03 1.080983831281394e-01 1.322871651295531e-03 -3.777546389102406e-03 4.104576286176342e-01 1.070287577334838e-01 4.930629413492469e-02
            1.071313938657143e-01 4.929159807438002e-02 -3.806291823710583e-03 4.105093702225928e-01 1.179104529742632e-01 -1.213835427419393e-02 1.177088655831793e-01 -1.798968970693208e-02
            -3.902070895000687e-03 4.104305446918384e-01 1.071218383788260e-01 4.931074504412579e-02 1.176962114223273e-01 -1.796402946813474e-02 1.179171035271552e-01 -1.208372510684129e-02
775225000.0000000000 9.832244628262116e-02 -1.269247749289404e-02 9.251828112075457e-02 -3.630891804656925e-03 1.193705740938134e-01 1.034114309310351e-02 1.375090929704884e-01 3.875642173121883e-01
            9.253537250177830e-02 -3.710812322382393e-03 9.832152646319268e-02 -1.280299184725029e-02 1.375688474332852e-01 3.875330344116350e-01 1.194651674238950e-01 1.034768767777230e-02
            1.194137585450183e-01 1.032928393223391e-02 1.374322072050232e-01 3.874899161883947e-01 1.043250879444533e-01 -2.123716729445196e-02 1.038199972309278e-01 -2.634267695314252e-02
            1.374577000428048e-01 3.874965873359230e-01 1.194236203374855e-01 1.036688803493689e-02 1.038477537540465e-01 -2.638984271734580e-02 1.043476189246242e-01 -2.120511318464975e-02
776057500.0000000000 8.303170998537730e-02 -1.638277818760267e-02 7.768782426331741e-02 -6.971851999625226e-03 1.185265396480417e-01 -3.172854437999653e-02 2.633876565490603e-01 3.166670822692435e-01
            7.764620857076629e-02 -7.048153980308780e-03 8.305574135514418e-02 -1.646898599035189e-02 2.633337708262631e-01 3.168568600461081e-01 1.185326080759680e-01 -3.169139054446667e-02
            1.183901588879881e-01 -3.178701626808188e-02 2.633600584346987e-01 3.168057527225615e-01 8.820381913504224e-02 -2.076984404170023e-02 8.789717256640744e-02 -2.499528738779196e-02
            2.633432880628500e-01 3.167427963729952e-01 1.184911557841632e-01 -3.175532225892735e-02 8.789726118749781e-02 -2.495878375537203e-02 8.807912724307386e-02 -2.082301830579590e-02
776890000.0000000000 7.027659707597667e-02 -8.935065701712947e-03 6.489661994138038e-02 5.833588856042258e-04 1.027966704234768e-01 -7.286502355465811e-02 3.571060573284103e-01 2.056450684329268e-01
            6.489648905136637e-02 5.826575589338869e-04 7.021374032441410e-02 -8.851527958369892e-03 3.570747000322157e-01 2.056669081580008e-01 1.028674231447283e-01 -7.296353115542746e-02
            1.027984873057842e-01 -7.294862037065394e-02 3.571125158577396e-01 2.057070925809500e-01 7.593475844019661e-02 -1.095906452052367e-02 7.659340211382418e-02 -1.440300910420132e-02
            3.570487128261895e-01 2.056170077838994e-01 1.028519673898235e-01 -7.295515058356537e-02 7.670471191539123e-02 -1.430081728140342e-02 7.579022275773116e-02 -1.111043867749654e-02
777722500.0000000000 6.677459690537915e-02 5.191522579479621e-03 6.102760143305509e-02 1.502225830001276e-02 7.201152551191980e-02 -1.073742203188556e-01 4.054462536564379e-01 6.848269298012492e-02
            6.097866803886508e-02 1.496530420140119e-02 6.674975426912048e-02 5.070591652024954e-03 4.055374207184879e-01 6.849599040387518e-02 7.203313005712852e-02 -1.073226566069603e-01
            7.202748166613260e-02 -1.073374656316867e-01 4.054512419514679e-01 6.856122372057551e-02 7.264631854738110e-02 3.477874654228846e-03 7.503825045259879e-02 4.702082446099417e-04
            4.054608518475695e-01 6.850576874925900e-02 7.202526351828291e-02 -1.073165050721114e-01 7.507944145342621e-02 4.871465170627821e-04 7.274156989072776e-02 3.500613916727464e-03
778555000.0000000000 7.415736288850990e-02 1.785184837085657e-02 6.799294878313228e-02 2.825587302963649e-02 2.928269977775178e-02 -1.282778607672471e-01 4.024057021111158e-01 -7.602975109534182e-02
            6.796012126749010e-02 2.828689807914249e-02 7.417026484055746e-02 1.781009403666576e-02 4.023694314103032e-01 -7.612127243342315e-02 2.928045284258037e-02 -1.283804616510694e-01
            2.932591651252172e-02 -1.283870626016582e-01 4.024061070387270e-01 -7.614156092187657e-02 7.956324524618265e-02 1.573963226756215e-02 8.349681180386330e-02 1.217972116053094e-02
            4.023859641800215e-01 -7.604170141943374e-02 2.925991191353447e-02 -1.283851296292822e-01 8.346672568729252e-02 1.223945023057418e-02 7.956542294211032e-02 1.567379239468793e-02
779387500.0000000000 8.859419755826287e-02 2.205878975551034e-02 8.212157944971869e-02 3.375998678918861e-02 -1.883431141574463e-02 -1.318278715985800e-01 3.497286140769664e-01 -2.091865048005092e-01
            8.206572346015244e-02 3.380903877865005e-02 8.865839881888550e-02 2.209816832423415e-02 3.496337392388493e-01 -2.092225215296112e-01 -1.886242703328710e-02 -1.318441071733862e-01
            -1.889711108165413e-02 -1.318331573525191e-01 3.496404185752739e-01 -2.091436722580821e-01 9.209728097721226e-02 1.983071995924952e-02 9.752707609618448e-02 1.515982853189620e-02
            3.496496387493972e-01 -2.091036134252038e-01 -1.887063562403334e-02 -1.317930294220133e-01 9.745678772644746e-02 1.507479859775102e-02 9.213216064223481e-02 1.983009129213993e-02
780220000.0000000000 1.026096338410871e-01 1.575552588390764e-02 9.625776632600123e-02 2.899305155158043e-02 -6.464133214230350e-02 -1.174258307923912e-01 2.555808306144797e-01 -3.149667436349048e-01
            9.623687732143729e-02 2.892067530238803e-02 1.025929412383476e-01 1.579549602209872e-02 2.556599046848502e-01 -3.150369229099060e-01 -6.461699395286458e-02 -1.174347486774291e-01
            -6.465115139186499e-02 -1.174067717150227e-01 2.556822466395658e-01 -3.149477561830832e-01 1.038575251007459e-01 1.438955016219739e-02 1.099128327693859e-01 7.989751641666315e-03
            2.556412130669212e-01 -3.149088896730078e-01 -6.469109406629664e-02 -1.173974616586013e-01 1.098995034838208e-01 7.956718783063867e-03 1.039080334134982e-01 1.440001083271641e-02
781052500.0000000000 1.095392011460166e-01 1.792384122874018e-03 1.038836324326463e-01 1.645530506444953e-02 -1.019504232055040e-01 -8.801063484371470e-02 1.322610352913400e-01 -3.823845538780968e-01
            1.039347728596281e-01 1.654010738864886e-02 1.095753159955329e-01 1.707033240352944e-03 1.321709413651345e-01 -3.824416726654623e-01 -1.018923246874955e-01 -8.819242754656610e-02
            -1.019346731880428e-01 -8.810121600740288e-02 1.321802036714935e-01 -3.824208750028142e-01 1.089091822954241e-01 2.400118209426521e-03 1.148414481729566e-01 -5.499462928639621e-03
            1.322684064292665e-01 -3.823781714333226e-01 -1.019838629809083e-01 -8.818327460317725e-02 1.149141029432483e-01 -5.554862932969667e-03 1.088558675638414e-01 2.357317967781461e-03
781885000.0000000000 1.063493774342117e-01 -1.351750023973339e-02 1.016145019084419e-01 2.377564646880503e-03 -1.271238232457462e-01 -4.834154494978096e-02 -6.659446428443037e-03 -4.043731517910491e-01
            1.016222643148193e-01 2.348775502463447e-03 1.063041869644033e-01 -1.351447787497009e-02 -6.658922292867825e-03 -4.044554504685620e-01 -1.270930501070162e-01 -4.830866544066709e-02
            -1.270920776759786e-01 -4.833099358745560e-02 -6.659198204137374e-03 -4.044385591500911e-01 1.047087687213736e-01 -1.042856350303892e-02 1.101120537228945e-01 -1.921048786007406e-02
            -6.698077938869056e-03 -4.043793117338503e-01 -1.271081352015880e-01 -4.835429568082877e-02 1.101878801771717e-01 -1.924731458463119e-02 1.048148380716617e-01 -1.032917403681223e-02
782717500.0000000000 9.445302667593451e-02 -2.321628788158365e-02 9.059507182452048e-02 -6.705163480209147e-03 -1.380786929510748e-01 -2.216592654097043e-03 -1.454776061525346e-01 -3.777453282015540e-01
            9.063738360711174e-02 -6.678719491028913e-03 9.440151362424931e-02 -2.326456402553320e-02 -1.454639445535665e-01 -3.777458375738233e-01 -1.379640119025112e-01 -2.164981568335275e-03
            -1.379295685126307e-01 -2.216747661114566e-03 -1.454673684015335e-01 -3.777640672190187e-01 9.280950257986043e-02 -1.787102711510293e-02 9.776544378549096e-02 -2.673267430760178e-02
            -1.455240468196772e-01 -3.778076000781677e-01 -1.380251493110050e-01 -2.204656608065709e-03 9.779619662092169e-02 -2.674528477967458e-02 9.284044966536920e-02 -1.786895669187418e-02
783550000.0000000000 7.943064959798878e-02 -2.314698450725286e-02 7.622031810702432e-02 -6.014546284854392e-03 -1.331015397603855e-01 4.613025553030423e-02 -2.673339152751597e-01 -3.042892602416412e-01
            7.623974594041810e-02 -6.077198651298977e-03 7.938860457900063e-02 -2.315899269868898e-02 -2.673820072243990e-01 -3.043638191097339e-01 -1.330216539339791e-01 4.617583580183682e-02
            -1.330292914976638e-01 4.616895684489598e-02 -2.673308007097764e-01 -3.042691968303646e-01 7.829166365118749e-02 -1.620097777877204e-02 8.372531959026640e-02 -2.438079974991120e-02
            -2.674169989000358e-01 -3.043875865128265e-01 -1.329953970503549e-01 4.617622727674517e-02 8.364911988169285e-02 -2.434340030315282e-02 7.835808002632989e-02 -1.614716311215686e-02
784382500.0000000000 6.875666066520558e-02 -1.354707275613109e-02 6.552935310249104e-02 4.592501366911621e-03 -1.110597007107171e-01 9.168892204951247e-02 -3.561500820990986e-01 -1.923704114722546e-01
            6.549962071961921e-02 4.572514706082537e-03 6.883555226939127e-02 -1.359348721445037e-02 -3.560785523384488e-01 -1.922648062873495e-01 -1.111140775186772e-01 9.170075226666974e-02
            -1.110553580085860e-01 9.167011690344688e-02 -3.561403381329565e-01 -1.923046986760391e-01 6.782432372751931e-02 -5.728390680747825e-03 7.494452860046791e-02 -1.323413338204409e-02
            -3.561592571819631e-01 -1.922789484104579e-01 -1.110874637154776e-01 9.162392565937995e-02 7.493666667078101e-02 -1.329806686789792e-02 6.787978021648704e-02 -5.706078295437334e-03
785215000.0000000000 6.778955740951163e-02 2.979623259463307e-05 6.417186672845310e-02 2.037214782824640e-02 -7.297606533971224e-02 1.275749826990047e-01 -3.995856624369273e-01 -5.629288130671595e-02
            6.418504715035644e-02 2.034754379853624e-02 6.784017923827129e-02 7.462464825812721e-07 -3.995218316264378e-01 -5.630752577433595e-02 -7.297695973896892e-02 1.275447811426984e-01
            -7.299351670722312e-02 1.275251269378987e-01 -3.995777194275503e-01 -5.626966819674701e-02 6.609912907352618e-02 8.706954683969152e-03 7.630429345571535e-02 9.879784022272136e-04
            -3.995786886747636e-01 -5.627878748863965e-02 -7.299548481428199e-02 1.274997770550866e-01 7.643216339666166e-02 9.481200828034947e-04 6.608565584443812e-02 8.693375712913601e-03
786047500.0000000000 7.654307898194528e-02 9.943509435615099e-03 7.328494888428612e-02 3.386917807415059e-02 -2.308853226509021e-02 1.473729309207814e-01 -3.923414389505974e-01 8.522014111322714e-02
            7.322262372115113e-02 3.384855935850723e-02 7.657219694836313e-02 9.835697620266867e-03 -3.923657308294661e-01 8.525890898808502e-02 -2.300481713399912e-02 1.473556130571877e-01
            -2.304774231510708e-02 1.473616004255163e-01 -3.923898399344908e-01 8.531087443141973e-02 7.310622178316269e-02 2.039196443658556e-02 8.769562587246411e-02 1.052283073182533e-02
            -3.924329308382281e-01 8.520949099643313e-02 -2.313980302778030e-02 1.473314638903571e-01 8.771336712780721e-02 1.054688779082760e-02 7.322632713867384e-02 2.042917284250284e-02
786880000.0000000000 8.995405179667385e-02 1.032855263869206e-02 8.879529195997182e-02 3.924258801498320e-02 3.098204403731296e-02 1.472162181557627e-01 -3.371537362059290e-01 2.139089139000934e-01
            8.873474252816251e-02 3.925515064286372e-02 8.997870611354002e-02 1.032958891310721e-02 -3.370726839691943e-01 2.139442722441322e-01 3.098627926429672e-02 1.472300482692968e-01
            3.098978723768031e-02 1.471636714020518e-01 -3.371568072978193e-01 2.139462225483976e-01 8.474839823701345e-02 2.465304846314951e-02 1.036401526389529e-01 1.004561469745758e-02
            -3.370345743496939e-01 2.138600923994029e-01 3.102062573610111e-02 1.471924923625416e-01 1.036421134302409e-01 1.003870991077161e-02 8.482576649083923e-02 2.463839809667759e-02
787712500.0000000000 1.003130869408915e-01 5.561220304458887e-04 1.039444837530168e-01 3.494947758501439e-02 8.100244608378920e-02 1.277029347702033e-01 -2.423104772256001e-01 3.150610134717208e-01
            1.039929605559659e-01 3.495154260589027e-02 1.003384881872171e-01 6.830127671053741e-04 -2.422593170736981e-01 3.150383705971117e-01 8.102284852275768e-02 1.275982519362290e-01
            8.107269642731482e-02 1.277020830154739e-01 -2.423427806977600e-01 3.150653708112492e-01 9.500003749374303e-02 2.063940615515915e-02 1.164842412590971e-01 -1.538179188868410e-03
            -2.422638499006383e-01 3.150710243859730e-01 8.101708884183342e-02 1.276215213274196e-01 1.165010828743237e-01 -1.471249205443318e-03 9.492804778151796e-02 2.068649108507992e-02
788545000.0000000000 1.015668200605383e-01 -1.495895392786422e-02 1.134003830114450e-01 2.349107904181228e-02 1.206168561433228e-01 9.237463947575060e-02 -1.196120456078249e-01 3.778561831082722e-01
            1.134321669858421e-01 2.344813102417479e-02 1.015091941934360e-01 -1.486824354565030e-02 -1.197036150771966e-01 3.778605382548253e-01 1.207275593489731e-01 9.242394392895080e-02
            1.208004306617788e-01 9.237354628263748e-02 -1.196246652772757e-01 3.779216604982080e-01 9.878843720826261e-02 1.205834387541028e-02 1.200528150565142e-01 -1.970033178195776e-02
            -1.195746468743113e-01 3.779831327447801e-01 1.207082597889248e-01 9.237336183271014e-02 1.201009348013029e-01 -1.965807787859192e-02 9.880459332323961e-02 1.215316315309501e-02
789377500.0000000000 9.166335199348909e-02 -2.918059454881483e-02 1.143430505537971e-01 1.039938714714747e-02 1.463171285156081e-01 4.616383454718585e-02 1.698417483620766e-02 3.957683118774916e-01
            1.143772626447538e-01 1.038685674139823e-02 9.152102775521490e-02 -2.919605674803294e-02 1.703992097554302e-02 3.957845054416029e-01 1.462196192000413e-01 4.601613012477332e-02
            1.463567265991312e-01 4.605738823850652e-02 1.711711865855282e-02 3.957845946976313e-01 9.497923350652759e-02 4.506746105569675e-03 1.121399577124822e-01 -3.762219680798456e-02
            1.697285710252580e-02 3.957992290575670e-01 1.462926011493560e-01 4.606879870369681e-02 1.121140575134525e-01 -3.755399184061405e-02 9.502983158838849e-02 4.469731925623329e-03
790210000.0000000000 7.336304764336310e-02 -3.483144004593412e-02 1.082259871728608e-01 1.262775823066085e-03 1.555404598638132e-01 -6.544211221803105e-03 1.522941824748669e-01 3.658183084797800e-01
            1.081958647170215e-01 1.301891802733056e-03 7.332983346474092e-02 -3.492771032679012e-02 1.522781932904157e-01 3.657882517837837e-01 1.554675275118440e-01 -6.547148531577679e-03
            1.553851503547279e-01 -6.473069422692225e-03 1.522815378502920e-01 3.658821777752673e-01 8.623988669948442e-02 2.848813655921404e-03 9.501441285040085e-02 -4.826988191679921e-02
            1.522362415639177e-01 3.657974202332522e-01 1.555342955407878e-01 -6.470108867551054e-03 9.502051582287521e-02 -4.826837354631511e-02 8.620720790316634e-02 2.907524834080172e-03
791042500.0000000000 5.386388073961327e-02 -2.835710984560299e-02 9.981052863123317e-02 -5.531980157467862e-04 1.465847909364858e-01 -6.060261330973702e-02 2.694510150581090e-01 2.905352784752122e-01
            9.980321761466902e-02 -5.261783391984550e-04 5.378184675407608e-02 -2.844900814478407e-02 2.694249956408959e-01 2.904671664954777e-01 1.465861294011130e-01 -6.056532017198438e-02
            1.466292510627750e-01 -6.053149319377297e-02 2.693997098102286e-01 2.905242899733929e-01 7.818092702545275e-02 9.484964862399352e-03 7.500804333796871e-02 -4.750568788517411e-02
            2.694033188514252e-01 2.904581758036494e-01 1.466070842123409e-01 -6.061107885932679e-02 7.505232977323878e-02 -4.749455195990119e-02 7.814730915037943e-02 9.578369394220382e-03
791875000.0000000000 4.113287427306041e-02 -1.104549575587369e-02 9.477051728836225e-02 4.052679904033758e-03 1.187781928476414e-01 -1.100829696169629e-01 3.529357657766880e-01 1.785257850210043e-01
            9.478481115955871e-02 4.176349986425297e-03 4.117313375021563e-02 -1.114027942113618e-02 3.529042693754781e-01 1.784694556625764e-01 1.187461268458070e-01 -1.100937199859786e-01
            1.188212032548419e-01 -1.101035648395897e-01 3.528353593932556e-01 1.785267430042936e-01 7.681831287974127e-02 2.221952250417532e-02 5.973809811287945e-02 -3.621220680641608e-02
            3.529268733558727e-01 1.784532141086810e-01 1.187728424757221e-01 -1.100457336913161e-01 5.974365380270440e-02 -3.619235066741485e-02 7.685774056693066e-02 2.225086042005611e-02
792707500.0000000000 4.064933474898352e-02 1.055934438440101e-02 9.688957980215937e-02 1.076860837644686e-02 7.363374990566594e-02 -1.475447940231914e-01 3.913239958527633e-01 4.475319915884620e-02
            9.696228774953249e-02 1.070670464856101e-02 4.068861338480498e-02 1.059231282561565e-02 3.912851353803690e-01 4.481696492702959e-02 7.358976157676340e-02 -1.474953875768588e-01
            7.360631902717217e-02 -1.475140997795741e-01 3.912912922086264e-01 4.477714480805262e-02 8.524549423037341e-02 3.486970378353323e-02 5.420767466426746e-02 -2.004473081270374e-02
            3.913624969340203e-01 4.465646642041483e-02 7.370633863719873e-02 -1.475999483631164e-01 5.420319195416853e-02 -2.000400402062846e-02 8.522903141578499e-02 3.492738837710267e-02
793540000.0000000000 5.234778915037300e-02 2.797050710882363e-02 1.053835367970577e-01 1.304316459980136e-02 1.678472987913581e-02 -1.662735603792254e-01 3.805472242673189e-01 -9.274994349116659e-02
            1.053506232931404e-01 1.301740050711862e-02 5.235608709388506e-02 2.798387595594620e-02 3.805613822326336e-01 -9.287116416437981e-02 1.671923598090398e-02 -1.663079589066767e-01
            1.669820372316438e-02 -1.662659803923250e-01 3.805041501842051e-01 -9.277434176819856e-02 1.016888417687731e-01 4.053291509970740e-02 5.883399980083820e-02 -6.042109499974125e-03
            3.806415954461588e-01 -9.280339439813295e-02 1.670396794348833e-02 -1.662943375248619e-01 5.882293941365916e-02 -6.057402982892738e-03 1.016626350533554e-01 4.051145315876427e-02
794372500.0000000000 7.058155817111847e-02 3.489462547109097e-02 1.152361638781485e-01 7.515707660727488e-03 -4.346924252528087e-02 -1.627958528978744e-01 3.237232122766089e-01 -2.165662785164062e-01
            1.151396669681627e-01 7.510451883615650e-03 7.065197973150346e-02 3.501533622703962e-02 3.237950762629468e-01 -2.166184671773204e-01 -4.343664147505446e-02 -1.627586067201596e-01
            -4.342241743606120e-02 -1.627814290567680e-01 3.236928981673336e-01 -2.166082471910304e-01 1.197061062407563e-01 3.522961125186873e-02 6.894431711813538e-02 2.359770582955378e-04
            3.236830521102152e-01 -2.166199259869669e-01 -4.349425680094466e-02 -1.628110572312147e-01 6.901075571972640e-02 2.624065998288211e-04 1.197546848828954e-01 3.521420289303568e-02
795205000.0000000000 8.748934224626266e-02 3.031003097016872e-02 1.203459840436355e-01 -4.946500600975312e-03 -9.810037543192930e-02 -1.380811142542440e-01 2.291677565303087e-01 -3.129322432394634e-01
            1.203947797597003e-01 -5.016290017574566e-03 8.739526522414777e-02 3.032630750739673e-02 2.291544241352461e-01 -3.129639031011365e-01 -9.812425989282432e-02 -1.380344232382358e-01
            -9.811630359452253e-02 -1.380724850990741e-01 2.292421551919200e-01 -3.129229699895879e-01 1.320531195452987e-01 2.012452074603172e-02 7.821516889522925e-02 -2.054453476585321e-03
            2.291850266280630e-01 -3.129298946915886e-01 -9.808837829637759e-02 -1.379905090823229e-01 7.822357104969078e-02 -1.993734541803961e-03 1.320452392054355e-01 2.008584993336710e-02
796037500.0000000000 9.665853702586248e-02 1.785321741666940e-02 1.170399254613211e-01 -2.000388898713024e-02 -1.405120196892629e-01 -9.617761194605505e-02 1.082756186716889e-01 -3.716107306956457e-01
            1.169197686357062e-01 -2.008591365416961e-02 9.667997779034976e-02 1.791836371583524e-02 1.082933285982287e-01 -3.716207330602379e-01 -1.404551861625460e-01 -9.629123754941803e-02
            -1.404956756322316e-01 -9.624668514842497e-02 1.082719150745117e-01 -3.716678072254282e-01 1.339326900894545e-01 4.705283736040191e-04 8.160014927529824e-02 -9.436216218132624e-03
            1.082323346285741e-01 -3.716675111592107e-01 -1.405258807953525e-01 -9.619866548225250e-02 8.165563640910826e-02 -9.453473090376635e-03 1.339580846120727e-01 4.733752984687530e-04
796870000.0000000000 9.559709123935442e-02 4.456822177965944e-03 1.047235149992790e-01 -3.127585769953023e-02 -1.663927359511313e-01 -4.276554412663401e-02 -2.560211305161061e-02 -3.862350950972693e-01
            1.047138355297634e-01 -3.136980801451200e-02 9.557019953878887e-02 4.426974438489687e-03 -2.559332922284569e-02 -3.861816576584244e-01 -1.664536445558669e-01 -4.277013361471168e-02
            -1.664996436935395e-01 -4.280653247789802e-02 -2.565090226834799e-02 -3.861783897915036e-01 1.245851687799196e-01 -1.628540416261196e-02 7.742315884927413e-02 -1.664273804502268e-02
            -2.558118119257301e-02 -3.862594966888835e-01 -1.664158383565099e-01 -4.272466847188029e-02 7.737688731556636e-02 -1.662932725638862e-02 1.245402201732616e-01 -1.627387860601648e-02
797702500.0000000000 8.634782389444515e-02 -3.347365769067657e-03 8.768575580483018e-02 -3.397378384324255e-02 -1.733383401370583e-01 1.693560540132169e-02 -1.572695241516172e-01 -3.538955856294112e-01
            8.762552292020745e-02 -3.392922382465356e-02 8.644628047987234e-02 -3.369795635885726e-03 -1.572427707327694e-01 -3.539354314883805e-01 -1.733470865145400e-01 1.693140763219840e-02
            -1.733438720221656e-01 1.697678665165019e-02 -1.572458274283630e-01 -3.539938045299969e-01 1.079752116954993e-01 -2.401654393046575e-02 6.792402866361089e-02 -1.824044300411350e-02
            -1.571807406093374e-01 -3.539541292251192e-01 -1.734066727806751e-01 1.690527174452739e-02 6.793636697687250e-02 -1.825578732923236e-02 1.079375607095396e-01 -2.404579882174389e-02
798535000.0000000000 7.498114781412739e-02 -1.815656877784920e-03 7.205301352268946e-02 -2.605679503745027e-02 -1.595489218077197e-01 7.693096979415784e-02 -2.700964646830410e-01 -2.774833089781423e-01
            7.211406147406309e-02 -2.603265889188473e-02 7.501433272732905e-02 -1.744573233962346e-03 -2.701670642916615e-01 -2.774864226050937e-01 -1.595304070158221e-01 7.688599399607500e-02
            -1.595335188398915e-01 7.699754035995121e-02 -2.701431136526766e-01 -2.774611819494304e-01 9.136862145134708e-02 -2.030290999784154e-02 5.845050930305337e-02 -1.201377058491174e-02
            -2.701680698529836e-01 -2.774761142868910e-01 -1.595794764529400e-01 7.694211708664615e-02 5.854542674648246e-02 -1.198732463022567e-02 9.136684249306426e-02 -2.034272859274893e-02
799367500.0000000000 6.838642933262092e-02 8.076110033766166e-03 6.464075941275951e-02 -1.087733139774996e-02 -1.246568706237191e-01 1.299967732870601e-01 -3.489255512417079e-01 -1.658376237966683e-01
            6.465852798066442e-02 -1.079617008107432e-02 6.835535689513532e-02 8.004506875297831e-03 -3.489488733467366e-01 -1.658156663782677e-01 -1.247925349359969e-01 1.300477778906331e-01
            -1.247099789990893e-01 1.300816546744091e-01 -3.490630465375912e-01 -1.658408987593585e-01 8.193551044040766e-02 -7.798362093935626e-03 5.490860079146510e-02 2.175375769097148e-04
            -3.489680602255607e-01 -1.658506010827146e-01 -1.247660652716124e-01 1.300347608628539e-01 5.502017483600225e-02 2.343798400168764e-04 8.193756657231399e-02 -7.780300505301346e-03
800200000.0000000000 7.084352277935259e-02 2.036564336651931e-02 6.806897055372861e-02 5.014458891473645e-03 -7.192583722310657e-02 1.680455532455562e-01 -3.831160821249396e-01 -3.421309784918509e-02
            6.810544410475866e-02 4.985354770892425e-03 7.089879740005886e-02 2.031101283082524e-02 -3.831818903225002e-01 -3.420145291774496e-02 -7.189931796533244e-02 1.680632307447866e-01
            -7.184514002260725e-02 1.680344227467929e-01 -3.831832715013205e-01 -3.418597151635295e-02 8.347128159302396e-02 6.668177502121836e-03 6.034613235002424e-02 1.287527408404499e-02
            -3.831641621237248e-01 -3.416794666841681e-02 -7.191222364308693e-02 1.680790068990240e-01 6.033042395856372e-02 1.299357837146455e-02 8.332105517049598e-02 6.631718489799117e-03
801032500.0000000000 8.166637600745517e-02 2.834476066619109e-02 8.033959926193818e-02 1.419467204701542e-02 -7.848851967769651e-03 1.844003536871421e-01 -3.692650459002695e-01 9.977342924881125e-02
            8.027316090148452e-02 1.425699711714194e-02 8.171990009048842e-02 2.829213093034533e-02 -3.692488019938111e-01 9.975743735154258e-02 -7.875147150692513e-03 1.843616687919738e-01
            -7.949787247394813e-03 1.842849271256382e-01 -3.692281984095985e-01 9.967618523926113e-02 9.402485944926188e-02 1.551643509275590e-02 7.267628196603650e-02 1.981330162621837e-02
            -3.691919338770872e-01 9.962566963529584e-02 -7.855095187390550e-03 1.843655903479904e-01 7.268383618816837e-02 1.980738739220019e-02 9.406858101132402e-02 1.563573943395095e-02
801865000.0000000000 9.570928580150456e-02 2.742842346499336e-02 9.478272324791520e-02 1.318688914666910e-02 5.769962432921540e-02 1.763055935257049e-01 -3.107271429601153e-01 2.192629724491316e-01
            9.481963595801678e-02 1.316260634190306e-02 9.565250166035187e-02 2.747716727408482e-02 -3.108319106355380e-01 2.192915151550774e-01 5.773293050282616e-02 1.762338424407679e-01
            5.769548730868134e-02 1.762600675421232e-01 -3.107461120029030e-01 2.192391995213394e-01 1.076976860325973e-01 1.446149819789644e-02 8.653043234505810e-02 1.763815600316040e-02
            -3.108295046037502e-01 2.192371139985908e-01 5.765597531753400e-02 1.763997281007179e-01 8.655735585221057e-02 1.755622378452725e-02 1.076449687180756e-01 1.444693757184848e-02
802697500.0000000000 1.061427833444891e-01 1.777236684097362e-02 1.046243198335175e-01 2.986584571358131e-03 1.157770488507514e-01 1.458306158071138e-01 -2.161531748895215e-01 3.111075791877782e-01
            1.045889231377494e-01 2.969424822475317e-03 1.060768845844944e-01 1.794270838923522e-02 -2.161859093615353e-01 3.110798405335093e-01 1.157477925630766e-01 1.457387982721096e-01
            1.157855315028996e-01 1.457824692955314e-01 -2.161983601937050e-01 3.110861908140004e-01 1.172041476796764e-01 4.165697832524544e-03 9.570477601900879e-02 7.387702156637112e-03
            -2.162074747377777e-01 3.110987086106543e-01 1.157710134903462e-01 1.457896301413688e-01 9.572585077237963e-02 7.395781912694655e-03 1.172982375313048e-01 4.110438602927675e-03
803530000.0000000000 1.084606988642927e-01 3.919384001179245e-03 1.051801878154768e-01 -1.106652862888513e-02 1.595606647313275e-01 9.759859856728247e-02 -9.660240301564864e-02 3.655952725560362e-01
            1.052570009486288e-01 -1.110005384786946e-02 1.084962078524237e-01 3.980746415789725e-03 -9.663156917488147e-02 3.655410036688899e-01 1.595677206299811e-01 9.761624568157357e-02
            1.594957542793239e-01 9.764940049362704e-02 -9.655856465010516e-02 3.655997795331124e-01 1.176559483141969e-01 -1.030479520193967e-02 9.629001783498051e-02 -5.886993852301684e-03
            -9.659857483746623e-02 3.655290511280179e-01 1.595203539488214e-01 9.767369812270134e-02 9.625784986211275e-02 -6.036341227922525e-03 1.177187085462936e-01 -1.020721609924398e-02
804362500.0000000000 1.016169921852866e-01 -8.032401083682581e-03 9.649138908832328e-02 -2.227755085906442e-02 1.847796911460378e-01 3.772494189456552e-02 3.472064860979666e-02 3.763834805196158e-01
            9.638655540613128e-02 -2.225854770003674e-02 1.015544103685915e-01 -8.222335153061713e-03 3.478568577030752e-02 3.764256020394595e-01 1.848164415328525e-01 3.765563673182678e-02
            1.847834973967634e-01 3.763137842972621e-02 3.473609812924067e-02 3.763761661579155e-01 1.087231134443713e-01 -2.216302857763849e-02 8.818100438976592e-02 -1.636279020466134e-02
            3.479938782585407e-02 3.763979611439939e-01 1.847527004642057e-01 3.765895505209350e-02 8.812991003080602e-02 -1.636439582546013e-02 1.086390827710668e-01 -2.205815742429085e-02
805195000.0000000000 8.892124900224872e-02 -1.276524179010016e-02 8.231073213207897e-02 -2.505575614130751e-02 1.889045678040117e-01 -2.810205840830247e-02 1.626100161345562e-01 3.413856206381755e-01
            8.226217590738184e-02 -2.507259228135605e-02 8.890390681135589e-02 -1.277811832254002e-02 1.625690380863310e-01 3.413621909413875e-01 1.889417351076452e-01 -2.811283706715917e-02
            1.888185156344097e-01 -2.800914923767158e-02 1.625963891737403e-01 3.413323299861420e-01 9.400093053884222e-02 -2.566432176800581e-02 7.514876776605101e-02 -1.877162584580434e-02
            1.625598068876151e-01 3.413592081064979e-01 1.888706725810881e-01 -2.816616158007422e-02 7.513169384512634e-02 -1.877531586620802e-02 9.402230035222889e-02 -2.570334637481001e-02
806027500.0000000000 7.648820082405620e-02 -7.976658828161298e-03 6.937629270806830e-02 -1.811365848377102e-02 1.702619066870774e-01 -9.278005054935039e-02 2.706757430262175e-01 2.634421522474751e-01
            6.941083688732766e-02 -1.810007178158937e-02 7.653404049736308e-02 -7.907132613486419e-03 2.706615226281371e-01 2.634023028438317e-01 1.702228743876489e-01 -9.284890112437977e-02
            1.702199762060922e-01 -9.277275917506637e-02 2.706843712386289e-01 2.634481071197411e-01 8.027356248668041e-02 -1.915696079759573e-02 6.360312120591251e-02 -1.198704757428319e-02
            2.706941174634277e-01 2.634860545272981e-01 1.702641946332906e-01 -9.287204896299248e-02 6.354725302567729e-02 -1.193506095334133e-02 8.029873543558344e-02 -1.914643577437649e-02
806860000.0000000000 7.078171003191952e-02 3.919619168327739e-03 6.420586938676234e-02 -4.368641457814257e-03 1.290726585518446e-01 -1.485793312711467e-01 3.443898817738968e-01 1.523494602470037e-01
            6.427444824884414e-02 -4.281866887648068e-03 7.067902655178690e-02 4.029806657875625e-03 3.443679968587258e-01 1.522622107013111e-01 1.292142534233160e-01 -1.486148240995782e-01
            1.291217984299804e-01 -1.486255172084446e-01 3.443841773965522e-01 1.523236303244181e-01 7.411295428647906e-02 -5.518445365392724e-03 5.943237665138630e-02 1.140086309839275e-03
            3.444087343876038e-01 1.523652429154644e-01 1.291333439348416e-01 -1.486229470050788e-01 5.943583253637911e-02 1.088324708203475e-03 7.408014716054213e-02 -5.623159865816132e-03
807692500.0000000000 7.464177739949859e-02 1.663035021908779e-02 6.930219075957178e-02 9.275727574542526e-03 6.953220275035669e-02 -1.867851463741997e-01 3.739473105185610e-01 2.327731390868609e-02
            6.925760854442907e-02 9.187703194617775e-03 7.465682779127444e-02 1.665062672562126e-02 3.738780640503361e-01 2.325051108237099e-02 6.947609733124305e-02 -1.867929770597219e-01
            6.948574468467426e-02 -1.867851921411355e-01 3.738432986851498e-01 2.325801633895411e-02 7.835758903905228e-02 8.415184973374984e-03 6.490352496512776e-02 1.372081769734616e-02
            3.738797654736916e-01 2.318772845676140e-02 6.954392555260333e-02 -1.868633814282190e-01 6.492843001930516e-02 1.371942257006721e-02 7.829316132889846e-02 8.354363133776214e-03
808525000.0000000000 8.599303413593067e-02 2.353286228212902e-02 8.169663713002200e-02 1.590627544291131e-02 -6.514894138505532e-04 -2.008518824893337e-01 3.566906969368542e-01 -1.065928513773456e-01
            8.176234230007889e-02 1.590264850092782e-02 8.596358554213582e-02 2.352867923057780e-02 3.567503159220337e-01 -1.065797521541220e-01 -6.242928465023270e-04 -2.009061503118365e-01
            -7.339526152707727e-04 -2.008690461248848e-01 3.567594056182377e-01 -1.065636258780128e-01 9.033302238851139e-02 1.577309878630880e-02 7.723816596023017e-02 1.975817803915301e-02
            3.567065333362524e-01 -1.066040392519637e-01 -6.983209722667094e-04 -2.008403466920286e-01 7.726398144940771e-02 1.980372495181685e-02 9.039871142265848e-02 1.571822862510818e-02
809357500.0000000000 9.914457919580998e-02 2.116496137770249e-02 9.526101457893241e-02 1.281620463450324e-02 -7.128963455650700e-02 -1.888308796197111e-01 2.968147218032002e-01 -2.212494559687825e-01
            9.530976752934216e-02 1.273571551773883e-02 9.915266036575139e-02 2.119300764117471e-02 2.968079847363895e-01 -2.212837108945041e-01 -7.123142698373701e-02 -1.887901788139162e-01
            -7.124356179092062e-02 -1.887907554156059e-01 2.967789115926007e-01 -2.212547536198253e-01 1.040308356201390e-01 1.316472648995667e-02 9.040507396828831e-02 1.636555445680932e-02
            2.968069592495056e-01 -2.213226152382146e-01 -7.126949336059410e-02 -1.888503927424474e-01 9.041874429109742e-02 1.635622634487460e-02 1.040073135142254e-01 1.320899014404366e-02
810190000.0000000000 1.078154054255106e-01 1.097645714835927e-02 1.032685221274028e-01 1.638930770528236e-03 -1.326807149138073e-01 -1.530197854057870e-01 2.024353287678134e-01 -3.082652387481056e-01
            1.032834486324892e-01 1.596194675576865e-03 1.078276221945350e-01 1.092706667651941e-02 2.024000406696974e-01 -3.081856350422448e-01 -1.326622565346637e-01 -1.529239060806426e-01
            -1.326260006026534e-01 -1.529948879752756e-01 2.024386393855891e-01 -3.082316620017777e-01 1.124817195216017e-01 2.336824237723131e-03 9.802768165747601e-02 5.463118095918963e-03
            2.024312397626731e-01 -3.081243975675379e-01 -1.326173214631609e-01 -1.529982139845203e-01 9.804814889089039e-02 5.381194027169819e-03 1.125444746521077e-01 2.301415463305893e-03
811022500.0000000000 1.078847715372287e-01 -2.292012608215687e-03 1.020561008535558e-01 -1.216760567755015e-02 -1.778722292740425e-01 -9.873698841534134e-02 8.456719265036847e-02 -3.582110025188138e-01
            1.021187110313108e-01 -1.218422644011294e-02 1.078294248942575e-01 -2.300347056939166e-03 8.449308865688568e-02 -3.582562456318270e-01 -1.779287434745306e-01 -9.866190682093730e-02
            -1.779067663038833e-01 -9.869062626623411e-02 8.457229271677554e-02 -3.582865062504378e-01 1.117714042638870e-01 -1.160723391860759e-02 9.675609249118912e-02 -7.687080072150882e-03
            8.460765655727355e-02 -3.582933116410643e-01 -1.779354497393962e-01 -9.874780548584249e-02 9.674722716311984e-02 -7.677418837052865e-03 1.118747382512021e-01 -1.161533575829822e-02
811855000.0000000000 9.938893264425883e-02 -1.250151597569556e-02 9.221365079441785e-02 -2.192285721623973e-02 -2.026382181687949e-01 -3.235243472261091e-02 -4.374217227331332e-02 -3.653108313120590e-01
            9.214534828667822e-02 -2.196208804746068e-02 9.945371481051976e-02 -1.247612009623449e-02 -4.377961105630998e-02 -3.652750260793896e-01 -2.025833760954753e-01 -3.241124151862205e-02
            -2.025552330282451e-01 -3.225648527869848e-02 -4.370185990659682e-02 -3.653516072080839e-01 1.021050039152656e-01 -2.197101118053698e-02 8.716239734174602e-02 -1.679248035281479e-02
            -4.381925973590554e-02 -3.653771137095826e-01 -2.025912256168550e-01 -3.232556962787374e-02 8.714219333324788e-02 -1.683494111413526e-02 1.021496484431607e-01 -2.200805297278878e-02
812687500.0000000000 8.658237591832771e-02 -1.473428778075650e-02 7.804060943464516e-02 -2.306605327312086e-02 -2.039160727439147e-01 3.934495992648205e-02 -1.673926847166871e-01 -3.275377479380759e-01
            7.812313384013195e-02 -2.307935061279756e-02 8.660452320864639e-02 -1.467809741458991e-02 -1.673398639753398e-01 -3.275317013839451e-01 -2.038956557099914e-01 3.937042895292250e-02
            -2.038524976978458e-01 3.937275860214823e-02 -1.673171289090987e-01 -3.274746415500954e-01 8.773982302686337e-02 -2.382119269022640e-02 7.381233237403220e-02 -1.749658272543270e-02
            -1.673410697123283e-01 -3.274903072619101e-01 -2.038927851669044e-01 3.930807005424242e-02 7.381364836017240e-02 -1.737260343871756e-02 8.779502682341209e-02 -2.380925219979440e-02
813520000.0000000000 7.554222039333484e-02 -7.811513671300120e-03 6.657751529517918e-02 -1.466020513194934e-02 -1.801870889032723e-01 1.087548625544179e-01 -2.703057970193040e-01 -2.485056062558515e-01
            6.658370002061925e-02 -1.466676013191306e-02 7.555342821547902e-02 -7.812860954713400e-03 -2.703009162712700e-01 -2.485590905256806e-01 -1.802771244425888e-01 1.088817156935737e-01
            -1.802273102921872e-01 1.087993656014174e-01 -2.702177919529919e-01 -2.485998449069939e-01 7.553889766764592e-02 -1.591806873921026e-02 6.317641609882214e-02 -8.878376480073225e-03
            -2.702123450229672e-01 -2.485890931520735e-01 -1.802484120033398e-01 1.088100450438853e-01 6.319941509645105e-02 -8.885850984789256e-03 7.547858683060951e-02 -1.582367377258232e-02
814352500.0000000000 7.215871609645902e-02 4.588795890637264e-03 6.332178047212260e-02 -7.159862356506999e-04 -1.327584349431888e-01 1.671227129898293e-01 -3.384688243198641e-01 -1.384505482943570e-01
            6.326938135632308e-02 -7.546220204800492e-04 7.214242175830304e-02 4.502630904285431e-03 -3.384483156101346e-01 -1.385485164551549e-01 -1.327078436954530e-01 1.670092106152080e-01
            -1.326392754544282e-01 1.670786898728583e-01 -3.384182519173284e-01 -1.384771423132277e-01 7.133299252202126e-02 -1.935492438445083e-03 6.076217031260629e-02 4.809263497818762e-03
            -3.384481534789500e-01 -1.384719391787820e-01 -1.327665958869742e-01 1.670004336114644e-01 6.081523022882603e-02 4.830634570708754e-03 7.140770516834873e-02 -1.987972576061631e-03
815185000.0000000000 7.785822075934565e-02 1.609575006739001e-02 6.988710939575196e-02 1.169548568911171e-02 -6.629157053231076e-02 2.051129384418551e-01 -3.632578226476369e-01 -1.246586955922573e-02
            6.982198039338558e-02 1.167844123654868e-02 7.790139676293346e-02 1.610235824670444e-02 -3.633492507939871e-01 -1.250688763422021e-02 -6.631372395926244e-02 2.051707294153456e-01
            -6.630656904802215e-02 2.050892058046700e-01 -3.632448947180519e-01 -1.243849227775325e-02 7.717473214570462e-02 1.102509698034323e-02 6.795228733166707e-02 1.678459257531620e-02
            -3.633180213552419e-01 -1.247903502240051e-02 -6.631091377017991e-02 2.050837185524930e-01 6.798384817431936e-02 1.679836252468503e-02 7.714906701186856e-02 1.108375816720083e-02
816017500.0000000000 9.000365475697022e-02 2.072823577894712e-02 8.279847865037256e-02 1.655046345430075e-02 9.929842457210144e-03 2.167678652909038e-01 -3.430297730551476e-01 1.127003955863959e-01
            8.281312497061898e-02 1.648584228892316e-02 9.002369675309450e-02 2.076322513362556e-02 -3.430824791475212e-01 1.127193960290206e-01 9.867295672937667e-03 2.166908983197357e-01
            9.968234420670664e-03 2.166320203650581e-01 -3.430153466820370e-01 1.127111489073219e-01 8.973553863396493e-02 1.697686379083206e-02 8.119450203898593e-02 2.122542585152786e-02
            -3.430513476769332e-01 1.127159243033524e-01 9.939100251187766e-03 2.167187886690810e-01 8.122299821774055e-02 2.124143097298199e-02 8.974176383830546e-02 1.696397309850045e-02
816850000.0000000000 1.023515769788291e-01 1.623205817465550e-02 9.546606723744945e-02 1.171900735428911e-02 8.524318477624840e-02 2.003754589183822e-01 -2.820360688449299e-01 2.222275405040951e-01
            9.543576210867051e-02 1.167787156538508e-02 1.022690739362333e-01 1.619033875801946e-02 -2.820231957067207e-01 2.221787573771715e-01 8.518555077239555e-02 2.003802485371212e-01
            8.510097749505220e-02 2.003981754234858e-01 -2.820345291673893e-01 2.222533720247905e-01 1.027498630195796e-01 1.315736616853859e-02 9.398713750061809e-02 1.616547550755950e-02
            -2.820302932848607e-01 2.222310565456100e-01 8.511283258394928e-02 2.003893156104464e-01 9.394682796175920e-02 1.614288022587966e-02 1.028352271022758e-01 1.312356476439760e-02
817682500.0000000000 1.087153839356603e-01 4.662847385198653e-03 1.017236132307823e-01 -1.829639884344572e-04 1.495778930650837e-01 1.592039932857906e-01 -1.882581340669310e-01 3.041532692472430e-01
            1.017139598421853e-01 -1.337555995972237e-04 1.087848711889803e-01 4.640916364129098e-03 -1.882963960581404e-01 3.041778983650844e-01 1.495403725377184e-01 1.592037010983219e-01
            1.495503128778761e-01 1.592163061797073e-01 -1.883530728105449e-01 3.041025748874243e-01 1.099878725024474e-01 1.948252428559695e-03 1.004257986950762e-01 4.159233598024143e-03
            -1.882844862365420e-01 3.040544654330798e-01 1.495032956414200e-01 1.592006603324951e-01 1.003952965228878e-01 4.186398193439755e-03 1.099493294050796e-01 2.006681521665276e-03
818515000.0000000000 1.062468952768075e-01 -8.369310347021118e-03 9.869928310951231e-02 -1.330102694519532e-02 1.958878361455913e-01 9.893073282744687e-02 -7.259105643946177e-02 3.496734835903049e-01
            9.869916675151701e-02 -1.334555995596479e-02 1.061745114111213e-01 -8.367794052052806e-03 -7.257675766729954e-02 3.496872877754495e-01 1.958936518106814e-01 9.890007047591844e-02
            1.959005223993547e-01 9.888709902250309e-02 -7.257589917811712e-02 3.496350752940466e-01 1.081325905647243e-01 -1.111491138096342e-02 9.769676214103937e-02 -8.980906348399641e-03
            -7.257116004497952e-02 3.496751220440606e-01 1.959636561322378e-01 9.895169184394903e-02 9.762746824938014e-02 -8.963317472169153e-03 1.081155741048315e-01 -1.108693149501663e-02
819347500.0000000000 9.585825104733635e-02 -1.692158877781784e-02 8.759370099678951e-02 -2.135085569445633e-02 2.197469318189490e-01 2.623673010732387e-02 5.228372085579867e-02 3.530919891365298e-01
            8.760182221264128e-02 -2.136881982600154e-02 9.576949368399505e-02 -1.687996322684589e-02 5.224240601346276e-02 3.530861248229273e-01 2.197393984872311e-01 2.628590951897267e-02
            2.197859463319351e-01 2.634768004315713e-02 5.218454675564078e-02 3.530650014953159e-01 9.803750925753855e-02 -1.974066426919634e-02 8.704844921169040e-02 -1.712719106898666e-02
            5.225079618925237e-02 3.531013214994378e-01 2.196736038179664e-01 2.639548621405371e-02 8.712985709862586e-02 -1.719514129274339e-02 9.810580914701331e-02 -1.981814246442730e-02
820180000.0000000000 8.222182075737793e-02 -1.668591422182384e-02 7.371163234672913e-02 -2.029330013399810e-02 2.179157494901794e-01 -5.120061742783758e-02 1.711301669252900e-01 3.127331182458542e-01
            7.366823673719057e-02 -2.029107787878957e-02 8.230368767481468e-02 -1.666052714446845e-02 1.711179807867747e-01 3.128379676700207e-01 2.179260022886565e-01 -5.120847612525320e-02
            2.179103613865679e-01 -5.120637201207674e-02 1.711214993669126e-01 3.128323418968137e-01 8.474302921833564e-02 -1.967627943551397e-02 7.363643218042050e-02 -1.629669315352008e-02
            1.710990637102320e-01 3.128026546194998e-01 2.179335609123453e-01 -5.127154845278682e-02 7.366979030384890e-02 -1.641727128931321e-02 8.476052697725021e-02 -1.975777032614575e-02
821012500.0000000000 7.201771296098076e-02 -7.653867865798901e-03 6.364644220112829e-02 -1.031819298004556e-02 1.891481723471189e-01 -1.249971333068657e-01 2.685013232620604e-01 2.332067516789072e-01
            6.369813234738382e-02 -1.024476641050039e-02 7.208945671782852e-02 -7.602731546724593e-03 2.685247750228772e-01 2.331003329678725e-01 1.892315343933421e-01 -1.249995825249576e-01
            1.891362416742630e-01 -1.249809233629007e-01 2.685210617588260e-01 2.331926918074132e-01 7.475423106511402e-02 -1.084744905904114e-02 6.414472090044950e-02 -6.834500085668702e-03
            2.685210798930183e-01 2.331409367087379e-01 1.891312131198737e-01 -1.250307899880123e-01 6.414565650551557e-02 -6.803572345026257e-03 7.470599552992645e-02 -1.083081416088566e-02
821845000.0000000000 7.031641987554171e-02 5.994068692942436e-03 6.271923984281735e-02 4.021796222239467e-03 1.353051254121007e-01 -1.853157251926925e-01 3.311907004584704e-01 1.246201882968370e-01
            6.275665918823861e-02 4.016968894818649e-03 7.032147075117504e-02 5.962044370256961e-03 3.312100390362070e-01 1.246026386621958e-01 1.352451415225599e-01 -1.852473375008275e-01
            1.352233538663741e-01 -1.851896646841510e-01 3.312111196807114e-01 1.246025448946061e-01 7.305359157795145e-02 2.652468065498940e-03 6.322326801135089e-02 6.708256821632235e-03
            3.311074979241478e-01 1.246081562992289e-01 1.351893183954600e-01 -1.852991975110683e-01 6.323162472162544e-02 6.726430307936048e-03 7.307847851959681e-02 2.639621319380119e-03
822677500.0000000000 7.791411545363534e-02 1.708624242869166e-02 7.132676686216724e-02 1.536457227869369e-02 6.218697232976382e-02 -2.227958344362360e-01 3.516073788015996e-01 2.206531455676714e-03
            7.135403532246692e-02 1.534190121214302e-02 7.801617987300453e-02 1.705825270836924e-02 3.515662892934271e-01 2.161878580080640e-03 6.220706866029839e-02 -2.227450949294464e-01
            6.211943352530874e-02 -2.228503464152455e-01 3.515617670786265e-01 2.232037202668480e-03 8.073093927295528e-02 1.365795940120521e-02 7.147573427855149e-02 1.736748523091149e-02
            3.514845250005022e-01 2.158529983421157e-03 6.216037444437114e-02 -2.226824494142980e-01 7.152464517340461e-02 1.737628990144679e-02 8.064768259356812e-02 1.368701158455074e-02
823510000.0000000000 9.087390275765406e-02 2.051845116616691e-02 8.500911376077658e-02 1.827088106409091e-02 -1.973639730561057e-02 -2.315628041981880e-01 3.284759243154233e-01 -1.180398285857199e-01
            8.500937167487312e-02 1.820620363784822e-02 9.082764402171117e-02 2.048491558067133e-02 3.285147646397265e-01 -1.181134299915990e-01 -1.980116600150215e-02 -2.315891881864954e-01
            -1.977456272663914e-02 -2.316419103298190e-01 3.284930189538016e-01 -1.181453169844105e-01 9.371332734848710e-02 1.695729146418298e-02 8.464334841563764e-02 1.998604317291760e-02
            3.284275837445060e-01 -1.180679451278775e-01 -1.978235862761610e-02 -2.316654495063889e-01 8.465311803443792e-02 1.997783201899689e-02 9.367054214623363e-02 1.690951744196279e-02
824342500.0000000000 1.027307225571976e-01 1.480326002060730e-02 9.707829151283563e-02 1.154810432424539e-02 -9.923258030741033e-02 -2.108996492572351e-01 2.666784894661436e-01 -2.221750865983310e-01
            9.709476436674917e-02 1.156589582101917e-02 1.027184662988554e-01 1.473249180136634e-02 2.666909316148761e-01 -2.221086034372043e-01 -9.919245759752472e-02 -2.108949406427631e-01
            -9.921014425964138e-02 -2.109812252262113e-01 2.667243189027849e-01 -2.222184223509061e-01 1.055271127735236e-01 1.097244394234340e-02 9.621467243988031e-02 1.339222933067992e-02
            2.667400661332682e-01 -2.221284984247923e-01 -9.916467371194476e-02 -2.109014410840729e-01 9.615441389729019e-02 1.344036626628526e-02 1.055742300599653e-01 1.089261938800670e-02
825175000.0000000000 1.079462544669534e-01 2.834564056048111e-03 1.018831473660441e-01 -1.193905131604194e-03 -1.661815627583607e-01 -1.643799583237856e-01 1.740398365914580e-01 -2.988410156513663e-01
            1.018437898223578e-01 -1.223996265415706e-03 1.079988806717329e-01 2.824508055376004e-03 1.740228923123507e-01 -2.989506529107059e-01 -1.662447759262023e-01 -1.643921461507977e-01
            -1.662309150486922e-01 -1.643166464671742e-01 1.740416691809689e-01 -2.989280026952287e-01 1.107399939685501e-01 -1.355748307678101e-03 1.006500597173220e-01 9.701259050819275e-04
            1.740457453134199e-01 -2.989381692762519e-01 -1.661964283617477e-01 -1.643372521445126e-01 1.006427352304796e-01 9.589497053609211e-04 1.107452573761143e-01 -1.254003827182143e-03
826007500.0000000000 1.042358927917809e-01 -9.591362654591722e-03 9.715649927888602e-02 -1.422787380481302e-02 -2.134996198623655e-01 -9.804091871692008e-02 6.092588383129194e-02 -3.399808148771615e-01
            9.714633198298860e-02 -1.414077762685463e-02 1.042676157207222e-01 -9.619960484766247e-03 6.090888386717253e-02 -3.398865649729052e-01 -2.134606344401325e-01 -9.807551992791853e-02
            -2.134510155172683e-01 -9.810655326840530e-02 6.093141685107381e-02 -3.399375789110764e-01 1.067894139509763e-01 -1.408466987031961e-02 9.591937449882494e-02 -1.135033526511636e-02
            6.090780875762284e-02 -3.400227211604809e-01 -2.134776946040917e-01 -9.818072737065209e-02 9.590556191551897e-02 -1.130223690052267e-02 1.068305085816456e-01 -1.403915472459398e-02
826840000.0000000000 9.338183578626913e-02 -1.661676220736668e-02 8.506750465323765e-02 -2.106555719216907e-02 -2.361053876048940e-01 -1.952944597385136e-02 -6.011481829488826e-02 -3.397898590485816e-01
            8.502609500214452e-02 -2.099178278919753e-02 9.330709857167481e-02 -1.662661571034925e-02 -6.009398792138901e-02 -3.398185535740907e-01 -2.360685185102495e-01 -1.948321454094605e-02
            -2.360926686325357e-01 -1.947217667596249e-02 -6.006001367910115e-02 -3.398249510557446e-01 9.547324844279409e-02 -2.124230385041712e-02 8.417994051098487e-02 -1.764589342867760e-02
            -6.010941503543421e-02 -3.397697491447785e-01 -2.361196624432821e-01 -1.942204785676826e-02 8.421745972770622e-02 -1.756202568643409e-02 9.550489489140337e-02 -2.118003487396663e-02
827672500.0000000000 8.047193529201264e-02 -1.479103708718845e-02 7.126003382079507e-02 -1.825060822896791e-02 -2.309705674019147e-01 6.349539669915574e-02 -1.739618079991759e-01 -2.974358000655822e-01
            7.127643947627937e-02 -1.835441812405571e-02 8.043710966694942e-02 -1.478855174645527e-02 -1.739923623581605e-01 -2.975035778570500e-01 -2.309247123488206e-01 6.346547180098880e-02
            -2.309958538874847e-01 6.349844272995674e-02 -1.740401041840153e-01 -2.973843864360596e-01 8.214788446278184e-02 -1.944429440362588e-02 7.113112601247230e-02 -1.450163542519787e-02
            -1.740241613740545e-01 -2.974228461272077e-01 -2.309799851374540e-01 6.351126982029043e-02 7.112615625856011e-02 -1.460062740552501e-02 8.224014253692845e-02 -1.939617161208264e-02
828505000.0000000000 7.202897400644136e-02 -4.686729876385957e-03 6.235835235727778e-02 -7.027129972457075e-03 -1.969332109965058e-01 1.412040309980519e-01 -2.656859160738793e-01 -2.175179258096452e-01
            6.236705874690866e-02 -7.055742063851518e-03 7.210208097743372e-02 -4.729418521627809e-03 -2.656344401770602e-01 -2.175125511659594e-01 -1.969756240374678e-01 1.411783499945496e-01
            -1.969795640945193e-01 1.411196536840471e-01 -2.656242083640381e-01 -2.174561865286909e-01 7.326386491788726e-02 -9.332966079467315e-03 6.316210749530747e-02 -3.484543766050676e-03
            -2.656406302252026e-01 -2.175386585459662e-01 -1.969324911329359e-01 1.411928250243883e-01 6.309468322570613e-02 -3.508707999170739e-03 7.339490710482895e-02 -9.380564614498533e-03
829337500.0000000000 7.241526284266717e-02 8.327171574165368e-03 6.306791389251813e-02 7.208208965991354e-03 -1.366269900052393e-01 2.030342403477231e-01 -3.227278575459599e-01 -1.109551113896838e-01
            6.299746600652789e-02 7.209701769487470e-03 7.245764979569677e-02 8.249077361351055e-03 -3.228127178585629e-01 -1.109717482892305e-01 -1.366543099127962e-01 2.030580723962373e-01
            -1.366298143014591e-01 2.029684176919572e-01 -3.227440247867688e-01 -1.109111952190014e-01 7.331404637912982e-02 3.969643334626166e-03 6.450885648249083e-02 1.026243803165989e-02
            -3.228448920351348e-01 -1.109756472524781e-01 -1.366686819616371e-01 2.030592502941232e-01 6.436512026577529e-02 1.026504110907667e-02 7.333675885420389e-02 4.027935414873966e-03
830170000.0000000000 8.146223022869631e-02 1.784231614624406e-02 7.278398548685747e-02 1.751306513784589e-02 -5.738678770427465e-02 2.396542913837235e-01 -3.387603613554621e-01 7.420752876659163e-03
            7.283650422996821e-02 1.751129407617130e-02 8.151812826923308e-02 1.790143930502117e-02 -3.387328687856692e-01 7.444713720676926e-03 -5.732654784296166e-02 2.396291357727490e-01
            -5.728224571564620e-02 2.395574781695540e-01 -3.387136695853445e-01 7.401737560843087e-03 8.202043167187453e-02 1.376263411701175e-02 7.442001131786891e-02 1.984720329323678e-02
            -3.386894539584148e-01 7.476130741281372e-03 -5.733552439652441e-02 2.395656367453506e-01 7.446508822635559e-02 1.987768461862804e-02 8.203600270098670e-02 1.376166273907235e-02
831002500.0000000000 9.457620737562887e-02 1.896121600568533e-02 8.658030956662065e-02 1.894217085446691e-02 3.000643215652038e-02 2.455238786638493e-01 -3.133049210589187e-01 1.225123132887066e-01
            8.666592068155107e-02 1.895420420496215e-02 9.451016732009744e-02 1.905271276248069e-02 -3.132707242999619e-01 1.226045535599863e-01 3.002006862563529e-02 2.454921917390732e-01
            2.998037417143017e-02 2.454038824780606e-01 -3.132391633185882e-01 1.225705711284583e-01 9.479195372430876e-02 1.533296099909385e-02 8.820014109208760e-02 2.052893462768111e-02
            -3.132539415908515e-01 1.225265088512700e-01 2.997488023351311e-02 2.454777490218246e-01 8.823979173842021e-02 2.056159944480778e-02 9.495044468933236e-02 1.526021512383599e-02
831835000.0000000000 1.050286126117942e-01 1.137940469544037e-02 9.781522018177001e-02 1.110710924271835e-02 1.133055148382738e-01 2.204014624355490e-01 -2.510248531080859e-01 2.211017147672532e-01
            9.778957823020676e-02 1.110634384996347e-02 1.051162655491930e-01 1.136762625896305e-02 -2.510054709567199e-01 2.211050791655891e-01 1.134195222945837e-01 2.203389861471786e-01
            1.133568633548801e-01 2.203832910099445e-01 -2.509513306737571e-01 2.210707885973948e-01 1.053872891230466e-01 8.019779276039979e-03 9.911152345713031e-02 1.228283858312966e-02
            -2.510641186277632e-01 2.211098615414466e-01 1.133800179420483e-01 2.204386873744674e-01 9.912719425392169e-02 1.227078674904600e-02 1.054385314404871e-01 7.975790242011503e-03
832667500.0000000000 1.082369139019399e-01 -1.235075766500600e-03 1.010928072196251e-01 -2.068323100817584e-03 1.827081065212346e-01 1.685133932542755e-01 -1.597436052700564e-01 2.927267638621671e-01
            1.011701247661541e-01 -2.020344882613545e-03 1.081895355699506e-01 -1.217809991083048e-03 -1.597198040533220e-01 2.926159041814704e-01 1.826635728358051e-01 1.685081296956847e-01
            1.827042963048272e-01 1.685469551849749e-01 -1.597511760927871e-01 2.926918116714907e-01 1.086720986708017e-01 -4.367475133529045e-03 1.021147846877699e-01 -7.784837643381956e-04
            -1.598007998941109e-01 2.927835798317799e-01 1.827509475119193e-01 1.685564146920499e-01 1.020803555124101e-01 -9.129524208543512e-04 1.086049489649127e-01 -4.324991008723722e-03
833500000.0000000000 1.024214227762922e-01 -1.297793890416853e-02 9.513268255568419e-02 -1.401549485095705e-02 2.304887565536702e-01 9.646957437865046e-02 -4.946208533540870e-02 3.291868875618273e-01
            9.512858940169880e-02 -1.403620055315808e-02 1.024673417770282e-01 -1.297210734002097e-02 -4.941071117036232e-02 3.292410846657221e-01 2.304425199365760e-01 9.643592731271579e-02
            2.304399639314820e-01 9.651867903842290e-02 -4.943790460652973e-02 3.292746120807831e-01 1.029518728594697e-01 -1.590676304898991e-02 9.585857052332696e-02 -1.286196776041653e-02
            -4.942481805805204e-02 3.292803380665445e-01 2.304402625455135e-01 9.648740113760333e-02 9.595725800877418e-02 -1.275900251407306e-02 1.029438140958968e-01 -1.583255799649139e-02
834332500.0000000000 9.036713778055709e-02 -1.814338220052623e-02 8.262469067280287e-02 -1.926671149805940e-02 2.516525663079245e-01 1.194299374012914e-02 6.724576947430022e-02 3.256526723609155e-01
            8.251134734525335e-02 -1.922309581164178e-02 9.036282485761341e-02 -1.814731688773532e-02 6.738767613582343e-02 3.255617076282690e-01 2.516451133986169e-01 1.201597385493109e-02
            2.516175525740630e-01 1.196607912286075e-02 6.728645988415585e-02 3.256882955591415e-01 9.098774705326723e-02 -2.110825361260100e-02 8.346540376087946e-02 -1.775365626952550e-02
            6.729881457892289e-02 3.256075501647784e-01 2.516381001813323e-01 1.191899175445008e-02 8.350335910329362e-02 -1.783021954805621e-02 9.097643446236538e-02 -2.102465892178699e-02
835165000.0000000000 7.777511999416636e-02 -1.422430010650711e-02 6.954891123053743e-02 -1.494846758056307e-02 2.429433267559935e-01 -7.610641043859664e-02 1.758337561581320e-01 2.812801788566667e-01
            6.952835558436388e-02 -1.489567651218966e-02 7.772790525208025e-02 -1.414861319147974e-02 1.758961506992640e-01 2.813626450624972e-01 2.429193335859958e-01 -7.609189259407415e-02
            2.429034771567845e-01 -7.603607106194936e-02 1.759547251757275e-01 2.813871589266553e-01 7.840658527198190e-02 -1.715191647454318e-02 7.085166555520166e-02 -1.328340052126758e-02
            1.759096193253118e-01 2.812628126253982e-01 2.429169878492669e-01 -7.606077479491155e-02 7.084432112430103e-02 -1.332495787338182e-02 7.839072907540182e-02 -1.711017362994239e-02
835997500.0000000000 7.075336274644285e-02 -2.828397230779952e-03 6.238440129621118e-02 -2.897944920053212e-03 2.035458262503109e-01 -1.572462542418498e-01 2.616292376058506e-01 2.015194190224214e-01
            6.239719529244419e-02 -2.828860507497163e-03 7.075829191983371e-02 -2.831771620792921e-03 2.615855988985979e-01 2.014951652866094e-01 2.035673961092246e-01 -1.572958847040439e-01
            2.035742064974477e-01 -1.572365261425157e-01 2.616189136570046e-01 2.014657132408669e-01 7.147812020298738e-02 -5.885977547965482e-03 6.423598342510772e-02 -1.512914700990903e-03
            2.616986970939033e-01 2.016002741523227e-01 2.035341087756344e-01 -1.572197561622125e-01 6.422680119362019e-02 -1.553057116017693e-03 7.136356819969308e-02 -5.883597267471886e-03
836830000.0000000000 7.307157377190469e-02 1.040575033340222e-02 6.492974051630658e-02 1.092852752945788e-02 1.369640871273735e-01 -2.201969676509038e-01 3.132801637576597e-01 9.743064479654831e-02
            6.495752703249308e-02 1.095796096524515e-02 7.310543751383332e-02 1.030466980894914e-02 3.132365091070720e-01 9.748258234919879e-02 1.370504714239683e-01 -2.202648343670432e-01
            1.370236373752411e-01 -2.201726382548593e-01 3.133349843061277e-01 9.743146954010135e-02 7.355933807728933e-02 7.093147297547567e-03 6.723175422677784e-02 1.180977165126342e-02
            3.132730796082464e-01 9.743954111650514e-02 1.370199451848601e-01 -2.202883368307201e-01 6.720448325105761e-02 1.171665687504256e-02 7.353923516714142e-02 7.144680877376983e-03
837662500.0000000000 8.343610691143206e-02 1.867899007878339e-02 7.576445423561116e-02 1.962876432342269e-02 5.171222423753142e-02 -2.556248399153627e-01 3.250414388365921e-01 -1.655463902484361e-02
            7.579389758000354e-02 1.962331201103325e-02 8.354798766058898e-02 1.871809815789969e-02 3.250373759882361e-01 -1.661082109325567e-02 5.168835690926724e-02 -2.555754365388168e-01
            5.164918486145355e-02 -2.555642881652966e-01 3.249894053399299e-01 -1.652703748653539e-02 8.359257718811575e-02 1.532272482726419e-02 7.823907798326718e-02 1.969080038174952e-02
            3.250385340334944e-01 -1.659439069565411e-02 5.169686796070124e-02 -2.556021077004303e-01 7.827391533360367e-02 1.970679822235117e-02 8.363185345783920e-02 1.538994659823325e-02
838495000.0000000000 9.666239795252050e-02 1.816067267644809e-02 8.951069093329243e-02 1.929698985113037e-02 -4.063682478744974e-02 -2.582673275266654e-01 2.974065774160047e-01 -1.261565555998792e-01
            8.946310146543320e-02 1.922961086713160e-02 9.666068702547161e-02 1.814586690859089e-02 2.974298385922218e-01 -1.261467743277223e-01 -4.062149596251587e-02 -2.583977641644049e-01
            -4.066969428086908e-02 -2.583710069367205e-01 2.973877949324071e-01 -1.261881234741951e-01 9.640244872900837e-02 1.490358495952518e-02 9.175147040405247e-02 1.850072588352098e-02
            2.974539578739545e-01 -1.261809332296494e-01 -4.065676486923338e-02 -2.583820730183126e-01 9.178743020410199e-02 1.846273776753411e-02 9.636786513743285e-02 1.495994593989637e-02
839327500.0000000000 1.062491172992519e-01 9.233506870879128e-03 9.951596804024497e-02 1.026842073037507e-02 -1.275381916459226e-01 -2.288263632760391e-01 2.350482253141342e-01 -2.191125691934728e-01
            9.945785074364960e-02 1.029209597068476e-02 1.062817784245093e-01 9.322860223188574e-03 2.350222507770525e-01 -2.190231405564192e-01 -1.274992203946283e-01 -2.288799964084485e-01
            -1.276389678552317e-01 -2.287979008410355e-01 2.350698912554580e-01 -2.191114561189039e-01 1.055388518903141e-01 6.247980384433809e-03 1.012189165022450e-01 8.776670600721626e-03
            2.350644273325804e-01 -2.191314840475805e-01 -1.275262283322977e-01 -2.288341164048936e-01 1.012198551918690e-01 8.707061501038947e-03 1.055281783845080e-01 6.265254122473897e-03
840160000.0000000000 1.079635496717218e-01 -3.656971215084887e-03 1.011192876377232e-01 -2.761564433135071e-03 -1.988239985294354e-01 -1.717467183151727e-01 1.453645211675792e-01 -2.854597777524558e-01
            1.011337473302116e-01 -2.810865531178490e-03 1.079750268265208e-01 -3.719023548338906e-03 1.454023463904746e-01 -2.855150595905834e-01 -1.989774409830760e-01 -1.717940247463722e-01
            -1.988250459081961e-01 -1.716780828679910e-01 1.454208233086572e-01 -2.854706604417321e-01 1.068149673319256e-01 -6.276660266860424e-03 1.021697111087936e-01 -4.759342681006297e-03
            1.453576368747400e-01 -2.853650379061007e-01 -1.988679924984537e-01 -1.717177956402259e-01 1.022180803215454e-01 -4.725803591577890e-03 1.067459972273568e-01 -6.212918402863231e-03
840992500.0000000000 1.007901485946453e-01 -1.467010727747482e-02 9.394272042090872e-02 -1.367649415639554e-02 -2.468577581849477e-01 -9.396891791919451e-02 3.828111078906216e-02 -3.174808750229818e-01
            9.387690009581048e-02 -1.370243255361888e-02 1.007856980508327e-01 -1.465658820509831e-02 3.822935174730024e-02 -3.174755647025859e-01 -2.468802443742134e-01 -9.404437454665178e-02
            -2.468442388168220e-01 -9.386412326622549e-02 3.826723014592751e-02 -3.175287284421778e-01 9.941450950581228e-02 -1.659356149696259e-02 9.428005336631611e-02 -1.572428387020224e-02
            3.827717147678895e-02 -3.174951826681826e-01 -2.468802200688898e-01 -9.390408380364973e-02 9.421956456845258e-02 -1.575032064509204e-02 9.947820700969966e-02 -1.659044202532400e-02
841825000.0000000000 8.821209174607680e-02 -1.834872361267849e-02 8.126287678981096e-02 -1.710492337229262e-02 -2.662662631850995e-01 -3.779110879681452e-03 -7.389316882593093e-02 -3.105908731521650e-01
            8.134932587455365e-02 -1.704414611657511e-02 8.822359477609887e-02 -1.831216898642410e-02 -7.389811624164962e-02 -3.107187047261563e-01 -2.662784301192037e-01 -3.829392260874495e-03
            -2.662700895363717e-01 -3.826999185246776e-03 -7.391319945078424e-02 -3.106365517922025e-01 8.699176602352818e-02 -1.969347558949143e-02 8.093319734637427e-02 -1.908574229556576e-02
            -7.382238799425866e-02 -3.106759146023171e-01 -2.662054648765674e-01 -3.781027165406596e-03 8.103619157285440e-02 -1.900650180374899e-02 8.692948619805244e-02 -1.964072758668046e-02
842657500.0000000000 7.625441108821636e-02 -1.289134144438980e-02 6.945251983952934e-02 -1.113652492554114e-02 -2.536955295384661e-01 8.906073057748450e-02 -1.767827990019845e-01 -2.647167893783628e-01
            6.953188924809899e-02 -1.110696377177306e-02 7.627027495843092e-02 -1.292340765900924e-02 -1.767695897267726e-01 -2.647110884860839e-01 -2.536470152852573e-01 8.905320466194973e-02
            -2.538351100132624e-01 8.900439992236756e-02 -1.768173235455270e-01 -2.647673473137756e-01 7.519760224356679e-02 -1.353398435569472e-02 6.864970780608114e-02 -1.285373145506675e-02
            -1.768064409022602e-01 -2.647418678373171e-01 -2.537208006613393e-01 8.907156555310408e-02 6.870961353157416e-02 -1.284965958492837e-02 7.520361577718944e-02 -1.357298851392651e-02
843490000.0000000000 7.100173503203600e-02 -8.870938815152822e-04 6.461660563163787e-02 1.205135032525909e-03 -2.089849675484481e-01 1.731391630452445e-01 -2.564519353618501e-01 -1.855146450839717e-01
            6.459988282191081e-02 1.270581430985101e-03 7.093777032487432e-02 -9.243421893291370e-04 -2.565470788715352e-01 -1.854258510376691e-01 -2.089878435403251e-01 1.732049805524370e-01
            -2.089019733554446e-01 1.731678935988287e-01 -2.564388729976044e-01 -1.854560615724571e-01 7.028862673565653e-02 -1.080442288234547e-03 6.344808523939155e-02 -7.971948492812485e-05
            -2.564889565448145e-01 -1.855333338289734e-01 -2.089464468268166e-01 1.731871391463755e-01 6.361325858525355e-02 -5.525612459722376e-05 7.024329996193419e-02 -1.088306317113062e-03
844322500.0000000000 7.489846560649464e-02 1.155945473117150e-02 6.935334509103035e-02 1.401674076155078e-02 -1.363993870934871e-01 2.369614172383261e-01 -3.025478836225415e-01 -8.428593939187845e-02
            6.934589263339588e-02 1.401190410424348e-02 7.490172508141836e-02 1.169683414963778e-02 -3.025556228913472e-01 -8.423953376585322e-02 -1.364006429846983e-01 2.369499885342599e-01
            -1.363462031953870e-01 2.368388093446102e-01 -3.025153178694892e-01 -8.427562433833694e-02 7.479303725328190e-02 1.159821618441609e-02 6.808850603879275e-02 1.304422161081501e-02
            -3.025915577417862e-01 -8.430637717369702e-02 -1.363144124151520e-01 2.369371375942923e-01 6.799301186753932e-02 1.307734386898115e-02 7.483027329909944e-02 1.167305163300502e-02
845155000.0000000000 8.605190042255186e-02 1.837744970474519e-02 8.141935012951809e-02 2.052170471419712e-02 -4.526662236730662e-02 2.706344049183242e-01 -3.103720145830376e-01 2.496125419139774e-02
            8.128923680511548e-02 2.058473420171127e-02 8.607626804536626e-02 1.833610113565582e-02 -3.103924001003532e-01 2.502982224084369e-02 -4.528068178262328e-02 2.707070159335067e-01
            -4.529137958303547e-02 2.707197336965977e-01 -3.103668930476510e-01 2.501995644189844e-02 8.642992960182842e-02 1.832113350490396e-02 7.989601182047011e-02 1.990253611958027e-02
            -3.103750981296086e-01 2.502177930529762e-02 -4.524878027806844e-02 2.706711676368956e-01 7.995913896004110e-02 1.986387678006622e-02 8.643757632968568e-02 1.826541108563520e-02
845987500.0000000000 9.876077696119727e-02 1.601696532088630e-02 9.475857152449120e-02 1.761942455595003e-02 5.158722242862723e-02 2.700416076962185e-01 -2.809872687929861e-01 1.288994075883920e-01
            9.475501472743034e-02 1.763836824690459e-02 9.877839847914179e-02 1.608968473877241e-02 -2.809292800819627e-01 1.289109424414874e-01 5.164986580969289e-02 2.700972790229263e-01
            5.157081613571109e-02 2.700838758145871e-01 -2.809591779969984e-01 1.288289994063340e-01 9.961563846143516e-02 1.596141951146025e-02 9.327076399917640e-02 1.719070248941352e-02
            -2.809339153867303e-01 1.289197374924754e-01 5.160388390155417e-02 2.700403283788715e-01 9.321193931382397e-02 1.722663299505403e-02 9.958980908831724e-02 1.591490807456320e-02
846820000.0000000000 1.069567869130347e-01 6.130120311120391e-03 1.031402873350053e-01 6.761678451212328e-03 1.417736113627609e-01 2.361021353479447e-01 -2.188501435096580e-01 2.160458259950007e-01
            1.030945696909751e-01 6.910836243929359e-03 1.069427758033505e-01 6.121617594964098e-03 -2.188445225937240e-01 2.159919452649944e-01 1.417191024532475e-01 2.361341814938766e-01
            1.416722002590451e-01 2.360525762767084e-01 -2.188557231805041e-01 2.160414889774269e-01 1.080460011833679e-01 5.574204476794224e-03 1.015729553824987e-01 6.731972056174288e-03
            -2.187925576719289e-01 2.160541784288236e-01 1.417547322213538e-01 2.361267419593328e-01 1.015898101092248e-01 6.713550895996461e-03 1.079251307733777e-01 5.708010802076812e-03
847652500.0000000000 1.065464639501922e-01 -6.807004749442647e-03 1.026562879488345e-01 -6.805873491556218e-03 2.145923328882345e-01 1.737864567388732e-01 -1.312210395720969e-01 2.770761067550762e-01
            1.026655295059737e-01 -6.783904642334625e-03 1.066207369157635e-01 -6.734876415248222e-03 -1.312319608042703e-01 2.770959587589301e-01 2.145063429543398e-01 1.738846201437404e-01
            2.146569531710986e-01 1.737806003338256e-01 -1.312042644965179e-01 2.771420285743937e-01 1.078982709164640e-01 -7.575444919451066e-03 1.011538190719678e-01 -6.603524374418071e-03
            -1.312428324018448e-01 2.771397960376212e-01 2.146538341565447e-01 1.738430726648733e-01 1.011020054041306e-01 -6.703500064884195e-03 1.078651065888444e-01 -7.547343240776900e-03
848485000.0000000000 9.808958147545312e-02 -1.642178250059290e-02 9.351744993681553e-02 -1.706668566294345e-02 2.624337256686752e-01 9.059265604617349e-02 -2.773375308425141e-02 3.047886968336630e-01
            9.353125826481153e-02 -1.694203256585890e-02 9.814493372045101e-02 -1.639503164031400e-02 -2.764941466820047e-02 3.048925418318770e-01 2.624549384978628e-01 9.061006336111248e-02
            2.624067197131665e-01 9.057249350908227e-02 -2.764838310160821e-02 3.048976667146843e-01 9.921547774022155e-02 -1.739860398322380e-02 9.213334231415116e-02 -1.652167049075865e-02
            -2.779023073806440e-02 3.048577678254876e-01 2.625184024104961e-01 9.052788637796179e-02 9.218987632261337e-02 -1.652434968501077e-02 9.928905905119738e-02 -1.743324089552029e-02
849317500.0000000000 8.515142819814339e-02 -1.823916957040806e-02 7.998061222422351e-02 -1.883546884997781e-02 2.798863226335190e-01 -4.805947487668434e-03 7.954493232948474e-02 2.949579915597286e-01
            7.998014841702840e-02 -1.882272055083176e-02 8.522348514359801e-02 -1.822925048791623e-02 7.962295565022516e-02 2.949744453917320e-01 2.797929807519787e-01 -4.794431528167605e-03
            2.798649031562553e-01 -4.873639836338342e-03 7.958572409938912e-02 2.949720569368599e-01 8.620965188400118e-02 -1.942028650316511e-02 7.873311286178732e-02 -1.817664488059938e-02
            7.954871105766492e-02 2.949166092632090e-01 2.798736874823908e-01 -4.834818395353982e-03 7.873430476911721e-02 -1.820435054295175e-02 8.618660286270770e-02 -1.936215696880839e-02
850150000.0000000000 7.418112900443047e-02 -1.120482857573448e-02 6.853731240222738e-02 -1.127452699369868e-02 2.633315868926200e-01 -1.019789372471586e-01 1.766093613815043e-01 2.477673876578585e-01
            6.857358864746470e-02 -1.125223908050723e-02 7.420860031433223e-02 -1.112432766266225e-02 1.767400144377601e-01 2.477369757128338e-01 2.633385453526147e-01 -1.020660228859473e-01
            2.633908173323077e-01 -1.020518532166055e-01 1.766754640268675e-01 2.477232624265863e-01 7.508643904679903e-02 -1.232006241235441e-02 6.751447450344503e-02 -1.061725380793454e-02
            1.766780439392514e-01 2.477335267150948e-01 2.633392904068825e-01 -1.019937977059560e-01 6.753727425484098e-02 -1.065583813835674e-02 7.507538462707256e-02 -1.230497248815407e-02
850982500.0000000000 7.051814378940517e-02 1.549777105959112e-03 6.482515311785723e-02 1.897387250981982e-03 2.132137628000773e-01 -1.887699896844116e-01 2.503058769414597e-01 1.695154967078245e-01
            6.492778074323102e-02 1.800387816100943e-03 7.052576631151383e-02 1.593871735136653e-03 2.502644591625848e-01 1.695120764929011e-01 2.131593871239889e-01 -1.886971718048272e-01
            2.132861175976374e-01 -1.887168233243942e-01 2.503038183328536e-01 1.695303431992572e-01 7.139877344977939e-02 4.311398530023492e-04 6.408188466480637e-02 2.525734226288635e-03
            2.502590540589669e-01 1.695450529719306e-01 2.133420346504280e-01 -1.886855044120871e-01 6.408498546832478e-02 2.494660477257635e-03 7.130710233381177e-02 4.157407895328506e-04
851815000.0000000000 7.613934840647663e-02 1.338046988613187e-02 7.084066286650643e-02 1.407266573590761e-02 1.348979967093955e-01 -2.527876419540321e-01 2.910202889383949e-01 7.161370024519159e-02
            7.088811054415152e-02 1.415707075781401e-02 7.613868090601648e-02 1.341557236254691e-02 2.909360118226464e-01 7.157971712128243e-02 1.347912717333494e-01 -2.527282080948334e-01
            1.348844556264180e-01 -2.527526578068597e-01 2.910553767359009e-01 7.157122944494419e-02 7.694803318276999e-02 1.244652477523646e-02 7.015695803206982e-02 1.467758418304541e-02
            2.910014675263946e-01 7.163021761089897e-02 1.347883292588705e-01 -2.527672305961092e-01 7.016658230310036e-02 1.466942064274445e-02 7.687809384406417e-02 1.239341501552348e-02
852647500.0000000000 8.807476324692767e-02 1.852311228793859e-02 8.344161329896574e-02 1.934107418562957e-02 3.839820152869840e-02 -2.847844191636331e-01 2.951946768841647e-01 -3.271894622552186e-02
            8.337079184631213e-02 1.938022612558077e-02 8.811729128134091e-02 1.851560394930432e-02 2.951746645997326e-01 -3.268152520716369e-02 3.845963839171085e-02 -2.847659859150534e-01
            3.851731326580733e-02 -2.847888275834057e-01 2.952043976758993e-01 -3.275799470301941e-02 8.902886041163682e-02 1.765270579470379e-02 8.261879220712924e-02 1.981156467023991e-02
            2.951694690407938e-01 -3.272640466715970e-02 3.849584608236044e-02 -2.847910181027709e-01 8.264265641335115e-02 1.983635344250761e-02 8.906190484472255e-02 1.765285518767444e-02
853480000.0000000000 1.003829937972870e-01 1.466034131346538e-02 9.614203889814545e-02 1.506903372192568e-02 -6.272587100421953e-02 -2.808056269374857e-01 2.641914203454334e-01 -1.307784384852340e-01
            9.613684709370132e-02 1.503251899749341e-02 1.004027808186841e-01 1.462942789887074e-02 2.642077029678198e-01 -1.309006205097401e-01 -6.264102887761258e-02 -2.809621278804885e-01
            -6.266013475273446e-02 -2.809057685138883e-01 2.641718527466764e-01 -1.308685588805332e-01 1.013104926654752e-01 1.377559084671815e-02 9.532903754484261e-02 1.541409939135070e-02
            2.641087085614781e-01 -1.308352288134597e-01 -6.274870838703159e-02 -2.808351137454028e-01 9.531614065973507e-02 1.546280597443067e-02 1.012905549201851e-01 1.379069330183166e-02
854312500.0000000000 1.070480977496753e-01 3.832551609845559e-03 1.029585704116883e-01 3.625699811552104e-03 -1.556763279929007e-01 -2.425669639491696e-01 2.024765407749549e-01 -2.122352013980041e-01
            1.030468675650791e-01 3.684976992643784e-03 1.070028422352767e-01 3.817165590204989e-03 2.024173992829323e-01 -2.122727821311661e-01 -1.556116453070545e-01 -2.425755808687009e-01
            -1.556418308103634e-01 -2.425199765724460e-01 2.024117606602460e-01 -2.121884028960935e-01 1.080809039051286e-01 2.839734705041781e-03 1.021584033802987e-01 4.070710487695636e-03
            2.024355376442698e-01 -2.122181739083586e-01 -1.556360155696451e-01 -2.425562606386781e-01 1.021587997770769e-01 4.093480567331663e-03 1.081988858943476e-01 2.827698493636193e-03
855145000.0000000000 1.051090235865798e-01 -8.756381819229298e-03 1.008495108039931e-01 -9.470408017247972e-03 -2.299597531880588e-01 -1.751201638473969e-01 1.171261054105606e-01 -2.680249034195948e-01
            1.008345500565573e-01 -9.478099707424732e-03 1.051007102086483e-01 -8.727535367376010e-03 1.171076173715747e-01 -2.679726012424388e-01 -2.299609595540225e-01 -1.751464771493341e-01
            -2.299589161995522e-01 -1.751948009452862e-01 1.170963250610056e-01 -2.679687555119545e-01 1.062636930805467e-01 -9.798594848108879e-03 9.994773169674120e-02 -8.957305298423996e-03
            1.171641893091114e-01 -2.679631362283852e-01 -2.300008637683464e-01 -1.751147858074611e-01 9.999266186595909e-02 -8.912881542677983e-03 1.062459153701544e-01 -9.802268695353195e-03
855977500.0000000000 9.542490936368306e-02 -1.713426090461357e-02 9.067034286433261e-02 -1.812272308642535e-02 -2.774480477965600e-01 -8.648535365360979e-02 1.729127050920864e-02 -2.914300829019946e-01
            9.067342663052126e-02 -1.820860776758296e-02 9.538221374853723e-02 -1.708062641026319e-02 1.735946643374130e-02 -2.913228368592363e-01 -2.775526576165751e-01 -8.643742271714490e-02
            -2.774646054068367e-01 -8.650945271664996e-02 1.739159214741938e-02 -2.913187702087718e-01 9.658240131635158e-02 -1.817808131737111e-02 8.983291427443187e-02 -1.747343265944450e-02
            1.732446047186045e-02 -2.913573604140783e-01 -2.774676662861223e-01 -8.649109991711550e-02 8.975825424352035e-02 -1.745403986385537e-02 9.658575852359635e-02 -1.817124972342200e-02
856810000.0000000000 8.249826959049918e-02 -1.702687433188397e-02 7.716653225868783e-02 -1.807265693738754e-02 -2.926879829681718e-01 1.404014090779587e-02 -8.477999539283361e-02 -2.785132814772337e-01
            7.716064128508578e-02 -1.811782372354430e-02 8.249011539818014e-02 -1.700763563558461e-02 -8.469898532248986e-02 -2.784800464206158e-01 -2.926253530705767e-01 1.395218398919320e-02
            -2.926541379455040e-01 1.404418156539977e-02 -8.480076076601256e-02 -2.785581819060260e-01 8.361842456624807e-02 -1.821489126123906e-02 7.648751221233299e-02 -1.730731241385972e-02
            -8.475905356185615e-02 -2.784933408994509e-01 -2.925805826619440e-01 1.407068540297501e-02 7.646775686412020e-02 -1.732439793868830e-02 8.361725006664268e-02 -1.817544980998960e-02
857642500.0000000000 7.275445919132106e-02 -8.447150500629845e-03 6.701082529445057e-02 -9.094914418423552e-03 -2.719258869489718e-01 1.152428060256772e-01 -1.757080548834744e-01 -2.302545289096361e-01
            6.705700209862007e-02 -9.157734693712716e-03 7.270670080515443e-02 -8.376024987060846e-03 -1.756493900380766e-01 -2.302684809129556e-01 -2.718814309024966e-01 1.152606351131497e-01
            -2.719090364596361e-01 1.152199666888342e-01 -1.756947624541341e-01 -2.302825760064246e-01 7.380425423260950e-02 -9.685085195583436e-03 6.645942415355374e-02 -8.352586155957397e-03
            -1.756521821143246e-01 -2.302486122386939e-01 -2.719841799587775e-01 1.152710488386547e-01 6.642319661431401e-02 -8.246974027302780e-03 7.376814402279913e-02 -9.599561559971605e-03
858475000.0000000000 7.101122285105593e-02 4.602448017063879e-03 6.541246887346799e-02 4.381997263255839e-03 -2.164986080500006e-01 2.040708525519270e-01 -2.430092268687763e-01 -1.534773221864800e-01
            6.532465754035337e-02 4.366328249360800e-03 7.100461318406544e-02 4.479904691344704e-03 -2.430447767357897e-01 -1.533508219790753e-01 -2.165402898210783e-01 2.040809200165448e-01
            -2.164456540555679e-01 2.041094412712085e-01 -2.429879203095109e-01 -1.533700627085172e-01 7.201046153305971e-02 3.308617299063036e-03 6.482467696920377e-02 5.120649273898693e-03
            -2.429620289082305e-01 -1.534259746966651e-01 -2.164859820867760e-01 2.040302104576694e-01 6.493166596325828e-02 5.047402979090631e-03 7.202287439413123e-02 3.315914680539907e-03
859307500.0000000000 7.823929702538474e-02 1.546550144445539e-02 7.302453319781013e-02 1.559093762906929e-02 -1.323965413475001e-01 2.680076477762957e-01 -2.784184012167086e-01 -5.915836948082609e-02
            7.303316199747957e-02 1.573632526069847e-02 7.839316336603691e-02 1.542775707855256e-02 -2.783717860826057e-01 -5.916551414012139e-02 -1.323800889754070e-01 2.679774100377514e-01
            -1.323770562597184e-01 2.680066054388865e-01 -2.785383201934950e-01 -5.915597272445782e-02 7.936111264190224e-02 1.421664557162379e-02 7.261828780485151e-02 1.618142039502958e-02
            -2.784879784150363e-01 -5.919119731194166e-02 -1.324032761104681e-01 2.680226138593793e-01 7.257206772824525e-02 1.627877962179375e-02 7.930647550176405e-02 1.422503744570566e-02
860140000.0000000000 9.091607932544281e-02 1.896595580980080e-02 8.616805395622898e-02 1.910607224659270e-02 -3.099283594256489e-02 2.978980014664974e-01 -2.791669660043747e-01 3.981352079639480e-02
            8.615884856625586e-02 1.910204915538883e-02 9.081753132539885e-02 1.889915885344243e-02 -2.791780357733465e-01 3.987969041647451e-02 -3.095214210660431e-02 2.980521258750024e-01
            -3.089178022090769e-02 2.979210180588330e-01 -2.791900320436801e-01 3.985484122676344e-02 9.194883470220024e-02 1.756363506958374e-02 8.561744548872927e-02 1.943169141468154e-02
            -2.792108917651109e-01 3.983806789113133e-02 -3.089748876580301e-02 2.979884243770985e-01 8.560154093519330e-02 1.941350622643763e-02 9.187008006856165e-02 1.753466885429915e-02
860972500.0000000000 1.024670628746194e-01 1.341460714202478e-02 9.830879998785563e-02 1.316386650890201e-02 7.404817432971743e-02 2.905985933440831e-01 -2.468089898919485e-01 1.319022262077977e-01
            9.836762982795350e-02 1.311725564584865e-02 1.024183291087990e-01 1.347648042127580e-02 -2.468958208167276e-01 1.318568298009537e-01 7.400004518821576e-02 2.905628172879557e-01
            7.399695951531306e-02 2.905457757157768e-01 -2.468915248427706e-01 1.318996706467830e-01 1.036038029971454e-01 1.192330741398887e-02 9.747001476656675e-02 1.352991495969316e-02
            -2.468580663182003e-01 1.318486072554409e-01 7.403552360458203e-02 2.905022732737190e-01 9.749836933526838e-02 1.349019902665822e-02 1.035428190424105e-01 1.205066405788635e-02
861805000.0000000000 1.077244423832962e-01 1.736490783995113e-03 1.036867299822144e-01 8.768854008209153e-04 1.694954985248756e-01 2.477873114085031e-01 -1.859757354731320e-01 2.073781938854791e-01
            1.035595796022404e-01 8.219588110305728e-04 1.076999277479583e-01 1.776623746381312e-03 -1.859760268748861e-01 2.073418754886319e-01 1.695566169107912e-01 2.477730654266699e-01
            1.695271699308778e-01 2.477249226624655e-01 -1.859554336322444e-01 2.072703559040732e-01 1.088384929939984e-01 2.595174994773050e-04 1.026708750198884e-01 1.283938694871244e-03
            -1.859879285185876e-01 2.073069129296377e-01 1.695260972052827e-01 2.477417527432999e-01 1.026860823711074e-01 1.247677813261837e-03 1.088404376649065e-01 3.254489429492448e-04
862637500.0000000000 1.041574515158427e-01 -1.041629552969593e-02 9.993173942175036e-02 -1.205650067917783e-02 2.447865542348414e-01 1.753913052955997e-01 -1.031765010503419e-01 2.577760079739381e-01
            9.994146280329384e-02 -1.198461693412573e-02 1.042408382973580e-01 -1.026662395808133e-02 -1.031947733692768e-01 2.578843684078439e-01 2.448123618589235e-01 1.754236493038998e-01
            2.447966552936225e-01 1.754491935057629e-01 -1.031818180939517e-01 2.578107467050735e-01 1.052535313214847e-01 -1.217085167934486e-02 9.871312038296125e-02 -1.137820337641299e-02
            -1.032132022083289e-01 2.578419470228502e-01 2.447372447262432e-01 1.755183983774399e-01 9.873936879834139e-02 -1.135603715638961e-02 1.052627303450648e-01 -1.204746676085301e-02
863470000.0000000000 9.344420942688306e-02 -1.734905495620035e-02 8.867764740813709e-02 -1.955762766516977e-02 2.916941257907815e-01 8.158835059933417e-02 -7.626889706506271e-03 2.769767937651038e-01
            8.869657006613788e-02 -1.949392668008783e-02 9.358068462325048e-02 -1.729633084742233e-02 -7.613377533008757e-03 2.770069970291035e-01 2.916573765238533e-01 8.162598881041722e-02
            2.916444889483124e-01 8.163015498784064e-02 -7.668217353812917e-03 2.769567956094294e-01 9.449865012842598e-02 -1.930573884549079e-02 8.753701205956742e-02 -1.843306410362319e-02
            -7.633899214329741e-03 2.770233985543395e-01 2.916536142189262e-01 8.158655099092946e-02 8.747685390110110e-02 -1.846786505822484e-02 9.442068804611629e-02 -1.930316603623755e-02
864302500.0000000000 8.094219017553082e-02 -1.556497877779390e-02 7.536193633791047e-02 -1.787717443044925e-02 3.041546735077815e-01 -2.372989556551613e-02 8.902625450951705e-02 2.613848708951164e-01
            7.526381419970403e-02 -1.787627529171952e-02 8.085772989529190e-02 -1.555028782702862e-02 8.897263783749378e-02 2.613181712981132e-01 3.042177520341265e-01 -2.369329325814334e-02
            3.042357072941736e-01 -2.371287826764729e-02 8.902884381578022e-02 2.614272154602909e-01 8.150007896075608e-02 -1.763052663898373e-02 7.427657608538775e-02 -1.648689851382371e-02
            8.902711582686712e-02 2.613940328930077e-01 3.042190035558184e-01 -2.373619809701449e-02 7.422396617065810e-02 -1.649619769797718e-02 8.156857402079495e-02 -1.763501636393086e-02
865135000.0000000000 7.252948376828335e-02 -5.815660071575184e-03 6.628934665184176e-02 -7.840169654523110e-03 2.793683384257911e-01 -1.285219428918654e-01 1.736255197836677e-01 2.125521506928638e-01
            6.631233154064957e-02 -7.873490578727799e-03 7.239630411771231e-02 -5.768474183045525e-03 1.736003272267773e-01 2.126097105741596e-01 2.793353363806546e-01 -1.284802663610643e-01
            2.793784220352618e-01 -1.284843103906338e-01 1.735525243171284e-01 2.125841905163914e-01 7.275833336297825e-02 -7.951849685234070e-03 6.556507643244448e-02 -6.193630327509614e-03
            1.736561840538916e-01 2.125274766699061e-01 2.792931421469396e-01 -1.284730470155135e-01 6.556241102074316e-02 -6.154561714266650e-03 7.271376598018277e-02 -7.940708842993744e-03
865967500.0000000000 7.253723857661047e-02 7.185502521549331e-03 6.610652568566250e-02 5.510957583043878e-03 2.185487587573361e-01 -2.189349216520284e-01 2.346704356418162e-01 1.375641517413761e-01
            6.608449989925085e-02 5.543714020309658e-03 7.260750154528868e-02 7.273460915588220e-03 2.347003454229869e-01 1.375644469919053e-01 2.185875002556264e-01 -2.189723457522267e-01
            2.186362974022948e-01 -2.189982636428791e-01 2.346985461426306e-01 1.375143923878772e-01 7.263558064389225e-02 5.132189937811308e-03 6.579034980701523e-02 7.376890116003054e-03
            2.346995843527711e-01 1.375555140747937e-01 2.185901481362656e-01 -2.189809327840978e-01 6.579318710419316e-02 7.364268814558486e-03 7.252010021091050e-02 5.163543169256208e-03
866800000.0000000000 8.140437543738357e-02 1.688482089669176e-02 7.485828642278487e-02 1.569682523057447e-02 1.290516611336977e-01 -2.823328095730267e-01 2.650219231716407e-01 4.731660020309538e-02
            7.486193643011850e-02 1.561306846217273e-02 8.132554953224724e-02 1.690018540928871e-02 2.649546958714795e-01 4.734028136442944e-02 1.290405877834731e-01 -2.823696133889458e-01
            1.291178742433202e-01 -2.825118314900065e-01 2.650834770844669e-01 4.735850256018561e-02 8.104048127154267e-02 1.496677628321260e-02 7.493216022649341e-02 1.736994912664792e-02
            2.650062817582056e-01 4.736333960121272e-02 1.291232768675117e-01 -2.824454454745668e-01 7.494053514621359e-02 1.735985759352790e-02 8.107184929711371e-02 1.496507961861837e-02
867632500.0000000000 9.426162347755757e-02 1.849388026310523e-02 8.796382962348241e-02 1.739984097088041e-02 2.305172109554507e-02 -3.101281823417275e-01 2.626120060436483e-01 -4.606075658000949e-02
            8.795352059006507e-02 1.737829929587832e-02 9.424437025555492e-02 1.855138960253449e-02 2.626802585166184e-01 -4.607156308926427e-02 2.300337205585922e-02 -3.101712444872506e-01
            2.305929055010962e-02 -3.101210877565637e-01 2.626337657183342e-01 -4.613279780929992e-02 9.364486733340954e-02 1.688771434444391e-02 8.834610662747784e-02 1.889224276518493e-02
            2.626016607147499e-01 -4.609785109738243e-02 2.302059360063053e-02 -3.101432201257587e-01 8.840394052920673e-02 1.890540051911008e-02 9.360753113168910e-02 1.686415784619346e-02
868465000.0000000000 1.050649436161395e-01 1.140816369737683e-02 9.891495563146069e-02 1.018371517272596e-02 -8.543599400938842e-02 -2.991699814580063e-01 2.293257413337225e-01 -1.321607740909784e-01
            9.891990112587758e-02 1.018764418212021e-02 1.050074535187464e-01 1.146979168777351e-02 2.293006267765406e-01 -1.321136873048152e-01 -8.547316388751793e-02 -2.992229765517502e-01
            -8.549625217441528e-02 -2.991958292829558e-01 2.292879597430059e-01 -1.320635602551820e-01 1.043936164685155e-01 1.017916043735191e-02 9.950309567905238e-02 1.131744353823633e-02
            2.293300994081374e-01 -1.321730920260810e-01 -8.551608472188772e-02 -2.991035077378491e-01 9.947653168142256e-02 1.133726385227614e-02 1.043157675833244e-01 1.011544179626792e-02
869297500.0000000000 1.087616550087675e-01 -8.537802961116741e-04 1.024172456518204e-01 -2.518852981608944e-03 -1.832112818145695e-01 -2.520567010938499e-01 1.693945768073953e-01 -2.016168843654997e-01
            1.024226982330165e-01 -2.501870744965515e-03 1.087186028773826e-01 -7.990773126743226e-04 1.693730790694176e-01 -2.016533967798702e-01 -1.831343173116367e-01 -2.520505091646956e-01
            -1.831506201386751e-01 -2.521571519822151e-01 1.694147136870908e-01 -2.015716065501967e-01 1.080058354626206e-01 -1.808083788244317e-03 1.031207099947082e-01 -1.543700829642362e-03
            1.694190311963193e-01 -2.016613798615537e-01 -1.831436544803288e-01 -2.520253711384806e-01 1.031694267748674e-01 -1.508684240140035e-03 1.081007707730935e-01 -1.839152472068170e-03
870130000.0000000000 1.035860662136749e-01 -1.255594849735265e-02 9.698257240020401e-02 -1.441375867565044e-02 -2.591607677548955e-01 -1.748910051785661e-01 8.940026192810521e-02 -2.468853228191422e-01
            9.699553845208474e-02 -1.438856698536191e-02 1.037306004185917e-01 -1.246827066056453e-02 8.946662400872285e-02 -2.469104027228902e-01 -2.591083201893959e-01 -1.748680464251429e-01
            -2.591753232246086e-01 -1.749054102616953e-01 8.948576044241223e-02 -2.468388670410929e-01 1.030935601148567e-01 -1.326219816178186e-02 9.763162438463152e-02 -1.371649921425830e-02
            8.947737696678110e-02 -2.468433877073008e-01 -2.591529639346103e-01 -1.749071886892174e-01 9.765556228414568e-02 -1.370673688384245e-02 1.031127450266608e-01 -1.316781051628891e-02
870962500.0000000000 9.227373023098941e-02 -1.806073054511861e-02 8.494017251050212e-02 -1.998297202342755e-02 -3.051191699464179e-01 -7.599995471243473e-02 -1.670034801691327e-03 -2.619286230291868e-01
            8.487739374704598e-02 -2.002384521278523e-02 9.230471202745594e-02 -1.816562136601121e-02 -1.784838193064371e-03 -2.618768371599093e-01 -3.050273946363152e-01 -7.608392850627392e-02
            -3.049854139402561e-01 -7.600611307838320e-02 -1.636555054891660e-03 -2.619089447244662e-01 9.190308682012721e-02 -1.867849742656347e-02 8.542621106331691e-02 -1.948172568844689e-02
            -1.633667929958849e-03 -2.618881964015726e-01 -3.051713456542232e-01 -7.601198894066317e-02 8.542503348735733e-02 -1.948699462779505e-02 9.181265092074352e-02 -1.869404722544789e-02
871795000.0000000000 8.005628042926556e-02 -1.482603154171186e-02 7.196532979130121e-02 -1.637194609283377e-02 -3.149091166048564e-01 3.377920351964488e-02 -9.251461149522326e-02 -2.436963275025149e-01
            7.195074668739383e-02 -1.632393818425498e-02 7.999587504519104e-02 -1.484557734601362e-02 -9.252155966903072e-02 -2.436881151689580e-01 -3.147835319123217e-01 3.379875960845766e-02
            -3.148048585754485e-01 3.373700842915421e-02 -9.246079530025958e-02 -2.436970288108149e-01 7.969401075143698e-02 -1.531701327518462e-02 7.238127508507224e-02 -1.590065211331212e-02
            -9.249097414866915e-02 -2.437007816149747e-01 -3.148942015743361e-01 3.383388437489093e-02 7.231460505967938e-02 -1.594373651802030e-02 7.968817475327201e-02 -1.531427743587860e-02
872627500.0000000000 7.301198003102682e-02 -4.241238149446840e-03 6.446238310559091e-02 -4.986619530300521e-03 -2.856052810435876e-01 1.417487694325043e-01 -1.705515538580347e-01 -1.946222456161931e-01
            6.456872368488760e-02 -4.981373014560678e-03 7.300889484679084e-02 -4.146952040039444e-03 -1.705504842072355e-01 -1.945786532366559e-01 -2.855745767965722e-01 1.417928943725294e-01
            -2.856262563186729e-01 1.417125946392137e-01 -1.705614994028544e-01 -1.945865259663437e-01 7.280640838176101e-02 -4.531916072779111e-03 6.491360040440740e-02 -4.640739706016184e-03
            -1.705175328546899e-01 -1.945902584245036e-01 -2.855810786610182e-01 1.417450046247659e-01 6.489499683294098e-02 -4.593962218317004e-03 7.275648521605173e-02 -4.586508047146376e-03
873460000.0000000000 7.480222998013163e-02 8.445664043780447e-03 6.643677931639397e-02 8.567137401541317e-03 -2.195853945241070e-01 2.334285611031057e-01 -2.253823201387002e-01 -1.218273015620911e-01
            6.641685562463678e-02 8.590602901560752e-03 7.479179574203741e-02 8.513860663157525e-03 -2.253205168374606e-01 -1.217357890006533e-01 -2.195768146414880e-01 2.334591127134681e-01
            -2.195647384872842e-01 2.334879612878063e-01 -2.253914631146950e-01 -1.218507117019643e-01 7.472566175544260e-02 8.083730483854655e-03 6.667111101282353e-02 8.867801576903735e-03
            -2.253697830140463e-01 -1.217680020756065e-01 -2.195681160053664e-01 2.334110635161981e-01 6.668336000546579e-02 8.788352745764257e-03 7.475852781976876e-02 8.050859082389915e-03
874292500.0000000000 8.459813908248709e-02 1.668462043870964e-02 7.674827304196100e-02 1.739277431451902e-02 -1.249501155140086e-01 2.960542719875034e-01 -2.507287117494744e-01 -3.600677755726735e-02
            7.683386338811611e-02 1.742277494787841e-02 8.471528628562924e-02 1.670317331469396e-02 -2.507634173556219e-01 -3.601368348194192e-02 -1.249464120968217e-01 2.960395315275979e-01
            -1.249143866689016e-01 2.960753153680285e-01 -2.506613093716137e-01 -3.604573877046709e-02 8.459159657931981e-02 1.624156726780044e-02 7.694380006581739e-02 1.775701064629238e-02
            -2.507189185898813e-01 -3.597697157398976e-02 -1.249409121035724e-01 2.960388477413158e-01 7.694883743784749e-02 1.777062493261502e-02 8.454241758532981e-02 1.629950891168440e-02
875125000.0000000000 9.749326183162201e-02 1.633990657942477e-02 9.025068232510873e-02 1.749986617157073e-02 -1.459941354637647e-02 3.212574425126730e-01 -2.453670458483778e-01 5.159434590428757e-02
            9.027572369880095e-02 1.742487587390734e-02 9.753793009191644e-02 1.631530614486516e-02 -2.453925298466767e-01 5.156307333715836e-02 -1.464742514895649e-02 3.211711352066716e-01
            -1.462901905908288e-02 3.212036054314094e-01 -2.454013879522381e-01 5.163918943715158e-02 9.744563388217103e-02 1.606886943482456e-02 9.044965754687548e-02 1.778626881324200e-02
            -2.453327182460845e-01 5.154541744407239e-02 -1.455463692049100e-02 3.212188041797399e-01 9.048726707322288e-02 1.775455525022151e-02 9.745152850057553e-02 1.604071139305804e-02
875957500.0000000000 1.070264949743364e-01 7.815509737401326e-03 1.004859470828696e-01 8.728124951439681e-03 9.699024610345826e-02 3.066892094018439e-01 -2.114237755387577e-01 1.313920574155852e-01
            1.004496568813915e-01 8.730785428391554e-03 1.071001214331452e-01 7.801916570147215e-03 -2.113315377369338e-01 1.313811298191828e-01 9.698415469357978e-02 3.066498693507002e-01
            9.698189153727932e-02 3.066095767927608e-01 -2.114092754978301e-01 1.313539255149903e-01 1.070552121406307e-01 7.466103512625538e-03 1.005729736301195e-01 9.039157798073573e-03
            -2.114042736246693e-01 1.312942300099536e-01 9.692572005605087e-02 3.067034403445457e-01 1.006581858554306e-01 9.040302039610926e-03 1.071020900778489e-01 7.490343194124145e-03
876790000.0000000000 1.088808204777361e-01 -4.906352842215030e-03 1.028048075585655e-01 -4.523399612820203e-03 1.964719774497037e-01 2.551867510951448e-01 -1.529538158349852e-01 1.949211338779737e-01
            1.027546029127791e-01 -4.461871313853227e-03 1.088875326155278e-01 -4.995604225076477e-03 -1.530240592584204e-01 1.948941751916800e-01 1.964646138953379e-01 2.552051830482157e-01
            1.964172223729774e-01 2.552535870198096e-01 -1.529154540887837e-01 1.948294459998776e-01 1.090283306379376e-01 -5.136634734719819e-03 1.028514360391003e-01 -4.194969841785337e-03
            -1.529265070745577e-01 1.949188018616927e-01 1.963869852838276e-01 2.551868119676090e-01 1.028548369646913e-01 -4.285530599433041e-03 1.089670813299402e-01 -5.146286789827364e-03
877622500.0000000000 1.022041475504007e-01 -1.594603345635040e-02 9.593484292587305e-02 -1.616457780528591e-02 2.727048600392341e-01 1.733735469280673e-01 -7.621098290814328e-02 2.349183697103419e-01
            9.598601472496246e-02 -1.612126191483573e-02 1.022510385514764e-01 -1.594344548924141e-02 -7.622462168237339e-02 2.350347836684687e-01 2.727655868127993e-01 1.733554136049131e-01
            2.727599097150500e-01 1.733228288205372e-01 -7.625457778121532e-02 2.349338904088688e-01 1.022680798238230e-01 -1.624203576237212e-02 9.597716260567474e-02 -1.590076999252696e-02
            -7.617091661086250e-02 2.349118365983348e-01 2.727433435385807e-01 1.733466451959628e-01 9.609549848954656e-02 -1.582210362447033e-02 1.022966535970161e-01 -1.617444273800027e-02
878455000.0000000000 8.998171221795276e-02 -2.013051999888156e-02 8.324213573687528e-02 -2.066449755453986e-02 3.173289052547356e-01 6.982958190351343e-02 1.006591128590747e-02 2.460412907663282e-01
            8.328153845024658e-02 -2.061356043859702e-02 8.989951296824822e-02 -2.018796530401335e-02 1.010187032516208e-02 2.459909415619954e-01 3.173673239026186e-01 6.982724027003605e-02
            3.173580740459327e-01 6.986721562870769e-02 1.007131370289847e-02 2.460561227904955e-01 9.010639442480101e-02 -2.039359025091783e-02 8.335283121470602e-02 -2.038637482648233e-02
            1.013083493455356e-02 2.460040880559420e-01 3.174107038273424e-01 6.986193207819266e-02 8.333164450414038e-02 -2.039938069181503e-02 9.008253516810659e-02 -2.045020887923562e-02
879287500.0000000000 7.782475150222277e-02 -1.541270501167959e-02 7.070286386378301e-02 -1.591015225668816e-02 3.242290761742482e-01 -4.399792625488313e-02 9.502545283121759e-02 2.258125761327150e-01
            7.061239289439944e-02 -1.590268145053693e-02 7.791781646357170e-02 -1.546285052821839e-02 9.504203568569040e-02 2.258009646722318e-01 3.242333780431231e-01 -4.407833245588376e-02
            3.242327860658852e-01 -4.402539146242561e-02 9.498783100600698e-02 2.257423513433677e-01 7.809278268416420e-02 -1.564575378025572e-02 7.073420192153462e-02 -1.566130397128437e-02
            9.498938521045876e-02 2.257531025609821e-01 3.242134693380666e-01 -4.392272224623752e-02 7.077392986598327e-02 -1.566934101954346e-02 7.799748944434727e-02 -1.565894420215473e-02
880120000.0000000000 7.184980488859326e-02 -3.980957237353529e-03 6.427397490921559e-02 -4.110383260691597e-03 2.907315531232074e-01 -1.546121034869956e-01 1.665505612009908e-01 1.767514594122642e-01
            6.430359327639915e-02 -4.167239640629427e-03 7.189369278251628e-02 -4.038174385151879e-03 1.665525015582291e-01 1.768104588047955e-01 2.907255901638118e-01 -1.546092012749155e-01
            2.907103501979048e-01 -1.545425151103547e-01 1.665720681813093e-01 1.767890060952763e-01 7.207072452075265e-02 -4.347928630823191e-03 6.429516660872371e-02 -3.849049551066819e-03
            1.665827402395964e-01 1.767893001738787e-01 2.906864701673455e-01 -1.545986189293754e-01 6.437403352294442e-02 -3.855468894967004e-03 7.196414894908212e-02 -4.300922827618725e-03
880952500.0000000000 7.483944514465068e-02 8.258745124426757e-03 6.725593506965911e-02 8.789645988888371e-03 2.198488790285616e-01 -2.470934299889719e-01 2.153814367821708e-01 1.063921994802942e-01
            6.713978415599826e-02 8.789461593889185e-03 7.483100527807027e-02 8.360922637518357e-03 2.153101222958148e-01 1.064791939200656e-01 2.197671435412200e-01 -2.471291758372565e-01
            2.197967476070962e-01 -2.471560651935057e-01 2.153482412043161e-01 1.065480765314488e-01 7.504860381736748e-02 8.063372114950066e-03 6.717636555602957e-02 9.095518577547259e-03
            2.153498154003504e-01 1.064988134168299e-01 2.197535492367229e-01 -2.471576521831952e-01 6.720644692207028e-02 9.137983926642480e-03 7.502028999777478e-02 8.052855881806589e-03
881785000.0000000000 8.503112998094395e-02 1.554364865538144e-02 7.776115847175530e-02 1.638932454764832e-02 1.204828956008619e-01 -3.087463874573783e-01 2.360162926380273e-01 2.521185961150080e-02
            7.777440998911259e-02 1.640581677494471e-02 8.504218348735124e-02 1.542488617757884e-02 2.360770399652069e-01 2.525992008153823e-02 1.203461906486166e-01 -3.088474658354440e-01
            1.205260428915301e-01 -3.087181800128682e-01 2.360136599217841e-01 2.526506137827838e-02 8.525685356524580e-02 1.520753963424075e-02 7.769844927614598e-02 1.666299032635098e-02
            2.360883262231306e-01 2.524110975439489e-02 1.204136426897827e-01 -3.087870126923729e-01 7.773073353729462e-02 1.670535785122372e-02 8.528859555295071e-02 1.515305773796566e-02
882617500.0000000000 9.722534726713006e-02 1.411734196501643e-02 9.054255437125093e-02 1.525890717692640e-02 6.144926200878871e-03 -3.315680962992780e-01 2.280200530244886e-01 -5.661950640789274e-02
            9.048351863207982e-02 1.516423085691975e-02 9.720165764039405e-02 1.409317022923205e-02 2.279178428571990e-01 -5.665743057921148e-02 6.215801248880369e-03 -3.315630357891611e-01
            6.133280613733086e-03 -3.315551283799097e-01 2.280535274792821e-01 -5.659595284833163e-02 9.746319555142675e-02 1.375340011829462e-02 9.047822682236853e-02 1.544092189445693e-02
            2.280505246614665e-01 -5.660529465076698e-02 6.145438087443500e-03 -3.316001362361813e-01 9.050068787186072e-02 1.539898948784811e-02 9.742312888162988e-02 1.381371232371773e-02
883450000.0000000000 1.054050064154823e-01 5.174001721805181e-03 9.915123523353406e-02 5.990008238322008e-03 -1.083267208590994e-01 -3.135790844440078e-01 1.934362202998011e-01 -1.302326142450205e-01
            9.911446190992973e-02 5.972764473458785e-03 1.054022478278828e-01 5.138110367443747e-03 1.934575036309772e-01 -1.301917802021500e-01 -1.083552706353889e-01 -3.135507151380782e-01
            -1.083375897872303e-01 -3.135538053668063e-01 1.935083223154647e-01 -1.302231224459019e-01 1.056918886782375e-01 4.813987930269269e-03 9.903445054163823e-02 6.218736333079505e-03
            1.933974214050088e-01 -1.302582270877601e-01 -1.084048117169574e-01 -3.134994532227290e-01 9.905604400305813e-02 6.106181991757633e-03 1.055466560319427e-01 4.844158094787392e-03
884282500.0000000000 1.055465380696374e-01 -6.831506724563237e-03 9.963369946246349e-02 -6.651229479539391e-03 -2.096285918020312e-01 -2.579089271949094e-01 1.363246781392755e-01 -1.876728176018577e-01
            9.959834370025815e-02 -6.678744623227810e-03 1.056350402072352e-01 -6.819179229258488e-03 1.363726404311759e-01 -1.878376035293015e-01 -2.095689083211197e-01 -2.577575050747111e-01
            -2.096360279299040e-01 -2.578819737514421e-01 1.362962776003803e-01 -1.877113862792069e-01 1.057873154182054e-01 -7.193588388178740e-03 9.941773579945302e-02 -6.384803515614734e-03
            1.363811631199781e-01 -1.876731521755413e-01 -2.095276606019418e-01 -2.578396166566453e-01 9.943026878900234e-02 -6.364461973770336e-03 1.058876382988717e-01 -7.136211076002469e-03
885115000.0000000000 9.788459934686694e-02 -1.605341733420862e-02 9.168924260532373e-02 -1.657638798420786e-02 -2.862027025770997e-01 -1.711765926613453e-01 6.277469212836162e-02 -2.224665509741604e-01
            9.163155463000122e-02 -1.654811637732147e-02 9.782367262174675e-02 -1.609287975630989e-02 6.275159244349586e-02 -2.224752374067024e-01 -2.862136560870451e-01 -1.712122990548480e-01
            -2.862631479443825e-01 -1.711598425782597e-01 6.276135094782044e-02 -2.225228707887156e-01 9.806911692581272e-02 -1.638820142993055e-02 9.145215638664710e-02 -1.627921164836938e-02
            6.277358420494519e-02 -2.225384643180013e-01 -2.862973645204026e-01 -1.712111583839765e-01 9.143776510602535e-02 -1.631039019256816e-02 9.802780357092342e-02 -1.643651733299296e-02
885947500.0000000000 8.581663838524915e-02 -1.799169158796863e-02 7.897170641320077e-02 -1.877839191675129e-02 -3.293512870154897e-01 -6.291268231630623e-02 -1.849183675968900e-02 -2.293873073495905e-01
            7.896092416150757e-02 -1.879645882332880e-02 8.572698898265148e-02 -1.798065848568713e-02 -1.858940302102014e-02 -2.293484395361736e-01 -3.293584885055534e-01 -6.296396306776832e-02
            -3.294797914654734e-01 -6.289391203490236e-02 -1.853614480438848e-02 -2.294200975620201e-01 8.603857638744933e-02 -1.834724432365622e-02 7.881811320483911e-02 -1.836888089841621e-02
            -1.860158581433620e-02 -2.294195471898085e-01 -3.294060142753897e-01 -6.295564459454504e-02 7.872007181362958e-02 -1.850145272368305e-02 8.601697876978903e-02 -1.834002300174521e-02
886780000.0000000000 7.535118619877966e-02 -1.133021952925002e-02 6.775294361000006e-02 -1.216384521249987e-02 -3.329654321919795e-01 5.489454074874886e-02 -9.704162084549497e-02 -2.068546028201036e-01
            6.772656191210265e-02 -1.212521482289344e-02 7.528482296654770e-02 -1.137562149767638e-02 -9.708500498508001e-02 -2.068929729281930e-01 -3.328931171776618e-01 5.495737869196632e-02
            -3.329288197671310e-01 5.500005458275057e-02 -9.700271373510240e-02 -2.068860816420162e-01 7.551525711617559e-02 -1.176029051372126e-02 6.755814454154484e-02 -1.172304064628420e-02
            -9.709408963065352e-02 -2.068820488621781e-01 -3.328865530457505e-01 5.489321541806535e-02 6.759286433768341e-02 -1.172359883678260e-02 7.546937945284186e-02 -1.182907150871894e-02
887612500.0000000000 7.182593801575513e-02 7.312818829150838e-04 6.360300391078853e-02 3.088696933820694e-04 -2.946846397639141e-01 1.678654752407376e-01 -1.615967811656568e-01 -1.581823835865825e-01
            6.360226929571068e-02 3.452571336869288e-04 7.188247929958622e-02 6.861817437450481e-04 -1.616424103136622e-01 -1.581339383232666e-01 -2.947650620720562e-01 1.679081646864167e-01
            -2.946464266488836e-01 1.679767334012009e-01 -1.616159148149262e-01 -1.582423885833847e-01 7.192283533515199e-02 2.810906025231505e-04 6.348844430570579e-02 8.386899532268677e-04
            -1.616868425002480e-01 -1.581941440377900e-01 -2.946540902205429e-01 1.678861043308217e-01 6.346328025289702e-02 8.663780856260455e-04 7.200443668281331e-02 1.774912751638667e-04
888445000.0000000000 7.716559230935194e-02 1.213039209431762e-02 6.877614336172896e-02 1.256937736141134e-02 -2.185522457390778e-01 2.606710445245958e-01 -2.039611906323990e-01 -9.102308045830212e-02
            6.874606583882668e-02 1.255082457896570e-02 7.718001216111470e-02 1.215804280647344e-02 -2.040334960676072e-01 -9.095677564549609e-02 -2.186254342754694e-01 2.608073548596488e-01
            -2.186137375018418e-01 2.607908969791518e-01 -2.039608788361965e-01 -9.106562409439074e-02 7.726129292164492e-02 1.169758120806654e-02 6.866028986842163e-02 1.313028050164035e-02
            -2.039958167879702e-01 -9.103406438481103e-02 -2.185704489842377e-01 2.607154715524201e-01 6.875204661366460e-02 1.307007526197290e-02 7.733282782714604e-02 1.175684752314766e-02
889277500.0000000000 8.875945556778023e-02 1.727812747694415e-02 8.051836845539258e-02 1.837570991797700e-02 -1.145727196072800e-01 3.207777013706608e-01 -2.199752178230038e-01 -1.497827981882663e-02
            8.059885995780258e-02 1.837423728404209e-02 8.872219594977662e-02 1.722768196797867e-02 -2.200307761148582e-01 -1.488181767700297e-02 -1.145663223691651e-01 3.207600936861142e-01
            -1.145390768704074e-01 3.207422017516263e-01 -2.199949698464541e-01 -1.488571043414777e-02 8.872017498656279e-02 1.677262927675332e-02 8.058374647840012e-02 1.882854479675837e-02
            -2.200478468204495e-01 -1.495647385409499e-02 -1.146247718297750e-01 3.207022722653766e-01 8.055657146822001e-02 1.883780086094865e-02 8.869203544897958e-02 1.681307073581155e-02
890110000.0000000000 1.008048074247504e-01 1.359470567060342e-02 9.300934920092396e-02 1.513876398006735e-02 3.226749750384556e-03 3.405626890211183e-01 -2.096224498351777e-01 6.064787622795146e-02
            9.314052891910145e-02 1.500600193778894e-02 1.007743517550763e-01 1.355492978420047e-02 -2.096211105807458e-01 6.064881344813951e-02 3.271103647366024e-03 3.405357191689583e-01
            3.338181297636743e-03 3.405951150707528e-01 -2.097272593309106e-01 6.066383740501566e-02 1.006015815925387e-01 1.321824606613585e-02 9.315318200064894e-02 1.552929269533956e-02
            -2.096000769888100e-01 6.065418979460040e-02 3.291313281474038e-03 3.406706151428724e-01 9.314043711015113e-02 1.561005724592647e-02 1.006790358082450e-01 1.324876899882403e-02
890942500.0000000000 1.075971249856797e-01 3.160391661987793e-03 1.004748904663815e-01 4.527615931755233e-03 1.200962273386956e-01 3.187868075654138e-01 -1.749759673884899e-01 1.276827266490490e-01
            1.004678926992850e-01 4.492596448126133e-03 1.074813270497784e-01 3.065987014650605e-03 -1.749747733474858e-01 1.277378354026848e-01 1.201205063880338e-01 3.187567853189057e-01
            1.200912557603429e-01 3.188401953510635e-01 -1.749847144508772e-01 1.277171087877100e-01 1.074481456472493e-01 2.793705102140392e-03 1.005779826266711e-01 4.901776039560137e-03
            -1.749677029420948e-01 1.277196636501707e-01 1.201127902413452e-01 3.187810950441938e-01 1.006569087363771e-01 4.929727180911779e-03 1.073749334962606e-01 2.743336331307152e-03
891775000.0000000000 1.059417286935872e-01 -9.188613440091663e-03 9.930261393447326e-02 -8.233427231013408e-03 2.223519325307295e-01 2.588531363548579e-01 -1.198269139932118e-01 1.792306791310390e-01
            9.921381284860877e-02 -8.228244164284077e-03 1.060113197226682e-01 -9.201468964945671e-03 -1.198532391136935e-01 1.792071269062283e-01 2.223439758782652e-01 2.588946115196268e-01
            2.222939472444421e-01 2.589326026181634e-01 -1.198156395523682e-01 1.792365045978029e-01 1.057672493024109e-01 -9.396733788624918e-03 9.933135813451018e-02 -7.898775700087103e-03
            -1.198258569601107e-01 1.791873754004094e-01 2.223437082457051e-01 2.589307627786371e-01 9.931692542317432e-02 -7.878131989238209e-03 1.057438156688507e-01 -9.406805198097161e-03
892607500.0000000000 9.678350417939448e-02 -1.762581013619214e-02 9.013735336406180e-02 -1.708960381693443e-02 2.986522764794878e-01 1.678518627658471e-01 -5.002741872902994e-02 2.088822026391000e-01
            9.005155304473872e-02 -1.710967285096414e-02 9.676698532964642e-02 -1.763614666554486e-02 -5.009741848427460e-02 2.088191502561245e-01 2.986742806469136e-01 1.677995682098718e-01
            2.987034419201042e-01 1.677635647445077e-01 -5.016652561108657e-02 2.088085501772439e-01 9.660660426512066e-02 -1.771353218316679e-02 9.010258192162970e-02 -1.678589078622735e-02
            -5.012333215184130e-02 2.087846619498650e-01 2.986341500094177e-01 1.677619858756363e-01 9.008327171069583e-02 -1.682667854724542e-02 9.660232739213614e-02 -1.769892838842039e-02
893440000.0000000000 8.436193640580233e-02 -1.796719458926037e-02 7.714891051887081e-02 -1.783209407635097e-02 3.399819862011165e-01 5.532544863423815e-02 2.583490405802778e-02 2.120715528877260e-01
            7.724222420879837e-02 -1.785169389457617e-02 8.432093266750057e-02 -1.800655973513110e-02 2.588961791788722e-02 2.119996886015961e-01 3.399740480440169e-01 5.530933688564067e-02
            3.398967856854022e-01 5.528947746821829e-02 2.588599141426510e-02 2.120276010776041e-01 8.410879239435967e-02 -1.801316643465449e-02 7.714125998554351e-02 -1.763409114572942e-02
            2.590752918596268e-02 2.119543009521970e-01 3.399789938467783e-01 5.529948447456043e-02 7.709336736260157e-02 -1.758141978394169e-02 8.414841184885075e-02 -1.805770640965892e-02
894272500.0000000000 7.468264160674841e-02 -1.006259267351757e-02 6.688292371283447e-02 -9.881774806761185e-03 3.400867727165154e-01 -6.587256919823140e-02 9.778192214338735e-02 1.878417324280326e-01
            6.688215829942656e-02 -9.881878059349475e-03 7.470113329745244e-02 -9.979998935159357e-03 9.781473797850525e-02 1.878814205730895e-01 3.400498491739649e-01 -6.593881253772171e-02
            3.400444538557940e-01 -6.592670638941484e-02 9.784062652750293e-02 1.879165869201805e-01 7.440488065638295e-02 -9.898376203934658e-03 6.678880540089158e-02 -9.614650999539861e-03
            9.782700865753759e-02 1.878499761206621e-01 3.400538826370668e-01 -6.590198869402766e-02 6.677095504526098e-02 -9.685650130755461e-03 7.444892267243762e-02 -9.942932012723877e-03
895105000.0000000000 7.269620714082163e-02 2.392161847784700e-03 6.439216094257859e-02 2.966174288726967e-03 2.973906751922532e-01 -1.806789709916508e-01 1.555592451619075e-01 1.400166465330029e-01
            6.435480646054170e-02 2.989969840399717e-03 7.267822839545850e-02 2.464044444587557e-03 1.555717983182729e-01 1.400053749776009e-01 2.973219779268591e-01 -1.806401702651961e-01
            2.973659456998002e-01 -1.806935649386057e-01 1.555703401421069e-01 1.400564970286735e-01 7.253529323071790e-02 2.547329539911596e-03 6.422272053345374e-02 3.177045382883821e-03
            1.556520823471063e-01 1.400872375471020e-01 2.974115753083818e-01 -1.805892929187222e-01 6.419356060446534e-02 3.207062134925609e-03 7.253357783170704e-02 2.475025047144620e-03
895937500.0000000000 7.951678651999974e-02 1.298870163209763e-02 7.102498674920441e-02 1.417432921705940e-02 2.164975666992803e-01 -2.733518647442684e-01 1.919200141238550e-01 7.614242976127336e-02
            7.095054248707698e-02 1.416049759258202e-02 7.948901562672518e-02 1.295423184425388e-02 1.918791843394635e-01 7.620397146928277e-02 2.165518434115835e-01 -2.733639092330791e-01
            2.165039001477024e-01 -2.733331882221422e-01 1.918375908405518e-01 7.617756766099092e-02 7.928231355679720e-02 1.322700436283326e-02 7.077814730151175e-02 1.449889226884448e-02
            1.917815435562042e-01 7.621377499430849e-02 2.165230338210075e-01 -2.734160375693830e-01 7.082530605448159e-02 1.455251428062652e-02 7.931146971739421e-02 1.316713624629867e-02
896770000.0000000000 9.150496457527457e-02 1.650009485822419e-02 8.330820249239920e-02 1.824857766686962e-02 1.083041219998047e-01 -3.317482340974944e-01 2.036294375948773e-01 5.461465834475386e-03
            8.325754137537786e-02 1.831918520938563e-02 9.156319762979614e-02 1.641381807081523e-02 2.035830390791787e-01 5.427195825303393e-03 1.083523113165396e-01 -3.316301073495003e-01
            1.083425630009683e-01 -3.316344463011731e-01 2.036300107321587e-01 5.507054306231276e-03 9.134312443664071e-02 1.680002950258717e-02 8.302130009265969e-02 1.872632409628271e-02
            2.036096392128886e-01 5.476556285492931e-03 1.083130763227001e-01 -3.316307938200228e-01 8.307815910447375e-02 1.880075765109621e-02 9.129465444279197e-02 1.679784135067735e-02
897602500.0000000000 1.028685049069838e-01 1.119244662590761e-02 9.499632299974432e-02 1.342614939028208e-02 -1.272642177183114e-02 -3.485233066616311e-01 1.911251326408843e-01 -6.388586653438755e-02
            9.511663801546366e-02 1.338049919112213e-02 1.028559116872503e-01 1.118567023369691e-02 1.910752572712852e-01 -6.383266530379172e-02 -1.267162935334454e-02 -3.485118084489245e-01
            -1.271270688591839e-02 -3.485155627949573e-01 1.911822577505671e-01 -6.383592177844165e-02 1.027286570301732e-01 1.163897551570938e-02 9.499634815507778e-02 1.407085601128069e-02
            1.911127280923297e-01 -6.388638993292881e-02 -1.260966156562478e-02 -3.485870211767050e-01 9.504057172955546e-02 1.398469329001811e-02 1.027824878009322e-01 1.172449374712546e-02
898435000.0000000000 1.081833696493360e-01 4.269380280847441e-05 1.010493445001049e-01 2.074635180721810e-03 -1.315267967192450e-01 -3.231548655344140e-01 1.566601227422543e-01 -1.244629263748534e-01
            1.009363150872490e-01 2.053342540803999e-03 1.080818857563882e-01 -9.514028204623379e-05 1.566127513902761e-01 -1.244798731234078e-01 -1.315413582701718e-01 -3.230683524012190e-01
            -1.315702690606082e-01 -3.230385520840271e-01 1.565387319433625e-01 -1.244452572426902e-01 1.081507149364182e-01 4.371931784005288e-04 1.009374722289949e-01 2.654982422740640e-03
            1.565716941388085e-01 -1.244818275689881e-01 -1.315002945984438e-01 -3.230350377288643e-01 1.009335868574644e-01 2.728299795472670e-03 1.081873304128074e-01 4.266081489647561e-04
899267500.0000000000 1.048694362459479e-01 -1.201951416258443e-02 9.806984315338976e-02 -1.031875001251213e-02 -2.345498428639929e-01 -2.590583298543618e-01 1.036080046349747e-01 -1.699071336104296e-01
            9.810980839774340e-02 -1.034781886117909e-02 1.048210798532308e-01 -1.199873815384873e-02 1.035830582066122e-01 -1.698184599547363e-01 -2.345063673119360e-01 -2.590712797894404e-01
            -2.345765202002835e-01 -2.590732571122391e-01 1.036397796823458e-01 -1.699902640471670e-01 1.050434518170139e-01 -1.147491007455043e-02 9.813893256623557e-02 -9.769078611964443e-03
            1.035977433630978e-01 -1.699394079951021e-01 -2.345775047185111e-01 -2.591380756540664e-01 9.812660573633644e-02 -9.762711870548011e-03 1.050308997384359e-01 -1.149157001222504e-02
900100000.0000000000 9.463430162298546e-02 -1.902424287348300e-02 8.769732480285400e-02 -1.806949632654339e-02 -3.103959068685269e-01 -1.637715876962137e-01 3.787663155742837e-02 -1.945036186969094e-01
            8.770710067096128e-02 -1.798951169250327e-02 9.456796663384777e-02 -1.904502391109575e-02 3.783453239119362e-02 -1.944769422949801e-01 -3.103654272937553e-01 -1.637346511122401e-01
            -3.103595400183029e-01 -1.637468426509635e-01 3.790090940019023e-02 -1.944857682810260e-01 9.489973768749489e-02 -1.857104071922173e-02 8.785170803462951e-02 -1.754248722775872e-02
            3.792463160856773e-02 -1.944483371616347e-01 -3.103338990074933e-01 -1.637153683308004e-01 8.787330433932454e-02 -1.748361608545657e-02 9.498403230926356e-02 -1.847742197835097e-02
900932500.0000000000 8.225398181733662e-02 -1.779169245193867e-02 7.473294078948355e-02 -1.715743223802137e-02 -3.495265623062152e-01 -4.726675883421570e-02 -3.244461749678905e-02 -1.942154603294517e-01
            7.475161436240965e-02 -1.708610821327568e-02 8.221507881396613e-02 -1.777905485374877e-02 -3.252277402589338e-02 -1.941184382948593e-01 -3.494991077656076e-01 -4.722873458392009e-02
            -3.495323373507520e-01 -4.727969403537639e-02 -3.256490588943167e-02 -1.941846878116814e-01 8.255186561036296e-02 -1.737516443958549e-02 7.497602625247267e-02 -1.667210871542079e-02
            -3.247370774183301e-02 -1.942148971814293e-01 -3.495091745507604e-01 -4.727428959711344e-02 7.498211135286545e-02 -1.662617224315364e-02 8.251757075160193e-02 -1.745706619176741e-02
901765000.0000000000 7.381239012387229e-02 -8.494100512170267e-03 6.539504194408452e-02 -7.965145366084173e-03 -3.460660310241844e-01 7.694857439729456e-02 -9.779070095449027e-02 -1.686498016985644e-01
            6.542520730833397e-02 -7.849921578934049e-03 7.370616013153751e-02 -8.585662400584006e-03 -9.776406356741545e-02 -1.687213806449769e-01 -3.460714822246764e-01 7.692593046725926e-02
            -3.460917213413471e-01 7.687621893671505e-02 -9.775687418965689e-02 -1.686468112438558e-01 7.414519335660147e-02 -8.271411584974624e-03 6.568704579186505e-02 -7.596046866367681e-03
            -9.775069093770111e-02 -1.686190381227498e-01 -3.461225985840981e-01 7.688134150272437e-02 6.567339675977675e-02 -7.554264483260594e-03 7.416479656667647e-02 -8.351701039400290e-03
902597500.0000000000 7.348415244871112e-02 4.000089089688403e-03 6.449302947269581e-02 5.185387545838480e-03 -2.988952833389616e-01 1.930285352382598e-01 -1.485762109377395e-01 -1.220155223614283e-01
            6.443796885025055e-02 5.214684841675254e-03 7.350610728000316e-02 3.966861080352126e-03 -1.485736463753629e-01 -1.219859385899256e-01 -2.989007499203957e-01 1.930470156576469e-01
            -2.988828514478247e-01 1.929969318476360e-01 -1.486665522291315e-01 -1.220964935629122e-01 7.384987937541587e-02 4.131432056693917e-03 6.467363822859500e-02 5.392484522436149e-03
            -1.485990938196904e-01 -1.220198862235129e-01 -2.989758860265953e-01 1.931300469078903e-01 6.467701963747326e-02 5.447050706598590e-03 7.388938040169125e-02 4.164065251020732e-03
903430000.0000000000 8.160287933583547e-02 1.340895119704757e-02 7.220530770572275e-02 1.572786298281813e-02 -2.135525199495502e-01 2.853049443519340e-01 -1.790082798113026e-01 -6.185593410885902e-02
            7.220572550195405e-02 1.571416776739309e-02 8.161925024827492e-02 1.338839544218920e-02 -1.790450051563690e-01 -6.189737069380002e-02 -2.135802941302930e-01 2.853154085348753e-01
            -2.135003518153792e-01 2.852895160179211e-01 -1.790248189636076e-01 -6.185862790972665e-02 8.190093161414098e-02 1.354647450940804e-02 7.231290571037341e-02 1.595595267736422e-02
            -1.790011159217291e-01 -6.185078091479094e-02 -2.136492150785781e-01 2.853491621402395e-01 7.241469354262849e-02 1.582832799896282e-02 8.190343716551081e-02 1.350199385133171e-02
904262500.0000000000 9.395565469734357e-02 1.509398930910388e-02 8.470377071554407e-02 1.854038900567906e-02 -1.015893419042943e-01 3.415817791068858e-01 -1.866844187710913e-01 3.427279673674617e-03
            8.468777854504873e-02 1.851163768520133e-02 9.401384588475599e-02 1.515363534080058e-02 -1.867006169996725e-01 3.439766078467089e-03 -1.015236060635503e-01 3.415585674334539e-01
            -1.015477941806162e-01 3.415391592672126e-01 -1.865877418781547e-01 3.439689575344738e-03 9.409653469798004e-02 1.524401859212379e-02 8.477806686430346e-02 1.872376479360345e-02
            -1.867155792756690e-01 3.377426688882704e-03 -1.016024042876437e-01 3.415779078793520e-01 8.480256561827947e-02 1.870317652065670e-02 9.415205093956945e-02 1.522129944587373e-02
905095000.0000000000 1.043670188289478e-01 8.303526173889528e-03 9.581523824657294e-02 1.271500043801519e-02 2.229127796487327e-02 3.554486974563514e-01 -1.724230321181859e-01 6.636239034287894e-02
            9.584289724371065e-02 1.267026600074658e-02 1.043567290360306e-01 8.250447211522302e-03 -1.722497460424136e-01 6.629407691234364e-02 2.228438751353385e-02 3.554995683271074e-01
            2.224282653578367e-02 3.555133454153508e-01 -1.723375269084818e-01 6.635645805219516e-02 1.045733983900232e-01 8.456126854467822e-03 9.583994647582220e-02 1.282808237228946e-02
            -1.723183068067041e-01 6.631506368829578e-02 2.235586054928236e-02 3.554787020812109e-01 9.591392079619639e-02 1.281528680150152e-02 1.044945482523129e-01 8.441038042388284e-03
905927500.0000000000 1.079197608709301e-01 -3.629339281989604e-03 1.004318111541882e-01 1.138365039569664e-03 1.428610897192028e-01 3.264403946813008e-01 -1.380755524217407e-01 1.204295606848867e-01
            1.003845543376169e-01 1.159776764907626e-03 1.078636332640380e-01 -3.723219541362812e-03 -1.380619979360636e-01 1.204298625277566e-01 1.429082666059801e-01 3.263497328312795e-01
            1.427985641620164e-01 3.264139304671996e-01 -1.380600005047372e-01 1.204178951873608e-01 1.080798792014419e-01 -3.454433230550547e-03 1.003225991830071e-01 1.368870879156228e-03
            -1.381003534797530e-01 1.204087578253327e-01 1.428386026155139e-01 3.263954147842324e-01 1.003748217146175e-01 1.398069612449418e-03 1.080983284294909e-01 -3.532186890334463e-03
906760000.0000000000 1.027874655657909e-01 -1.513003087021752e-02 9.633963123716580e-02 -1.042457884615835e-02 2.465001578072742e-01 2.583686911840506e-01 -8.752334939760413e-02 1.598511687889242e-01
            9.637656908130587e-02 -1.030829789662377e-02 1.027615964213390e-01 -1.514558466074640e-02 -8.751487722348941e-02 1.599069111719509e-01 2.464621636011701e-01 2.583413900956756e-01
            2.465003180043145e-01 2.583587959266220e-01 -8.743164761865999e-02 1.598967757704570e-01 1.029304535127971e-01 -1.497410324175422e-02 9.624261207041090e-02 -1.023323158333800e-02
            -8.754661502145544e-02 1.599154409243287e-01 2.464567979199628e-01 2.583209508693140e-01 9.627983177805048e-02 -1.013018201427989e-02 1.029542435716814e-01 -1.496489873787516e-02
907592500.0000000000 9.134656656388891e-02 -2.065964809302870e-02 8.576183566375112e-02 -1.638600254110136e-02 3.213152182255221e-01 1.588267581148606e-01 -2.610386614867550e-02 1.793826570394040e-01
            8.568169897181326e-02 -1.641372464088786e-02 9.138985362369351e-02 -2.074131549189856e-02 -2.599827887498947e-02 1.794566031975097e-01 3.213781350594779e-01 1.588398734701690e-01
            3.213904502194380e-01 1.588377991794767e-01 -2.606542240080469e-02 1.794288656466979e-01 9.154825931146399e-02 -2.056966097729661e-02 8.576181766501345e-02 -1.622820700120231e-02
            -2.602245258510873e-02 1.794615510361904e-01 3.213263408041123e-01 1.588552094326146e-01 8.555089316792444e-02 -1.624302968434363e-02 9.149351394387724e-02 -2.051436541468475e-02
908425000.0000000000 7.898874061434649e-02 -1.747627713494485e-02 7.382018400813520e-02 -1.386721897889535e-02 3.580681173369066e-01 3.857781714678641e-02 3.842600623153856e-02 1.757203213743221e-01
            7.379205937858303e-02 -1.389196718612945e-02 7.900527644024775e-02 -1.754673085689517e-02 3.840566721212973e-02 1.757190402568466e-01 3.581461886098400e-01 3.868909010535405e-02
            3.581948723075417e-01 3.868064096025273e-02 3.840735111413891e-02 1.757203402704532e-01 7.911013022817494e-02 -1.737067829361318e-02 7.364524949535634e-02 -1.366746434784857e-02
            3.849890048648051e-02 1.757550037474794e-01 3.581257069090215e-01 3.867731803896324e-02 7.371729179248925e-02 -1.374080166655180e-02 7.913013855042994e-02 -1.742508314867191e-02
909257500.0000000000 7.159145384428679e-02 -7.050457763113792e-03 6.647859666194306e-02 -3.861243893992702e-03 3.509469344602827e-01 -8.814688352660507e-02 9.674514596126546e-02 1.490320656320619e-01
            6.639509396077836e-02 -3.926664200132403e-03 7.164604790586374e-02 -6.980125837433513e-03 9.675551256837030e-02 1.490346491052335e-01 3.509225392573659e-01 -8.809726161384239e-02
            3.509384649551599e-01 -8.824460883433699e-02 9.669037851591826e-02 1.490978203690710e-01 7.152034139545578e-02 -6.885110491930679e-03 6.631292838149824e-02 -3.768426108967084e-03
            9.672508363902577e-02 1.490747970802980e-01 3.510101213616969e-01 -8.813424367504016e-02 6.634396689062433e-02 -3.677169048939182e-03 7.161225818768473e-02 -6.796995291146689e-03
910090000.0000000000 7.294080717532600e-02 5.743939198979356e-03 6.765740319433033e-02 8.473256101147523e-03 2.993530958692986e-01 -2.050890808283530e-01 1.406726912458906e-01 1.041104124849876e-01
            6.778068012691356e-02 8.546224258345447e-03 7.288417833817898e-02 5.827742673333291e-03 1.406007078477839e-01 1.041072390304045e-01 2.992899507863721e-01 -2.050685013926693e-01
            2.992989807509543e-01 -2.050980091228652e-01 1.406493106312217e-01 1.040496890115905e-01 7.289200012263446e-02 5.933115197632953e-03 6.749847879420424e-02 8.822231638039042e-03
            1.406126900623203e-01 1.040898752788482e-01 2.993309084033207e-01 -2.051275938279350e-01 6.749634586067341e-02 8.825634910206645e-03 7.296796453649737e-02 5.978641861326759e-03
910922500.0000000000 8.228890981896440e-02 1.456546095535132e-02 7.697101599484218e-02 1.704725084512462e-02 2.096663884393586e-01 -2.964888760339452e-01 1.653478634798588e-01 4.799010435706508e-02
            7.693606994768430e-02 1.708038735019861e-02 8.231890122518327e-02 1.448785699311956e-02 1.652698941931784e-01 4.801368217361052e-02 2.096566728154142e-01 -2.964941450810736e-01
            2.096174121318672e-01 -2.964968875110357e-01 1.652586710682353e-01 4.806172270399411e-02 8.219611429581247e-02 1.468618853878616e-02 7.673526862365453e-02 1.732080871101163e-02
            1.652187219931232e-01 4.800749714512743e-02 2.096671102710578e-01 -2.964946750526737e-01 7.672040486841240e-02 1.731001589119407e-02 8.214000623853157e-02 1.479358038841761e-02
911755000.0000000000 9.487577496975294e-02 1.495740704695065e-02 8.958082598114497e-02 1.747746703734406e-02 9.411472700598873e-02 -3.504429946455470e-01 1.690707401798587e-01 -1.153355053602264e-02
            8.959192133670442e-02 1.753006897871651e-02 9.489948500160175e-02 1.488959327066940e-02 1.691168394392145e-01 -1.148076999379961e-02 9.404213535603419e-02 -3.505019749918922e-01
            9.416235877409851e-02 -3.504284957097125e-01 1.691470271952152e-01 -1.152071564505446e-02 9.481010586699849e-02 1.520722970859083e-02 8.939255307591826e-02 1.777716250798600e-02
            1.691732167245486e-01 -1.147651605296843e-02 9.414053205805464e-02 -3.504831944834269e-01 8.932168807403162e-02 1.780970608684207e-02 9.475193806994911e-02 1.516372090297784e-02
912587500.0000000000 1.046003961470488e-01 7.218548585128329e-03 9.950406594753493e-02 9.723470265424252e-03 -3.219570404295734e-02 -3.612356831962050e-01 1.532525922319584e-01 -6.791231975781072e-02
            9.954200564972324e-02 9.685924809529331e-03 1.045731963605947e-01 7.173953737775210e-03 1.531962253922728e-01 -6.782100887490591e-02 -3.216335038184957e-02 -3.612237548554041e-01
            -3.208250810331899e-02 -3.612751631044970e-01 1.531877463348571e-01 -6.785652444448510e-02 1.043876493018163e-01 7.432305374185931e-03 9.932326304189752e-02 9.959300586080666e-03
            1.532762256831705e-01 -6.786154704264413e-02 -3.213132590219320e-02 -3.611628698377793e-01 9.923346814090526e-02 9.900304888057175e-03 1.043645024658277e-01 7.385083521261840e-03
913420000.0000000000 1.069514294083020e-01 -4.966147191230841e-03 1.021177979093256e-01 -2.714956283388197e-03 -1.540248718248424e-01 -3.285048404526600e-01 1.196824657116552e-01 -1.153809489434631e-01
            1.020572434101047e-01 -2.761431256819834e-03 1.069083460370165e-01 -4.893658224494756e-03 1.197058494660625e-01 -1.154987614784954e-01 -1.539668181147952e-01 -3.284650970843100e-01
            -1.539367882609488e-01 -3.284979404732937e-01 1.197519574014364e-01 -1.154561011902014e-01 1.067458199639471e-01 -4.623532328638841e-03 1.017452029487075e-01 -2.531467581249665e-03
            1.197483217581475e-01 -1.153925279223614e-01 -1.540274238247546e-01 -3.284447336848405e-01 1.017976421917697e-01 -2.502638938487026e-03 1.067038058232918e-01 -4.587121034483746e-03
914252500.0000000000 1.009106927829373e-01 -1.559464112240499e-02 9.617793197154373e-02 -1.393810565002781e-02 -2.577553218679509e-01 -2.566005873374432e-01 7.188418268828976e-02 -1.489838070809825e-01
            9.615722921436222e-02 -1.390379238914403e-02 1.009954528862982e-01 -1.564763796680729e-02 7.190458168244397e-02 -1.489792743071111e-01 -2.576749172581296e-01 -2.565673131573216e-01
            -2.576570666216436e-01 -2.565123388921133e-01 7.191937813330801e-02 -1.489639350616394e-01 1.005357455553192e-01 -1.540760434570969e-02 9.574542828939922e-02 -1.375869224534580e-02
            7.191683809652684e-02 -1.489811392879952e-01 -2.577071909296562e-01 -2.566202222649907e-01 9.574743714748862e-02 -1.379219510146585e-02 1.004819575383972e-01 -1.529216754729480e-02
915085000.0000000000 8.948362084533859e-02 -1.989307909429831e-02 8.445412787490651e-02 -1.874894921819549e-02 -3.312545780032795e-01 -1.532222811624815e-01 1.500506486493187e-02 -1.636922034268186e-01
            8.440189773482032e-02 -1.866931629941972e-02 8.942683039681175e-02 -1.987778863627924e-02 1.498813792331532e-02 -1.637446058993924e-01 -3.313236103147989e-01 -1.531947186329415e-01
            -3.313132305368763e-01 -1.531166140999173e-01 1.502488600363512e-02 -1.636904022838577e-01 8.877315186876640e-02 -1.958655310967342e-02 8.379963251608435e-02 -1.855392991981154e-02
            1.493235128375719e-02 -1.637407761005460e-01 -3.313951101319595e-01 -1.531613275341629e-01 8.386481664791839e-02 -1.853906654514122e-02 8.882416576433394e-02 -1.953873491168848e-02
915917500.0000000000 7.791068131530847e-02 -1.547842640354156e-02 7.238248194382496e-02 -1.472671463100047e-02 -3.655384142265850e-01 -2.974271665651967e-02 -4.347471204338664e-02 -1.569414517768495e-01
            7.245102281859807e-02 -1.470451262077284e-02 7.787985628969823e-02 -1.540224784280360e-02 -4.340887026473226e-02 -1.569061535726914e-01 -3.654888208534579e-01 -2.976888774893941e-02
            -3.655588348114049e-01 -2.973471279421767e-02 -4.345927492242602e-02 -1.569329802128891e-01 7.710761191129654e-02 -1.505006318485777e-02 7.148391116046252e-02 -1.433940643741292e-02
            -4.344413518655815e-02 -1.569993309121261e-01 -3.654844020705950e-01 -2.966251883300055e-02 7.154603441029342e-02 -1.437644786647552e-02 7.700144550578397e-02 -1.499850192833073e-02
916750000.0000000000 7.209991541544378e-02 -4.513700356760130e-03 6.604816453619455e-02 -3.918736070169051e-03 -3.546282804796602e-01 9.908576800412576e-02 -9.478313974373169e-02 -1.296098142650597e-01
            6.601559802776720e-02 -3.884516145417623e-03 7.214166120389336e-02 -4.509095555418359e-03 -9.487773619622804e-02 -1.295457588374736e-01 -3.545575591789975e-01 9.917803686138536e-02
            -3.544982906975307e-01 9.918895018721659e-02 -9.483221297113943e-02 -1.296404149026926e-01 7.110850361087241e-02 -3.758697167938406e-03 6.501953565407888e-02 -3.316643934189372e-03
            -9.486332349324955e-02 -1.296371525555247e-01 -3.545340502672861e-01 9.913511957188996e-02 6.503978976132291e-02 -3.217239169412886e-03 7.112503772275880e-02 -3.751627254384366e-03
917582500.0000000000 7.515777743217752e-02 7.327322548148793e-03 6.847095720733566e-02 8.345681899291286e-03 -2.987311795751242e-01 2.165510730115676e-01 -1.319382024748034e-01 -8.650921580925827e-02
            6.841626752996539e-02 8.251957588868288e-03 7.514459125001098e-02 7.375753280083404e-03 -1.319220005818623e-01 -8.660314282586741e-02 -2.986625184415380e-01 2.165745090376080e-01
            -2.987330855453300e-01 2.165519526282796e-01 -1.319373757786790e-01 -8.648854100290640e-02 7.395114712804626e-02 8.625818281483542e-03 6.731179060729020e-02 9.319203348561582e-03
            -1.318852256999824e-01 -8.657386211167141e-02 -2.986889604979248e-01 2.165898039919461e-01 6.731161537057401e-02 9.386364331304513e-03 7.391416665464984e-02 8.583468328498725e-03
918415000.0000000000 8.522216390629264e-02 1.433619004726323e-02 7.824792668358488e-02 1.572597712931228e-02 -2.050676792169011e-01 3.067689017879014e-01 -1.509939374300132e-01 -3.477301783373343e-02
            7.824564109461901e-02 1.573222098891321e-02 8.521813700636982e-02 1.426576658982183e-02 -1.509396689540934e-01 -3.474878221035044e-02 -2.051314266124547e-01 3.068110338747677e-01
            -2.050870027490520e-01 3.068614815663847e-01 -1.509699257807871e-01 -3.473221605857840e-02 8.415713764967962e-02 1.595131363113498e-02 7.717713597930258e-02 1.727586142107079e-02
            -1.510034740125588e-01 -3.471399443850739e-02 -2.051009920096465e-01 3.068010062261732e-01 7.720542647152578e-02 1.724246711375257e-02 8.418508138862950e-02 1.596616986273047e-02
919247500.0000000000 9.739588312595529e-02 1.283438134233013e-02 9.031507291362342e-02 1.484403656974540e-02 -8.639470116307989e-02 3.584703300943355e-01 -1.513594849637392e-01 1.890431624275241e-02
            9.036338284385891e-02 1.481291065190773e-02 9.722370298497499e-02 1.286835699996760e-02 -1.513107026392628e-01 1.886191529689320e-02 -8.640134747844007e-02 3.584757838467971e-01
            -8.644519002637790e-02 3.583803228790793e-01 -1.513088404913930e-01 1.888588639764778e-02 9.652962659372157e-02 1.489136425416546e-02 8.962051246057968e-02 1.677084163456539e-02
            -1.512820456836470e-01 1.895980737842737e-02 -8.644088363716305e-02 3.584382489486505e-01 8.961453881147025e-02 1.676092321962603e-02 9.653663331033170e-02 1.491164127090216e-02
920080000.0000000000 1.053633792577553e-01 3.817852176911272e-03 9.883203052708978e-02 6.139360637288959e-03 4.195419907130315e-02 3.661111527551838e-01 -1.340564536902336e-01 6.874855390097218e-02
            9.887201384039065e-02 6.173120847701200e-03 1.053871484899696e-01 3.822999594918458e-03 -1.340259849470652e-01 6.879970268284261e-02 4.198366119738215e-02 3.660280406084304e-01
            4.192314885527892e-02 3.661107008617187e-01 -1.340785355291636e-01 6.887982544300371e-02 1.051099030859963e-01 6.290567866235670e-03 9.850845782662426e-02 8.379632111955118e-03
            -1.340504771137650e-01 6.877733633250767e-02 4.202942906563402e-02 3.660757859116768e-01 9.857833725101632e-02 8.367938673213527e-03 1.050835645085292e-01 6.200852165263156e-03
920912500.0000000000 1.056129018964537e-01 -8.245928095636760e-03 9.951649985566510e-02 -5.933138438925587e-03 1.649938833137778e-01 3.297551042384930e-01 -1.013826701756629e-01 1.098361693971615e-01
            9.951958142960679e-02 -5.967970002285732e-03 1.056764891619983e-01 -8.294742624189878e-03 -1.013823129532726e-01 1.098599640369271e-01 1.648729392009109e-01 3.297863275688794e-01
            1.648835613101453e-01 3.297657686034792e-01 -1.013093388908877e-01 1.099316783413289e-01 1.058799620278491e-01 -5.792618510883984e-03 9.976370412885030e-02 -3.721309910479346e-03
            -1.013795773401400e-01 1.099733921078108e-01 1.648511058971323e-01 3.298188103163652e-01 9.978236572548302e-02 -3.813002144102430e-03 1.058226937325348e-01 -5.786651731392424e-03
921745000.0000000000 9.796704744047657e-02 -1.776906739263208e-02 9.217383681595145e-02 -1.567494362649406e-02 2.685020626739953e-01 2.540011136798809e-01 -5.631612862238360e-02 1.373870846381770e-01
            9.219599545575102e-02 -1.575628502252790e-02 9.797427546269170e-02 -1.779070079928186e-02 -5.629301544795453e-02 1.374042539988624e-01 2.685948283567746e-01 2.539095370327495e-01
            2.684948777248312e-01 2.539406967423356e-01 -5.637195027580057e-02 1.373577293332517e-01 9.857710496647534e-02 -1.541371704264496e-02 9.296840108349066e-02 -1.378795706446202e-02
            -5.626336021398258e-02 1.374911791933043e-01 2.684548141512587e-01 2.539207315768668e-01 9.298014453698136e-02 -1.366682292646189e-02 9.860740763365987e-02 -1.548556191840825e-02
922577500.0000000000 8.578908353326407e-02 -1.994189257231433e-02 8.007908107357611e-02 -1.829598113811681e-02 3.407073233413045e-01 1.468305735849179e-01 -4.148871046586204e-03 1.473828033442113e-01
            8.001949290073757e-02 -1.840892043099453e-02 8.585660232194338e-02 -1.997522687519638e-02 -4.269594549525650e-03 1.473015627630891e-01 3.407061706818999e-01 1.468037164002005e-01
            3.407461306137995e-01 1.468109271894053e-01 -4.245574328935295e-03 1.473355993216948e-01 8.674676633647820e-02 -1.800702150025662e-02 8.113721250064167e-02 -1.668646545344988e-02
            -4.222735429886436e-03 1.473307879841832e-01 3.407735033034585e-01 1.468184490588735e-01 8.118678491240723e-02 -1.678491023046179e-02 8.674419215259871e-02 -1.796044023362554e-02
923410000.0000000000 7.507689351522140e-02 -1.373376897506842e-02 6.903201393091760e-02 -1.240029240763974e-02 3.720505503726281e-01 2.021980282910024e-02 4.779644826871095e-02 1.376031248292263e-01
            6.905770692581009e-02 -1.243591904388435e-02 7.508792102578581e-02 -1.377505374879246e-02 4.784529256239372e-02 1.375747000668966e-01 3.719918025582032e-01 2.024466838645981e-02
            3.719713766368261e-01 2.026462564760218e-02 4.781548755923436e-02 1.375652860648912e-01 7.603097313092311e-02 -1.198075635466660e-02 7.012151955946203e-02 -1.128680768573006e-02
            4.782245666938282e-02 1.376345673866679e-01 3.719619032931581e-01 2.022012679986316e-02 7.024497624158291e-02 -1.131574526658601e-02 7.609598466613118e-02 -1.201721310911506e-02
924242500.0000000000 7.106058406066258e-02 -1.903932425021662e-03 6.442467044711014e-02 -6.690498813005858e-04 3.570549974608760e-01 -1.103260937717105e-01 9.194624054538621e-02 1.098903872624889e-01
            6.447501520463568e-02 -6.835192667895557e-04 7.102739427581008e-02 -1.837523646613479e-03 9.194245802755847e-02 1.098992310110843e-01 3.570285972931139e-01 -1.102882288401141e-01
            3.570351100498699e-01 -1.103910229112383e-01 9.185090569638125e-02 1.098236763584234e-01 7.200551504859268e-02 -2.797937962341145e-04 6.554935762330548e-02 1.127513741192922e-04
            9.196615821831572e-02 1.098240692200781e-01 3.571040757853116e-01 -1.103486103793117e-01 6.557755462592027e-02 1.315414609586292e-04 7.199478948609639e-02 -3.473455593201970e-04
925075000.0000000000 7.592846477236154e-02 9.715949424004814e-03 6.876129778922598e-02 1.118879263831147e-02 2.969119500336910e-01 -2.277480675977907e-01 1.222921019938491e-01 6.917104722895367e-02
            6.875990300520674e-02 1.116632241735191e-02 7.594785835153239e-02 9.704177218089236e-03 1.222038372487660e-01 6.914306210550858e-02 2.968580419921534e-01 -2.277651811260438e-01
            2.968373188292852e-01 -2.276569710950360e-01 1.221682587979828e-01 6.919657092556354e-02 7.668713258598339e-02 1.118264241600580e-02 6.966510428365391e-02 1.174814566020643e-02
            1.222577737703922e-01 6.913552187563242e-02 2.968924089273028e-01 -2.276623116760087e-01 6.959586752709193e-02 1.171824026527662e-02 7.667950941465501e-02 1.108479456813520e-02
925907500.0000000000 8.712876876118782e-02 1.521710916417887e-02 7.970993476641393e-02 1.726477880534975e-02 1.994738030997315e-01 -3.163458922494592e-01 1.358199943010318e-01 2.207163633680049e-02
            7.971458004081798e-02 1.723856817971579e-02 8.711613610578546e-02 1.516754408861129e-02 1.359443487246571e-01 2.195722520215823e-02 1.995231984906471e-01 -3.163808615338483e-01
            1.994966661442761e-01 -3.163387949730878e-01 1.358049591235140e-01 2.198014180292033e-02 8.770123378224365e-02 1.668302683634345e-02 8.034553249257718e-02 1.783840712274426e-02
            1.358154037320691e-01 2.203576241232859e-02 1.995003407202660e-01 -3.163619665488108e-01 8.033146073225994e-02 1.788234710815103e-02 8.768191586842318e-02 1.677736501971688e-02
926740000.0000000000 9.911296928859809e-02 1.193940191329831e-02 9.176593250813558e-02 1.466299227709525e-02 7.802602981681531e-02 -3.652413393225847e-01 1.327885825525563e-01 -2.558906473612038e-02
            9.182951597623495e-02 1.464838367390420e-02 9.903335898895708e-02 1.196195997154719e-02 1.328549443452213e-01 -2.558638797785440e-02 7.799872027873235e-02 -3.652784491568884e-01
            7.807813521866387e-02 -3.652506547581860e-01 1.328463790580363e-01 -2.553416591191461e-02 9.968405435490679e-02 1.376335148806300e-02 9.229990830104691e-02 1.540964763277907e-02
            1.328658489428119e-01 -2.556898972213150e-02 7.802943468518417e-02 -3.652936694772583e-01 9.223476322385328e-02 1.548466261024901e-02 9.977726830029796e-02 1.372909549608253e-02
927572500.0000000000 1.059960033671161e-01 1.892277615430290e-03 9.923690964649474e-02 4.921565910210216e-03 -5.202329108669078e-02 -3.696375457679029e-01 1.145708743538758e-01 -6.876352449784474e-02
            9.920726780286730e-02 4.929311718316851e-03 1.060726163837203e-01 1.849518827323542e-03 1.145933894142636e-01 -6.887914434981279e-02 -5.204353806123702e-02 -3.696676399154240e-01
            -5.195820155202506e-02 -3.696976145564896e-01 1.146427762965160e-01 -6.871491643205219e-02 1.068221516073670e-01 3.691170646286120e-03 9.958462654438271e-02 5.972363091070750e-03
            1.146133303099580e-01 -6.879061024654494e-02 -5.205152284170031e-02 -3.695820600034219e-01 9.963220276659158e-02 5.948018808148578e-03 1.068137050032287e-01 3.722532518694604e-03
928405000.0000000000 1.047706577122983e-01 -1.037938248749890e-02 9.858292079641247e-02 -7.108216393226006e-03 -1.755413968912654e-01 -3.297211672067779e-01 8.310326841491832e-02 -1.032953568721206e-01
            9.864648495433814e-02 -7.042468161015873e-03 1.047524970090705e-01 -1.033911901095794e-02 8.306947917179824e-02 -1.033014807113192e-01 -1.755364938731059e-01 -3.297990812794992e-01
            -1.755684291608783e-01 -3.297674283588981e-01 8.297789472112141e-02 -1.033601909760858e-01 1.058468429242137e-01 -8.405064011987332e-03 9.924018579499851e-02 -6.008034579213531e-03
            8.310384126684731e-02 -1.033038180293944e-01 -1.755756593062768e-01 -3.296885515994778e-01 9.915187714342044e-02 -5.968716738642353e-03 1.058097590646308e-01 -8.438187032369149e-03
929237500.0000000000 9.582435044074247e-02 -1.885739623600191e-02 9.019284416835634e-02 -1.584507451870758e-02 -2.786505519258626e-01 -2.503000241944225e-01 4.121871015368373e-02 -1.250297749711393e-01
            9.020012528455830e-02 -1.593608828824011e-02 9.583634513523376e-02 -1.899958739048595e-02 4.138182522633269e-02 -1.250035275777462e-01 -2.786463011907858e-01 -2.502614516286962e-01
            -2.786749442042668e-01 -2.503176564676270e-01 4.129855472786770e-02 -1.249787727706060e-01 9.714585967557361e-02 -1.719153626147210e-02 9.101439201552385e-02 -1.479663812323329e-02
            4.127408376307843e-02 -1.249264340599352e-01 -2.786005489172441e-01 -2.502449128559814e-01 9.098743205747421e-02 -1.480124886539125e-02 9.716245555421311e-02 -1.710555695425596e-02
930070000.0000000000 8.339284973192365e-02 -1.959622756094043e-02 7.800822316489205e-02 -1.712500663122822e-02 -3.489752512854664e-01 -1.396954193214192e-01 -5.702331629324136e-03 -1.302829979783310e-01
            7.806925917689846e-02 -1.710893102520377e-02 8.329267466826559e-02 -1.965091679566444e-02 -5.695064336993656e-03 -1.302923588238057e-01 -3.490002811029148e-01 -1.397771160966868e-01
            -3.489679035384184e-01 -1.397005538766582e-01 -5.671565665826625e-03 -1.303062966268032e-01 8.493399981574430e-02 -1.799588174381017e-02 7.898675204753536e-02 -1.614848444023011e-02
            -5.701798785056076e-03 -1.302832640584184e-01 -3.489853239101399e-01 -1.397275428890191e-01 7.895860916793114e-02 -1.617349847687429e-02 8.490101081561836e-02 -1.797572684975427e-02
930902500.0000000000 7.346052548039153e-02 -1.185949348856129e-02 6.798244683503230e-02 -1.000248319233307e-02 -3.772146035073877e-01 -1.048408952198575e-02 -5.108449771197394e-02 -1.180210496728814e-01
            6.798937557921189e-02 -9.979913190760930e-03 7.347509019851699e-02 -1.189721515886849e-02 -5.116449045180779e-02 -1.180047281478289e-01 -3.771707024333823e-01 -1.056400589084360e-02
            -3.772163947841441e-01 -1.058429099636915e-02 -5.114566245436770e-02 -1.179840765906472e-01 7.493438150445594e-02 -1.065980546310997e-02 6.894826851977257e-02 -9.162314069947299e-03
            -5.110809593118836e-02 -1.179656324333498e-01 -3.772509005618981e-01 -1.048385357995499e-02 6.901919073706966e-02 -9.177225423852142e-03 7.497002603336103e-02 -1.064912836683468e-02
931735000.0000000000 7.104724352527103e-02 4.047554351281987e-04 6.515238020770432e-02 2.018768829682340e-03 -3.582505822528243e-01 1.212794181381045e-01 -8.814405268433524e-02 -9.031507407554565e-02
            6.503803639234797e-02 2.060529972230528e-03 7.100562851495100e-02 4.304217095671441e-04 -8.807959428246534e-02 -9.024222773583884e-02 -3.582317066269058e-01 1.212760014782987e-01
            -3.583076291597988e-01 1.212170497269022e-01 -8.811744224954948e-02 -9.029036135187060e-02 7.228087120775889e-02 1.538734783330341e-03 6.609381604968208e-02 2.657865873625806e-03
            -8.812365328404534e-02 -9.031697650309344e-02 -3.582733774575019e-01 1.211814738695861e-01 6.612981775406546e-02 2.689161345042224e-03 7.233466803133484e-02 1.489449096816658e-03
932567500.0000000000 7.733240910787546e-02 1.127942459627980e-02 7.085939316397656e-02 1.299343584171531e-02 -2.940266418274448e-01 2.381534883202994e-01 -1.116689021403052e-01 -5.218559894193648e-02
            7.082998219894762e-02 1.297266440475280e-02 7.721982926446977e-02 1.136994656384170e-02 -1.117420268804720e-01 -5.222973350665370e-02 -2.940984151606706e-01 2.381549512887401e-01
            -2.940547650408931e-01 2.381531165024119e-01 -1.117169409514217e-01 -5.224429227124380e-02 7.836535722066301e-02 1.236150239955205e-02 7.175344732343827e-02 1.349968128993073e-02
            -1.117544907813607e-01 -5.231537201369268e-02 -2.940363587391296e-01 2.382472324236337e-01 7.158278851553024e-02 1.357260901549979e-02 7.841946214251663e-02 1.224234053433205e-02
933400000.0000000000 8.900229105822813e-02 1.540521334240759e-02 8.232353015144434e-02 1.727142970358060e-02 -1.932343551295019e-01 3.249507727099002e-01 -1.202248635594662e-01 -9.903026745146357e-03
            8.234485959737113e-02 1.731154820588182e-02 8.900497058960788e-02 1.537745924542892e-02 -1.202539365160094e-01 -9.922227467591407e-03 -1.932611872092570e-01 3.248983720827995e-01
            -1.932026184292189e-01 3.249363583679211e-01 -1.201432134603721e-01 -9.959034121860447e-03 8.995326275484791e-02 1.639169627937486e-02 8.304976038196839e-02 1.792319398317213e-02
            -1.202064752172026e-01 -1.001376978531280e-02 -1.932385265559097e-01 3.249420464986266e-01 8.303385514077168e-02 1.796400877016521e-02 8.994530984759211e-02 1.643009598070027e-02
934232500.0000000000 1.004749219763364e-01 1.076461348841723e-02 9.370663337825262e-02 1.305810154856160e-02 -6.943095688388204e-02 3.710846459653375e-01 -1.141240545240936e-01 3.141709796247692e-02
            9.383669014053214e-02 1.314848452615970e-02 1.004922302407204e-01 1.072454311883238e-02 -1.141915564393872e-01 3.149051269691639e-02 -6.950146540016168e-02 3.711007424102511e-01
            -6.928452155068814e-02 3.710406168786063e-01 -1.142105294381993e-01 3.140651006104209e-02 1.013265554634740e-01 1.200327923393370e-02 9.435731312922006e-02 1.398213663794312e-02
            -1.141888108924595e-01 3.141375418595040e-02 -6.943145046076291e-02 3.711302317584655e-01 9.442913945069113e-02 1.401271716989700e-02 1.012642770919920e-01 1.202201084078586e-02
935065000.0000000000 1.060760558271570e-01 -4.610923945961289e-05 9.955853511904976e-02 2.597508463307780e-03 6.200954246646950e-02 3.721420635916186e-01 -9.517140571055598e-02 6.799677117946896e-02
            9.960886630619602e-02 2.639630709051556e-03 1.059816204570651e-01 -1.020430723732189e-04 -9.520304365939219e-02 6.788771003340473e-02 6.200643939286744e-02 3.722216566869531e-01
            6.192515697601440e-02 3.721493927190382e-01 -9.512607101786340e-02 6.798771130517205e-02 1.069586754697610e-01 1.394600065640501e-03 1.004288239418815e-01 3.690761011218775e-03
            -9.514878420047870e-02 6.789474372417947e-02 6.199996806533083e-02 3.720825858613571e-01 1.004470447810739e-01 3.677384836187574e-03 1.070021414155757e-01 1.313883907190857e-03
935897500.0000000000 1.032950174286415e-01 -1.198348718181522e-02 9.726416661308987e-02 -9.227851472489470e-03 1.859019356430313e-01 3.287073991604685e-01 -6.498972069856147e-02 9.591791885153528e-02
            9.727972013922848e-02 -9.264806032570513e-03 1.032741684472904e-01 -1.195031156532085e-02 -6.499339046224024e-02 9.596888569130017e-02 1.858747050649654e-01 3.287339490145488e-01
            1.858602161754553e-01 3.287080310695557e-01 -6.502394024937577e-02 9.595620808828845e-02 1.044359914116226e-01 -1.040206630316899e-02 9.832959375297697e-02 -8.074137495752224e-03
            -6.505372152098518e-02 9.596301489931551e-02 1.858885480744309e-01 3.287105899425441e-01 9.827510005288777e-02 -8.071642077998540e-03 1.044861005764079e-01 -1.039696546664070e-02
936730000.0000000000 9.334896880490240e-02 -1.921363061883049e-02 8.758064695801825e-02 -1.673956244247428e-02 2.880242634260737e-01 2.457225142669013e-01 -2.669520728065812e-02 1.119264828776427e-01
            8.758748162166827e-02 -1.671664251874041e-02 9.337955789360788e-02 -1.913874687477909e-02 -2.670861616769077e-02 1.118558753105605e-01 2.880592831125287e-01 2.457733912126789e-01
            2.880698647199461e-01 2.457054693724827e-01 -2.677922353394542e-02 1.118829388850436e-01 9.487564315621297e-02 -1.774248931801885e-02 8.910509732574684e-02 -1.560676756161526e-02
            -2.670932585600354e-02 1.119263602629163e-01 2.881021557780493e-01 2.457310841787747e-01 8.905175008210095e-02 -1.573895946792722e-02 9.492379982483275e-02 -1.769293605912485e-02
937562500.0000000000 8.105159405673905e-02 -1.815968580746629e-02 7.538977588962309e-02 -1.621221917769453e-02 3.563209030641615e-01 1.320474370058204e-01 1.493672377485867e-02 1.128183268554064e-01
            7.544186917011837e-02 -1.621011804369421e-02 8.108611577360393e-02 -1.815371966846481e-02 1.492466462320403e-02 1.127446562725395e-01 3.563049705835057e-01 1.320371161235015e-01
            3.563203354141121e-01 1.319527844379880e-01 1.500565599548751e-02 1.128308281989658e-01 8.274186951979497e-02 -1.691070312793418e-02 7.715311438877555e-02 -1.545500186328646e-02
            1.493686169472546e-02 1.126833673489893e-01 3.562980067722249e-01 1.319765726278023e-01 7.713761438510916e-02 -1.544162548199830e-02 8.274167692738461e-02 -1.684885933539026e-02
938395000.0000000000 7.235030598578802e-02 -9.259563262902712e-03 6.630591517058024e-02 -7.662610355476818e-03 3.812142632725373e-01 5.694875566830580e-04 5.363247570190743e-02 9.812955763249571e-02
            6.628259642504106e-02 -7.714998025409336e-03 7.234576155365302e-02 -9.203995617600285e-03 5.366646663033821e-02 9.812590937732470e-02 3.812038785883608e-01 5.422108421969878e-04
            3.811432716462697e-01 5.130411388046219e-04 5.369101027748602e-02 9.818072384010242e-02 7.420714961107988e-02 -8.315178822853469e-03 6.828847189934577e-02 -7.286077563304960e-03
            5.365531298570927e-02 9.817582784254926e-02 3.811385753271311e-01 5.854719215900065e-04 6.825683400715107e-02 -7.262127207958127e-03 7.419900440051701e-02 -8.260215152852366e-03
939227500.0000000000 7.167945535174308e-02 3.334673972705589e-03 6.486998982344261e-02 4.662327223817271e-03 3.583671697542935e-01 -1.319613500242897e-01 8.341287985202418e-02 7.078665898535656e-02
            6.500437073844315e-02 4.714981306563963e-03 7.167503333980907e-02 3.422158720516939e-03 8.341243954159588e-02 7.075899564727518e-02 3.583805492601586e-01 -1.319087751269278e-01
            3.582785783939855e-01 -1.319542796637097e-01 8.328375212593785e-02 7.078121278852269e-02 7.340377349793804e-02 3.950322806537650e-03 6.696464685263738e-02 4.659684510313576e-03
            8.340808317816557e-02 7.077879886645094e-02 3.582693830070798e-01 -1.319050570069773e-01 6.698853626023164e-02 4.641838320587246e-03 7.336795201023484e-02 3.916112765270686e-03
940060000.0000000000 7.943019673432974e-02 1.324453927640749e-02 7.205350014468365e-02 1.490835293031876e-02 2.902373905677735e-01 -2.479829826773710e-01 1.003836127284366e-01 3.575784430468789e-02
            7.215404250385339e-02 1.485839619337783e-02 7.946493416691840e-02 1.328044664256251e-02 1.003641928047226e-01 3.574803840472377e-02 2.902652740159702e-01 -2.479956323827552e-01
            2.902147929011723e-01 -2.479952429469872e-01 1.004183301099253e-01 3.578940300211871e-02 8.087418933486885e-02 1.342944499302519e-02 7.383525188863826e-02 1.440901775222193e-02
            1.004209373278613e-01 3.582734086062161e-02 2.902188757093205e-01 -2.479189846723678e-01 7.382212833044489e-02 1.446826652926521e-02 8.082513643624380e-02 1.346329129132189e-02
940892500.0000000000 9.180220290146031e-02 1.579174815962317e-02 8.398896410786812e-02 1.792500515438253e-02 1.863610165314563e-01 -3.325825443310149e-01 1.039942391659298e-01 -1.389316700115986e-03
            8.393142124421327e-02 1.800325447782376e-02 9.182184581931911e-02 1.573014928294057e-02 1.040851901078415e-01 -1.455096428352049e-03 1.864123707294578e-01 -3.325864257480604e-01
            1.863363253398424e-01 -3.325585793936111e-01 1.040381326803545e-01 -1.433262832103959e-03 9.272575369800992e-02 1.567801822008547e-02 8.545942698486049e-02 1.723635728676927e-02
            1.039501225925053e-01 -1.422426011825257e-03 1.863272433442340e-01 -3.326207771402774e-01 8.540170116402747e-02 1.726710726768577e-02 9.272880004559213e-02 1.575617232664880e-02
941725000.0000000000 1.026862826511578e-01 9.694395736284209e-03 9.471727166878996e-02 1.258398773172957e-02 6.045886362976296e-02 -3.757638549788153e-01 9.522495658873117e-02 -3.643235894731105e-02
            9.466777154540940e-02 1.263507003721765e-02 1.026977280715549e-01 9.732563622874751e-03 9.520999790120079e-02 -3.651034699313142e-02 6.051047194051698e-02 -3.757193255937645e-01
            6.044308272843651e-02 -3.758721731021933e-01 9.528232555779206e-02 -3.652478581033283e-02 1.031616439036868e-01 9.562118300211029e-03 9.575615322291441e-02 1.181945318415211e-02
            9.529004045052927e-02 -3.648839250026113e-02 6.046036695854459e-02 -3.757964691974633e-01 9.585830488879296e-02 1.178344768267371e-02 1.031262997788238e-01 9.519593048781191e-03
942557500.0000000000 1.070351238492972e-01 -1.853185509190466e-03 9.933814850717754e-02 1.754740182103913e-03 -7.195923899027379e-02 -3.735647459590395e-01 7.575141168773106e-02 -6.623230403046181e-02
            9.931377751081261e-02 1.815962062565278e-03 1.070253387497746e-01 -1.791339885111706e-03 7.571518482138252e-02 -6.626998941569601e-02 -7.202881232675112e-02 -3.735888464713518e-01
            -7.195311168420515e-02 -3.736250081746043e-01 7.571181167766085e-02 -6.632360634043012e-02 1.069685869090794e-01 -1.935334479459303e-03 1.000975334195464e-01 9.288377469816290e-04
            7.577299516209932e-02 -6.631036346665208e-02 -7.194018931126811e-02 -3.735990933399596e-01 1.000817586653085e-01 1.012288725075713e-03 1.069873489312056e-01 -1.921067968270169e-03
943390000.0000000000 1.029588987648148e-01 -1.331244358926636e-02 9.578319763381733e-02 -9.351030249732516e-03 -1.957560923587847e-01 -3.267281448738361e-01 4.719715953736577e-02 -8.779540307120889e-02
            9.569273839185177e-02 -9.350619656914519e-03 1.029031339392497e-01 -1.336317211760478e-02 4.717027457504766e-02 -8.775204449191946e-02 -1.957485210214298e-01 -3.266747588660940e-01
            -1.958178908440176e-01 -3.268103321899252e-01 4.725875590363350e-02 -8.777498252360891e-02 1.024423465715387e-01 -1.314992435464636e-02 9.627835341874526e-02 -1.012494129774056e-02
            4.716149170592705e-02 -8.778793220217573e-02 -1.957337768320706e-01 -3.267016996369961e-01 9.629195535787910e-02 -1.010978538785126e-02 1.025215018382892e-01 -1.326733806858318e-02
944222500.0000000000 9.243353871311218e-02 -1.949243583616048e-02 8.578882966317085e-02 -1.532713043062631e-02 -2.967362223958594e-01 -2.403255378656642e-01 1.258905223114183e-02 -9.795633095461641e-02
            8.578614165535328e-02 -1.536531732571605e-02 9.239904350730124e-02 -1.954204549592947e-02 1.264460049133041e-02 -9.805798578829514e-02 -2.967887027196812e-01 -2.402990633976306e-01
            -2.967295083378690e-01 -2.403165219427621e-01 1.266345595251563e-02 -9.801455177561427e-02 9.139117737524610e-02 -1.905327115220786e-02 8.616465833079412e-02 -1.613077008290890e-02
            1.258781425028356e-02 -9.796471458967496e-02 -2.968021513657215e-01 -2.403850863243871e-01 8.614776346580266e-02 -1.615165114591652e-02 9.142975766153440e-02 -1.903132862502937e-02
945055000.0000000000 8.059045088112389e-02 -1.726126219160443e-02 7.426100454475647e-02 -1.319697291088562e-02 -3.626379603713873e-01 -1.237358880726102e-01 -2.341478101403966e-02 -9.468202623796899e-02
            7.419998427018594e-02 -1.329089102772666e-02 8.049030236626367e-02 -1.725540647278279e-02 -2.344180068491758e-02 -9.472235205511877e-02 -3.625860146095337e-01 -1.236769954339998e-01
            -3.626293937455647e-01 -1.237171529718289e-01 -2.338841724896381e-02 -9.469466369815280e-02 7.901880152129739e-02 -1.629064889053305e-02 7.439062108837202e-02 -1.389671988890112e-02
            -2.344363720926638e-02 -9.467005958932027e-02 -3.626509873069059e-01 -1.236254826673030e-01 7.445683042486757e-02 -1.390120673389770e-02 7.910131195966935e-02 -1.628141659056391e-02
945887500.0000000000 7.315663783110722e-02 -7.697388486252429e-03 6.703458322378966e-02 -3.890576636870151e-03 -3.840484087834311e-01 9.615743962158422e-03 -5.526677311796564e-02 -7.809303523173278e-02
            6.701040933592428e-02 -3.847739453508959e-03 7.309138350304047e-02 -7.743031202786868e-03 -5.523368864455678e-02 -7.806962352894860e-02 -3.839807216209600e-01 9.558408930745946e-03
            -3.839632187466013e-01 9.694306591125811e-03 -5.521090999078897e-02 -7.809699592321710e-02 7.144841211116862e-02 -6.078656905264311e-03 6.690142116811273e-02 -4.415485559880809e-03
            -5.524465221904046e-02 -7.811109431159613e-02 -3.839898535141447e-01 9.591449308249220e-03 6.689253411534421e-02 -4.394691191380719e-03 7.139868122090219e-02 -5.993752307713689e-03
946720000.0000000000 7.397994599267958e-02 4.409791654589584e-03 6.779216006858564e-02 8.182805144271775e-03 -3.571591097378995e-01 1.422742886569485e-01 -7.771264648865817e-02 -5.143260887376194e-02
            6.781521435195847e-02 8.128017425632123e-03 7.397825206153896e-02 4.402527266498736e-03 -7.770926924465400e-02 -5.148919029007113e-02 -3.570911246123633e-01 1.423688476658043e-01
            -3.571433922438019e-01 1.423901639814148e-01 -7.773099604494582e-02 -5.156369903718463e-02 7.212876196808125e-02 6.788280285608931e-03 6.746403231462109e-02 7.740771881463568e-03
            -7.769996367743018e-02 -5.150450573678039e-02 -3.570842945209118e-01 1.423269678828677e-01 6.747426705313307e-02 7.733723252283593e-03 7.217775648100838e-02 6.814107719723393e-03
947552500.0000000000 8.262320438796122e-02 1.276740113921709e-02 7.639097957356993e-02 1.661081418271205e-02 -2.853995252878888e-01 2.570900307769699e-01 -8.829148118145849e-02 -1.980224102775167e-02
            7.639958441524142e-02 1.665476809608980e-02 8.268595860963386e-02 1.279205282875699e-02 -8.832844734278478e-02 -1.978784349839890e-02 -2.853966352542200e-01 2.571667981762266e-01
            -2.854783629414701e-01 2.571848212261840e-01 -8.836037927598983e-02 -1.976009165026340e-02 8.104888683256475e-02 1.609787045083307e-02 7.586733340271130e-02 1.644555571764455e-02
            -8.825477583665824e-02 -1.981722965594042e-02 -2.854387536440535e-01 2.571695734611685e-01 7.590205258772971e-02 1.640974744922044e-02 8.111736336254578e-02 1.595069423330399e-02
948385000.0000000000 9.466064295432028e-02 1.325796606886241e-02 8.849992837185468e-02 1.743421690715892e-02 -1.787855333072600e-01 3.392376981332013e-01 -8.721822500082034e-02 1.194013431263651e-02
            8.841198725736994e-02 1.744653528494917e-02 9.464030453820400e-02 1.322476311804577e-02 -8.723169427866682e-02 1.196001140517324e-02 -1.788147770232315e-01 3.392432767399126e-01
            -1.786698120003691e-01 3.391689670575946e-01 -8.721899975724587e-02 1.201866151176145e-02 9.358146893629118e-02 1.727211386329834e-02 8.790604127802878e-02 1.752510325199316e-02
            -8.724868815625120e-02 1.202371327006286e-02 -1.787531040904929e-01 3.392172099614386e-01 8.794500860028662e-02 1.759300721524527e-02 9.356520940792537e-02 1.723937585147195e-02
949217500.0000000000 1.040130021296272e-01 5.718197960415596e-03 9.815800976497142e-02 1.026862945146963e-02 -5.119701115841128e-02 3.793730880341977e-01 -7.602345938388907e-02 4.072797559103248e-02
            9.819353245451769e-02 1.039523396432361e-02 1.039909589655734e-01 5.816624323290704e-03 -7.602595775409877e-02 4.076294299611728e-02 -5.118347334806556e-02 3.793422485593174e-01
            -5.114512211152533e-02 3.793619516526017e-01 -7.612393765552786e-02 4.069311831561255e-02 1.037459246962513e-01 1.021747363686702e-02 9.751526776624003e-02 1.065888394965809e-02
            -7.610388038403006e-02 4.076911047710897e-02 -5.115115902039980e-02 3.794694029642148e-01 9.756917657508143e-02 1.061185432261417e-02 1.037230565586467e-01 1.021643947878735e-02
950050000.0000000000 1.062476432874218e-01 -5.975275390759406e-03 1.009555785710214e-01 -1.253152664105931e-03 8.184522211685706e-02 3.737931239393238e-01 -5.631761414130822e-02 6.378077781718489e-02
            1.009809205834468e-01 -1.343868399703917e-03 1.061796858829525e-01 -5.980915198955143e-03 -5.636753131569405e-02 6.369857914245519e-02 8.191461682176972e-02 3.738208720110739e-01
            8.181840930997877e-02 3.738168051672656e-01 -5.628453467101351e-02 6.377050883165719e-02 1.067268137784249e-01 -1.612630942589049e-03 1.005416573693612e-01 -8.693226690977171e-04
            -5.633731579096164e-02 6.381599539205420e-02 8.183643855005436e-02 3.737890339317804e-01 1.003626625735203e-01 -8.641411261927094e-04 1.066657344201808e-01 -1.555965863033289e-03
950882500.0000000000 1.003013991594792e-01 -1.647852490442072e-02 9.557851562504092e-02 -1.199536097915000e-02 2.051738202801527e-01 3.236694052772833e-01 -2.977870509221848e-02 7.896786159178697e-02
            9.566958710008196e-02 -1.195732499333629e-02 1.002773556829715e-01 -1.648270764077455e-02 -2.976531707000137e-02 7.884592524316052e-02 2.051600303445907e-01 3.235804768240763e-01
            2.051850692517707e-01 3.235656790728471e-01 -2.974992846207948e-02 7.882781556892496e-02 1.013689924989152e-01 -1.232590657183906e-02 9.520665864540712e-02 -1.137853374024661e-02
            -2.973635622520994e-02 7.894349335650547e-02 2.052210441717714e-01 3.235930714399334e-01 9.519534535812525e-02 -1.138474125517067e-02 1.014290197149911e-01 -1.225646248695205e-02
951715000.0000000000 8.888538642227189e-02 -2.063125149054654e-02 8.472292190264649e-02 -1.653600415387272e-02 3.046464895064125e-01 2.340816210480882e-01 8.509953210808968e-04 8.350372826542181e-02
            8.474856043527834e-02 -1.662064526210430e-02 8.890983166456047e-02 -2.058311690203581e-02 8.728418513910689e-04 8.344165779673564e-02 3.047237794190686e-01 2.340185880911050e-01
            3.046356708052712e-01 2.340099120693244e-01 8.198449560057712e-04 8.347496763908661e-02 9.022484260142148e-02 -1.688707539578832e-02 8.421547130396348e-02 -1.602139365590266e-02
            8.078956099170237e-04 8.342689081021848e-02 3.046817677747036e-01 2.340133317114965e-01 8.421128873683309e-02 -1.600023370702109e-02 9.029987998185592e-02 -1.691978710801854e-02
952547500.0000000000 7.748628424708924e-02 -1.628032904258312e-02 7.343026410410934e-02 -1.285584224290853e-02 3.677443827203017e-01 1.148031430145968e-01 3.107517769515089e-02 7.627377665679963e-02
            7.340947150094423e-02 -1.281768989396066e-02 7.743373361582247e-02 -1.624430762716299e-02 3.104993093941761e-02 7.621662545508458e-02 3.677821685691405e-01 1.148304245243937e-01
            3.678374609485092e-01 1.148686537607513e-01 3.104458689582832e-02 7.623099521350396e-02 7.867925810502609e-02 -1.295370852488159e-02 7.276340777114235e-02 -1.219582421898282e-02
            3.107741272588007e-02 7.622007557544797e-02 3.678328526628493e-01 1.148588194044999e-01 7.281074079019202e-02 -1.228485066015928e-02 7.872883010493539e-02 -1.290604886477120e-02
953380000.0000000000 7.180456411365059e-02 -5.422310864123615e-03 6.743281316139155e-02 -2.572038801669976e-03 3.855804602424304e-01 -1.984282905194201e-02 5.580207407713557e-02 5.808279434607913e-02
            6.740305785683044e-02 -2.545906910043043e-03 7.180616502778193e-02 -5.302367433669784e-03 5.585587255981103e-02 5.801083213301075e-02 3.855937443177677e-01 -1.983129641643719e-02
            3.856366187179837e-01 -1.982957235300466e-02 5.584279170247779e-02 5.803655351588203e-02 7.257616476449098e-02 -2.211486619784293e-03 6.663190133282382e-02 -1.713245698322277e-03
            5.588184500088393e-02 5.801015818375774e-02 3.855906258656639e-01 -1.979151032074654e-02 6.669621370777538e-02 -1.692279245160914e-03 7.267304746972152e-02 -2.185585611851837e-03
954212500.0000000000 7.463910806162807e-02 6.693453313729066e-03 6.989154261218619e-02 9.099696532788019e-03 3.547254867920508e-01 -1.523945405085108e-01 7.114529137651918e-02 3.252997773380337e-02
            6.987668778386340e-02 9.242041205579175e-03 7.472305250509578e-02 6.656877913135820e-03 7.111773774695675e-02 3.241379971567507e-02 3.548377248434929e-01 -1.524389088393307e-01
            3.547082503375620e-01 -1.523597350067950e-01 7.109141776164359e-02 3.250436894789320e-02 7.513606842880220e-02 1.011410917988219e-02 6.896257352153223e-02 1.031786996675805e-02
            7.113166682751269e-02 3.245830208025297e-02 3.547365547992373e-01 -1.524135793684498e-01 6.890581954027025e-02 1.027498010806813e-02 7.509602383720036e-02 1.014283578115710e-02
955045000.0000000000 8.489866894027233e-02 1.371440170969471e-02 7.946809016197268e-02 1.623157838047792e-02 2.796438047492250e-01 -2.654685829854710e-01 7.549405031351750e-02 4.512905455340933e-03
            7.948519805492446e-02 1.625707120048488e-02 8.480552837947730e-02 1.368336687974846e-02 7.549007266353737e-02 4.563082263110059e-03 2.796021601890191e-01 -2.655762188742388e-01
            2.796095477160804e-01 -2.654700071272041e-01 7.552127466495517e-02 4.591059184706538e-03 8.514251111972339e-02 1.777338073865700e-02 7.847452652102713e-02 1.788400885080266e-02
            7.550052646738241e-02 4.471285614704065e-03 2.796626017230727e-01 -2.653893780448667e-01 7.841818356737654e-02 1.786370565069329e-02 8.513735847699913e-02 1.781164900609135e-02
955877500.0000000000 9.707141033815336e-02 1.242687659465802e-02 9.140485341511634e-02 1.536227935410701e-02 1.705566011461909e-01 -3.448226570751554e-01 7.011558315938679e-02 -2.176188838141214e-02
            9.144294960317238e-02 1.530531645505997e-02 9.709453188708372e-02 1.231606885598466e-02 7.013735776574177e-02 -2.180213955199328e-02 1.705167214939403e-01 -3.448451824939627e-01
            1.705905504666908e-01 -3.448466088664248e-01 7.008950888104390e-02 -2.176942878115093e-02 9.763178947846442e-02 1.712454357651995e-02 9.058860876101982e-02 1.747036721259251e-02
            7.014396003881566e-02 -2.188262821664774e-02 1.705691844639328e-01 -3.447715583843271e-01 9.061955300443235e-02 1.749263248498918e-02 9.762706187576327e-02 1.718976009408773e-02
956710000.0000000000 1.055871796115683e-01 3.364385006569861e-03 9.993323767672456e-02 6.866710792979980e-03 4.178396136500028e-02 -3.817054729507572e-01 5.674727699721372e-02 -4.395707217797575e-02
            1.000032392285213e-01 6.778591955451304e-03 1.055511819999955e-01 3.307728723902007e-03 5.677868578291463e-02 -4.394206654749600e-02 4.175251215551396e-02 -3.817471635511792e-01
            4.176796571564857e-02 -3.817987403629239e-01 5.672527599890803e-02 -4.400058201363004e-02 1.067021872438105e-01 8.694712320357890e-03 9.959030349032788e-02 9.419801282142915e-03
            5.681703917400414e-02 -4.390276267560603e-02 4.179364107399652e-02 -3.817352508570374e-01 9.949558748186957e-02 9.381662500891046e-03 1.067421783835792e-01 8.696108567703503e-03
957542500.0000000000 1.062007862998284e-01 -9.106516142710601e-03 1.009048512031414e-01 -5.207211895260736e-03 -9.143654135934536e-02 -3.728562770907098e-01 3.717462044105987e-02 -6.039376276895686e-02
            1.009014119942075e-01 -5.162729934169412e-03 1.062237990897015e-01 -9.010222976479897e-03 3.712444138460142e-02 -6.036927827167313e-02 -9.145433316803532e-02 -3.729125133523988e-01
            -9.146023704442829e-02 -3.728582811718172e-01 3.713039425787814e-02 -6.039899463197613e-02 1.082809111534064e-01 -3.451026910668821e-03 1.011403681399095e-01 -2.322849396656120e-03
            3.710639156631477e-02 -6.039192558283780e-02 -9.149667195908158e-02 -3.728491140447164e-01 1.011392889337105e-01 -2.314207928196079e-03 1.082428953516574e-01 -3.381369193467188e-03
958375000.0000000000 9.870667510553503e-02 -1.902993190746816e-02 9.397369934817945e-02 -1.507327246294330e-02 -2.139920583339467e-01 -3.194825381772087e-01 1.282944964596458e-02 -6.920262738870163e-02
            9.401880836835852e-02 -1.512194422175605e-02 9.874989554333549e-02 -1.909867056469973e-02 1.291555428050512e-02 -6.913259880599670e-02 -2.139442843834231e-01 -3.194362551822766e-01
            -2.139395337356481e-01 -3.195093340655720e-01 1.286255187566838e-02 -6.913426954528286e-02 1.017261284906991e-01 -1.359238629781564e-02 9.486794133218929e-02 -1.225058361027481e-02
            1.286883045770025e-02 -6.913421651929043e-02 -2.139269977303992e-01 -3.194902356237158e-01 9.480748011831806e-02 -1.237391959047211e-02 1.016672970481062e-01 -1.360588456190356e-02
959207500.0000000000 8.643718824189325e-02 -2.191199758820484e-02 8.227409430621645e-02 -1.809587949313662e-02 -3.116541735967533e-01 -2.270317599664962e-01 -1.347617757691030e-02 -6.848710131632417e-02
            8.226343415128173e-02 -1.806753106831779e-02 8.652620943807537e-02 -2.184798488168832e-02 -1.354920473224700e-02 -6.845896800549343e-02 -3.115834368055397e-01 -2.269815216759427e-01
            -3.115972126589398e-01 -2.270000432176580e-01 -1.342507801237455e-02 -6.846049768201343e-02 9.007910546607746e-02 -1.706618163491721e-02 8.366573981417683e-02 -1.575940051322098e-02
            -1.352220834129875e-02 -6.851314648429163e-02 -3.115513393225052e-01 -2.270010626343956e-01 8.362221362733158e-02 -1.575807944995188e-02 9.010812589649454e-02 -1.706721609840928e-02
960040000.0000000000 7.534739685451407e-02 -1.592320977887278e-02 7.131415114834801e-02 -1.285830924015685e-02 -3.717998677105019e-01 -1.057046259793777e-01 -3.771519260882975e-02 -5.762065606672494e-02
            7.133229599027652e-02 -1.279503495779962e-02 7.522382439490395e-02 -1.594531189304223e-02 -3.778600748213135e-02 -5.761070935454866e-02 -3.718014601895731e-01 -1.056033902518953e-01
            -3.717683994650905e-01 -1.056112481008057e-01 -3.775010824739320e-02 -5.758867715942394e-02 7.909317263396649e-02 -1.194236013627296e-02 7.272406114077980e-02 -1.087689114635811e-02
            -3.771533400103428e-02 -5.749883793385942e-02 -3.717569404444483e-01 -1.056817659795536e-01 7.277984974115177e-02 -1.091466069740683e-02 7.906162902297784e-02 -1.194668353272477e-02
960872500.0000000000 7.061404830426880e-02 -4.192492734706584e-03 6.658492276515734e-02 -1.585730022372355e-03 -3.858490381193655e-01 2.982051696895922e-02 -5.555079208571239e-02 -3.817551052201187e-02
            6.652457217138842e-02 -1.530598948198315e-03 7.058770495659351e-02 -4.243855467488298e-03 -5.547211318213288e-02 -3.810980007601236e-02 -3.858551701839621e-01 2.980032795559926e-02
            -3.858507658159607e-01 2.985193599161159e-02 -5.554736564860153e-02 -3.816955077505156e-02 7.424478817797837e-02 -8.188108756587407e-04 6.797743182723066e-02 -7.145603159341231e-05
            -5.545627397843202e-02 -3.812648944989342e-02 -3.858641242463848e-01 2.992040935210682e-02 6.803349955279302e-02 -1.386604265859990e-04 7.417148836782006e-02 -8.045186029103751e-04
961705000.0000000000 7.502271709888698e-02 7.748996469429198e-03 7.048890406447518e-02 9.999005464130567e-03 -3.514662547635569e-01 1.618250706453997e-01 -6.374523045902832e-02 -1.403607726871518e-02
            7.046478102486363e-02 9.967353328638877e-03 7.496137422210251e-02 7.726669217624870e-03 -6.365627338432539e-02 -1.397710879817168e-02 -3.513652438691909e-01 1.618072019960541e-01
            -3.514489529054028e-01 1.617970953792268e-01 -6.380540181886150e-02 -1.405962980731818e-02 7.791914763615163e-02 1.084027318964344e-02 7.147120946472800e-02 1.124130391738490e-02
            -6.369955293980926e-02 -1.404289681778184e-02 -3.513402513501801e-01 1.618383831040339e-01 7.140414249413504e-02 1.112461204145213e-02 7.789485670970089e-02 1.081624254595111e-02
962537500.0000000000 8.599734519058867e-02 1.371028238963686e-02 8.100901011933351e-02 1.599054055071287e-02 -2.731378784663782e-01 2.728442786320089e-01 -6.225672973811420e-02 1.003135720020505e-02
            8.093342878343673e-02 1.599158163503067e-02 8.597315368824714e-02 1.367768426428993e-02 -6.225071198993552e-02 1.004402623510132e-02 -2.731126292170802e-01 2.728992766739274e-01
            -2.731731540337129e-01 2.730013486995845e-01 -6.229190667455297e-02 1.005970251821388e-02 8.837698284384757e-02 1.699881651809314e-02 8.160157965317527e-02 1.734240252949028e-02
            -6.232412829987593e-02 1.003986352766775e-02 -2.732017432576981e-01 2.729585486212795e-01 8.157852747122885e-02 1.735887627323776e-02 8.837624227720242e-02 1.694819870293099e-02
963370000.0000000000 9.817486081465415e-02 1.111543745981275e-02 9.279230674852906e-02 1.372357626692266e-02 -1.621230257228289e-01 3.494371268702460e-01 -5.282973377894686e-02 3.081098476995206e-02
            9.280437866785275e-02 1.371465245642711e-02 9.814938181686669e-02 1.106797362990157e-02 -5.277981169710455e-02 3.080655443571863e-02 -1.619922518992040e-01 3.494641277321747e-01
            -1.621408911286248e-01 3.494651458757300e-01 -5.281382117596523e-02 3.085900293729148e-02 1.002186473193822e-01 1.487473786121979e-02 9.316683187404080e-02 1.533247088453312e-02
            -5.285833836504059e-02 3.088886464557626e-02 -1.621164961700712e-01 3.494659874055305e-01 9.314460339071051e-02 1.528291201277866e-02 1.003564031405280e-01 1.492943018232804e-02
964202500.0000000000 1.055916738928810e-01 1.260585685559976e-03 1.003308619641024e-01 4.347050825612465e-03 -3.230259755668777e-02 3.831926077061268e-01 -3.755000706544102e-02 4.658666516808784e-02
            1.002945409175658e-01 4.344046369329199e-03 1.055741873139807e-01 1.206689509955018e-03 -3.749555256208363e-02 4.662120571813414e-02 -3.226118133952909e-02 3.831706737685275e-01
            -3.230386957225235e-02 3.832440369729079e-01 -3.755207961349011e-02 4.660481516582976e-02 1.079800523232217e-01 5.531516039927930e-03 1.006029573796071e-01 6.352123953825776e-03
            -3.754984036741177e-02 4.671174665012686e-02 -3.233959001175824e-02 3.831843421656648e-01 1.006275640261113e-01 6.354121525974057e-03 1.079885591568509e-01 5.651589577381990e-03
965035000.0000000000 1.048920705290871e-01 -1.108274485999657e-02 1.001025329867247e-01 -7.613631950361226e-03 1.008660528528900e-01 3.710460780584248e-01 -1.813222186683366e-02 5.631156921721988e-02
            1.000759352166364e-01 -7.637962943397513e-03 1.049051220989341e-01 -1.100834604470627e-02 -1.819437357074231e-02 5.637704190911497e-02 1.008762869261215e-01 3.710566396055966e-01
            1.008368368620782e-01 3.710838703609740e-01 -1.816252659335319e-02 5.637121117290336e-02 1.077559000252558e-01 -6.395998371477377e-03 1.003361130978456e-01 -5.303915959293679e-03
            -1.811778813570066e-02 5.637505696020956e-02 1.008961553054859e-01 3.711015058137371e-01 1.004273901716736e-01 -5.382129026300982e-03 1.078466713747783e-01 -6.382882933205090e-03
965867500.0000000000 9.646155916820501e-02 -2.003610729732007e-02 9.215174727972657e-02 -1.657661848535483e-02 2.223488916145122e-01 3.145459605327549e-01 3.721471704374494e-03 5.888852356157669e-02
            9.212517325645751e-02 -1.650213718886625e-02 9.642494228041384e-02 -2.002534797679242e-02 3.857513871265271e-03 5.886723369341342e-02 2.223139749902068e-01 3.144355715389768e-01
            2.223320465441837e-01 3.144870129212415e-01 3.811713310764405e-03 5.886985515232988e-02 9.987856431881101e-02 -1.541844142260443e-02 9.268316145905760e-02 -1.412232707326222e-02
            3.803432543048411e-03 5.880461409297271e-02 2.223005724172810e-01 3.144990235707277e-01 9.265946274180058e-02 -1.412582761287540e-02 9.979029621781262e-02 -1.541725526411096e-02
966700000.0000000000 8.422312504920974e-02 -2.133565962247919e-02 8.047702451518449e-02 -1.815811214388764e-02 3.176718612478086e-01 2.192398123258368e-01 2.558954526845194e-02 5.295879327457864e-02
            8.043529159185517e-02 -1.814856761566524e-02 8.425309943223146e-02 -2.131023434932249e-02 2.564553790345390e-02 5.293767874089449e-02 3.177464859273045e-01 2.193150593486443e-01
            3.177628669955486e-01 2.192581761918829e-01 2.553729113521569e-02 5.294576057543627e-02 8.781524789489240e-02 -1.717313905985551e-02 8.087969759287778e-02 -1.575481421672312e-02
            2.563465873548651e-02 5.294021020020931e-02 3.177562230005219e-01 2.193117202710412e-01 8.087853644031497e-02 -1.570840372191739e-02 8.786667943675672e-02 -1.705959038126717e-02
967532500.0000000000 7.406837083058848e-02 -1.429231177245819e-02 7.057189383698903e-02 -1.185979712826454e-02 3.747950015626091e-01 9.607415317083784e-02 4.375082448243906e-02 3.857396769426871e-02
            7.064032861937058e-02 -1.183846937341539e-02 7.397387160775444e-02 -1.422089907015169e-02 4.375555336092768e-02 3.870338187018162e-02 3.747799136089080e-01 9.606757048642633e-02
            3.747749370905014e-01 9.609333639517935e-02 4.377312510214769e-02 3.865789236168215e-02 7.763178917256013e-02 -1.044439117714075e-02 7.081365335636633e-02 -9.299182412208316e-03
            4.377406255152949e-02 3.863451266326913e-02 3.747653419058743e-01 9.604622023125374e-02 7.086048603497397e-02 -9.360091512096802e-03 7.763805428131192e-02 -1.052943600809355e-02
968365000.0000000000 7.113447231490098e-02 -2.157648854606365e-03 6.755102319606371e-02 -5.224190180591014e-04 3.851127609375816e-01 -3.991795077850970e-02 5.437870458949470e-02 1.822657159148760e-02
            6.749053694227880e-02 -5.363566313700268e-04 7.114683783437788e-02 -2.185541824347351e-03 5.441465625064523e-02 1.817980614745364e-02 3.851362203937705e-01 -3.989022111047148e-02
            3.850838305557999e-01 -3.992095874747096e-02 5.435760752002524e-02 1.817998524939697e-02 7.418960765150175e-02 1.351890977280729e-03 6.741769651668576e-02 2.436363281807858e-03
            5.435746538233276e-02 1.819745049868213e-02 3.851387010342700e-01 -4.002151576686707e-02 6.736737864019367e-02 2.413941069517686e-03 7.415204346277478e-02 1.326221753524657e-03
969197500.0000000000 7.694519044916150e-02 8.690375494480566e-03 7.288032654092917e-02 9.784847622879107e-03 3.469508730041930e-01 -1.708920847823984e-01 5.565451331935729e-02 -4.106194782491208e-03
            7.284450614451433e-02 9.838695147880069e-03 7.691806709691054e-02 8.659768382577556e-03 5.561810897775653e-02 -4.135640596459246e-03 3.470079373791761e-01 -1.707821364499690e-01
            3.470306461412541e-01 -1.708849103185922e-01 5.562698133272987e-02 -4.122599311772388e-03 7.929343370678167e-02 1.247416646614385e-02 7.253704498250263e-02 1.354709926745492e-02
            5.568276357048052e-02 -4.069853999323780e-03 3.469545953637515e-01 -1.708343330463655e-01 7.249228250375231e-02 1.352738957017969e-02 7.933812634493409e-02 1.260407453255666e-02
970030000.0000000000 8.860651459440518e-02 1.302421340096328e-02 8.367210774720631e-02 1.389875109035247e-02 2.658779484761573e-01 -2.796771393842834e-01 4.846250323267773e-02 -2.409761483986523e-02
            8.376179612111480e-02 1.392296031019084e-02 8.856712845742121e-02 1.309980318178764e-02 4.847960847970120e-02 -2.406978195048754e-02 2.658960432762207e-01 -2.796606191498862e-01
            2.658714874995860e-01 -2.796474936580331e-01 4.834946022179042e-02 -2.402788027096875e-02 9.046827631139123e-02 1.763876154274983e-02 8.348645085540714e-02 1.876992253523229e-02
            4.854590557560697e-02 -2.414289553903293e-02 2.657576658152790e-01 -2.796114676338169e-01 8.347212738324937e-02 1.875462851362208e-02 9.050780981913661e-02 1.755860916692388e-02
970862500.0000000000 1.001886170309674e-01 8.675524304761725e-03 9.454550553416202e-02 9.617909608032141e-03 1.530862215128942e-01 -3.531226614014762e-01 3.517792984122273e-02 -3.915242560167402e-02
            9.465665844899243e-02 9.649851040259717e-03 1.001713139149127e-01 8.670681436766454e-03 3.515520977524266e-02 -3.917373463945255e-02 1.530571219661720e-01 -3.531372287682085e-01
            1.530503870505716e-01 -3.530739244397867e-01 3.512901576360956e-02 -3.912269812156122e-02 1.021230860253447e-01 1.427708140675227e-02 9.507281469948659e-02 1.559273542414780e-02
            3.506030566640486e-02 -3.909397180682258e-02 1.529960958653118e-01 -3.530997020782281e-01 9.499634327362849e-02 1.566649155987827e-02 1.020489173550596e-01 1.426479553398094e-02
971695000.0000000000 1.060290514991197e-01 -2.158485404028281e-03 1.001606012663291e-01 -8.106968438606102e-04 2.262917793792102e-02 -3.835416014395854e-01 1.813001796946048e-02 -4.840623762368857e-02
            1.001403305122292e-01 -7.908341250666973e-04 1.060757212269292e-01 -2.235381863511370e-03 1.817879577398077e-02 -4.843857772093034e-02 2.269498908570964e-02 -3.836156297377918e-01
            2.258825091723460e-02 -3.835255424263442e-01 1.822415675600936e-02 -4.840449421792895e-02 1.086243296602143e-01 4.400239209599920e-03 1.018307470825973e-01 6.099544117321961e-03
            1.824182932947464e-02 -4.840040198712675e-02 2.272148292979796e-02 -3.835578517898720e-01 1.017740606071403e-01 6.054718205659399e-03 1.086662954432534e-01 4.476170848710633e-03
972527500.0000000000 1.036543889142380e-01 -1.431586010557902e-02 9.760674655495835e-02 -1.244816635692992e-02 -1.099674621801007e-01 -3.681977451028074e-01 -6.483314418153140e-04 -5.149815862664615e-02
            9.760162217078078e-02 -1.245734798054484e-02 1.036691154885297e-01 -1.430543547350755e-02 -7.327845117018369e-04 -5.152120476087284e-02 -1.101244470654331e-01 -3.681905648319271e-01
            -1.100958799347869e-01 -3.681901879465033e-01 -7.041897696818938e-04 -5.155492124188738e-02 1.072715132037912e-01 -7.237810088441589e-03 1.008513983124010e-01 -5.341062002736491e-03
            -7.054220258888756e-04 -5.151348090479520e-02 -1.099710173299195e-01 -3.681849877483342e-01 1.008606437486200e-01 -5.382495248096996e-03 1.072369421853715e-01 -7.270416360647578e-03
973360000.0000000000 9.391150629652267e-02 -2.199711402018672e-02 8.795381895241257e-02 -1.987134469707072e-02 -2.301148372754564e-01 -3.084759441009969e-01 -1.998843860768989e-02 -4.783957711002702e-02
            8.803775245558959e-02 -1.998168575503622e-02 9.401157613382080e-02 -2.190697615966132e-02 -1.996721846324763e-02 -4.780448984725671e-02 -2.301018322026555e-01 -3.085449605654629e-01
            -2.301032093606860e-01 -3.085688543723046e-01 -1.991226116169115e-02 -4.773729736565966e-02 9.857524220454575e-02 -1.508518689659528e-02 9.280228066423754e-02 -1.327645316477198e-02
            -1.987244802592621e-02 -4.787517353133330e-02 -2.300504157628182e-01 -3.085727152434248e-01 9.284466985018471e-02 -1.332251966498963e-02 9.859302702741243e-02 -1.510322260526414e-02
974192500.0000000000 8.159829173494135e-02 -2.156014714272488e-02 7.569211177659713e-02 -1.947052163592639e-02 -3.230173186120965e-01 -2.107804538271912e-01 -3.710649477650848e-02 -3.681535069715028e-02
            7.574393810392187e-02 -1.946218365922153e-02 8.164023212120676e-02 -2.157512573499267e-02 -3.706037217550361e-02 -3.691462543129169e-02 -3.230139028585334e-01 -2.107010734769676e-01
            -3.229461380368109e-01 -2.108145780187017e-01 -3.711663671426954e-02 -3.681121490407009e-02 8.670008965812052e-02 -1.521864907966317e-02 8.169863743386163e-02 -1.384265195197011e-02
            -3.710528136696407e-02 -3.681310852552646e-02 -3.230442567485687e-01 -2.107756715400064e-01 8.158301342459222e-02 -1.388401251740145e-02 8.677568395607860e-02 -1.520121406271321e-02
975025000.0000000000 7.259872121486191e-02 -1.302772886159758e-02 6.670572690369664e-02 -1.116356103961905e-02 -3.766285122858016e-01 -8.606134489527084e-02 -4.873583203233579e-02 -1.935943591781995e-02
            6.663047609840189e-02 -1.111829322077709e-02 7.262020613823142e-02 -1.297852096353793e-02 -4.879244271696527e-02 -1.937665898390309e-02 -3.766176569390990e-01 -8.602789723886688e-02
            -3.766325203601919e-01 -8.608923844266911e-02 -4.875991734015300e-02 -1.931609290928679e-02 7.765956940498221e-02 -7.356585247825007e-03 7.277839523865552e-02 -6.731651339551529e-03
            -4.877010498466486e-02 -1.927935900895729e-02 -3.765685272215877e-01 -8.604180259904651e-02 7.281581334195511e-02 -6.757822703619312e-03 7.766865029196035e-02 -7.293715191880780e-03
975857500.0000000000 7.156839748376084e-02 -6.606054331886733e-04 6.546254884846235e-02 1.060894102030380e-03 -3.830223105899336e-01 4.995453071455089e-02 -5.220055038208264e-02 1.584279073626132e-03
            6.531014955087379e-02 1.052152990430378e-03 7.163825803106490e-02 -6.396783698718856e-04 -5.221441589264979e-02 1.558485430398650e-03 -3.830492090196286e-01 4.995240608060162e-02
            -3.830592298205853e-01 4.998079868197083e-02 -5.218738829480706e-02 1.636069419398962e-03 7.598135227481526e-02 4.851870957515031e-03 7.095882127088805e-02 4.597228608580237e-03
            -5.222941161633631e-02 1.606919098560964e-03 -3.829878889115914e-01 5.001273178068589e-02 7.098223946831224e-02 4.575826682356242e-03 7.592842120280344e-02 4.853224019476372e-03
976690000.0000000000 7.921531110826167e-02 9.235709231535223e-03 7.252576947929992e-02 1.107727505834996e-02 -3.413516923233451e-01 1.793173682812343e-01 -4.664903369872136e-02 2.169318964063423e-02
            7.249320136846350e-02 1.106102471756008e-02 7.918510467257453e-02 9.264681626488179e-03 -4.664104789033648e-02 2.177594532236209e-02 -3.413466547576680e-01 1.794541887597018e-01
            -3.414120727000919e-01 1.794557867742179e-01 -4.661234442458915e-02 2.176613121252298e-02 8.275600187081199e-02 1.530605389847697e-02 7.733184113561563e-02 1.430226973205375e-02
            -4.660561652023047e-02 2.180549952261443e-02 -3.412882087490446e-01 1.792929382621765e-01 7.737092233208555e-02 1.433781726652102e-02 8.269397193548968e-02 1.525761825310334e-02
977522500.0000000000 9.155682497310313e-02 1.153397646975927e-02 8.439611363217742e-02 1.376189231861206e-02 -2.576776926895565e-01 2.854874166916982e-01 -3.397724936740855e-02 3.729125520306010e-02
            8.434351253973325e-02 1.387536501264096e-02 9.153312367909526e-02 1.154239362749413e-02 -3.395529448384784e-02 3.734414188035370e-02 -2.576256904001274e-01 2.854069184807065e-01
            -2.577081062264489e-01 2.853709550733196e-01 -3.393864577682952e-02 3.725868873093430e-02 9.458809407675151e-02 1.902327981417861e-02 8.844124803355990e-02 1.761358253894392e-02
            -3.395806946683230e-02 3.734843495965295e-02 -2.577328074497369e-01 2.853995157934245e-01 8.848201602023210e-02 1.758986222547398e-02 9.458284935998681e-02 1.895232458931239e-02
978355000.0000000000 1.025294754227723e-01 5.214307158755289e-03 9.515933658756749e-02 7.926186558921472e-03 -1.434326129073020e-01 3.556321728606258e-01 -1.719022571760318e-02 4.654912595388485e-02
            9.515592317800085e-02 7.955498519810505e-03 1.025542229179588e-01 5.204850296721120e-03 -1.716783785201510e-02 4.646714819456450e-02 -1.434757071126377e-01 3.555794860610478e-01
            -1.434562337028423e-01 3.556237173638038e-01 -1.708729704752846e-02 4.651620691792075e-02 1.059515835087197e-01 1.430809032857221e-02 9.917240790738897e-02 1.301002541056223e-02
            -1.713999753002489e-02 4.642307833643414e-02 -1.434796646806533e-01 3.556106866104448e-01 9.919730108499319e-02 1.293992841417337e-02 1.058932202283045e-01 1.434456198687990e-02
979187500.0000000000 1.069243117988862e-01 -6.892889710979721e-03 9.959328303585949e-02 -3.525391491981544e-03 -1.302837997109333e-02 3.825684664093656e-01 1.089602024569246e-03 4.918559251540686e-02
            9.956813691505106e-02 -3.456510727742983e-03 1.069104534777215e-01 -6.843131035310591e-03 1.055809868750457e-03 4.922732064244952e-02 -1.298937296781304e-02 3.827171628606825e-01
            -1.295005711981533e-02 3.826608534012550e-01 1.075984454455342e-03 4.914633074262622e-02 1.115755774072451e-01 3.749201524370698e-03 1.044397532105072e-01 2.609262778850063e-03
            1.063482311663136e-03 4.922272510419863e-02 -1.296766308779214e-02 3.826707111897570e-01 1.044386204355592e-01 2.727856522135982e-03 1.116454462155816e-01 3.817916115860919e-03
980020000.0000000000 1.027127650750356e-01 -1.901277018850057e-02 9.582300005271691e-02 -1.521584990075286e-02 1.188748190828511e-01 3.639670066168655e-01 1.909170487871568e-02 4.572282511077603e-02
            9.586816736199774e-02 -1.525880321687821e-02 1.027370873137442e-01 -1.904024959046156e-02 1.909588531446541e-02 4.569441995160334e-02 1.188854629918931e-01 3.640298709433087e-01
            1.188476916256667e-01 3.639449526573992e-01 1.909937107347385e-02 4.561552467478797e-02 1.090779049809214e-01 -7.731068860307891e-03 1.018072468033130e-01 -8.438146982496288e-03
            1.911425201641615e-02 4.574505936289102e-02 1.188557536841077e-01 3.639443063411468e-01 1.018592867944358e-01 -8.362123919819709e-03 1.091303162543509e-01 -7.679053474659622e-03
980852500.0000000000 9.186194001321220e-02 -2.577213864415375e-02 8.550611881242909e-02 -2.187196718709484e-02 2.369855401218311e-01 3.015582804636427e-01 3.536408015852392e-02 3.594216779011140e-02
            8.538245678276886e-02 -2.187040512046061e-02 9.186243220316069e-02 -2.574022302519238e-02 3.530579030502019e-02 3.594246377526360e-02 2.369363978652561e-01 3.015827782383178e-01
            2.369771308424815e-01 3.015137088531169e-01 3.542267207897679e-02 3.610039640172447e-02 9.975502986788237e-02 -1.450777893293659e-02 9.272600544889341e-02 -1.501381812339941e-02
            3.534051753583861e-02 3.591022441673816e-02 2.369937077365954e-01 3.014983277669874e-01 9.277568276790717e-02 -1.504621934587006e-02 9.984300974354625e-02 -1.451151447269187e-02
981685000.0000000000 7.934917941271620e-02 -2.380277482889242e-02 7.325096850059683e-02 -2.028118436127633e-02 3.271743836786331e-01 2.016398541247007e-01 4.750963162663627e-02 2.031305888452709e-02
            7.333272983173798e-02 -2.023070376145740e-02 7.935518619011921e-02 -2.389900114878503e-02 4.748417482272274e-02 2.030535936131072e-02 3.271506652996961e-01 2.015735792100171e-01
            3.270333690693375e-01 2.015461220194645e-01 4.748135813697412e-02 2.024959872956611e-02 8.825839928554799e-02 -1.320897058517373e-02 8.150271325123859e-02 -1.389674515692106e-02
            4.750590217352749e-02 2.025140913357241e-02 3.270927567950659e-01 2.015929537809234e-01 8.157064200449157e-02 -1.397691510869492e-02 8.824088854626023e-02 -1.324278008457388e-02
982517500.0000000000 7.163263003206619e-02 -1.441295826451874e-02 6.555856796670528e-02 -1.124958261778681e-02 3.770293417597155e-01 7.578759152155080e-02 5.275687587553752e-02 3.098100669644317e-05
            6.564967310509129e-02 -1.126720018568928e-02 7.162738271306132e-02 -1.445392221797671e-02 5.270337968929261e-02 1.065171144840520e-04 3.770450082617640e-01 7.584008476857476e-02
            3.770126767742885e-01 7.574097296976207e-02 5.263504774573321e-02 4.796305592769837e-05 8.032761427681182e-02 -4.085406609817634e-03 7.372659334680649e-02 -5.333767287302659e-03
            5.263426782440837e-02 -2.467590472580368e-05 3.771057016814123e-01 7.579946595970276e-02 7.378577711209390e-02 -5.379016370499666e-03 8.029512401034528e-02 -4.050922763297375e-03
983350000.0000000000 7.259025051356502e-02 -2.500416141779411e-03 6.608056518486277e-02 2.426903441802128e-04 3.795820726832518e-01 -5.970643626670517e-02 4.890774149707730e-02 -2.099921212204171e-02
            6.615205615721385e-02 2.528729947370358e-04 7.258062911350964e-02 -2.588672679819651e-03 4.888058224325378e-02 -2.106967659831823e-02 3.795234589387136e-01 -5.982281383182265e-02
            3.795823885163088e-01 -5.968680738862343e-02 4.892529620401792e-02 -2.105005567575744e-02 8.041953353907721e-02 8.636364817435580e-03 7.369398146532506e-02 6.760474726364589e-03
            4.887503068324391e-02 -2.108167782258443e-02 3.795879789085208e-01 -5.974758451826279e-02 7.368799960168711e-02 6.657698230509452e-03 8.039651218832097e-02 8.612751074686936e-03
984182500.0000000000 8.178090801780999e-02 5.091274346674335e-03 7.464389943422309e-02 7.949223207060561e-03 3.343935523047133e-01 -1.870093508811403e-01 3.657081941890881e-02 -3.861583431758521e-02
            7.462749278655510e-02 7.904492840261875e-03 8.187749549426153e-02 5.183216109742644e-03 3.670712296903490e-02 -3.861186097178409e-02 3.345698506304763e-01 -1.870338371039743e-01
            3.344902604977481e-01 -1.871133259350726e-01 3.659647658498318e-02 -3.867662814523257e-02 8.911474093502419e-02 1.895350710046037e-02 8.181673864986920e-02 1.646793744968046e-02
            3.667508883240898e-02 -3.866790038279611e-02 3.344420221618852e-01 -1.870674072341382e-01 8.176093861718359e-02 1.644104774351231e-02 8.907831979407012e-02 1.897211413685553e-02
985015000.0000000000 9.439582056050859e-02 3.880916092742163e-03 8.648773427033844e-02 7.262959040238510e-03 2.484884126577937e-01 -2.899110229033938e-01 1.872368923026387e-02 -4.940187820192105e-02
            8.646671696362718e-02 7.235972896919823e-03 9.448810421804422e-02 3.866746971816333e-03 1.869883657772941e-02 -4.937067783724556e-02 2.485097520640609e-01 -2.899488849511478e-01
            2.485514016817266e-01 -2.897917452432838e-01 1.869770264125112e-02 -4.942535295960654e-02 1.029103767502317e-01 2.213206814278448e-02 9.461186330973710e-02 1.927296455164896e-02
            1.879098997260853e-02 -4.942522903581991e-02 2.485106819326852e-01 -2.898806593305738e-01 9.460200644451169e-02 1.918629349051091e-02 1.029343667648484e-01 2.207119728914149e-02
985847500.0000000000 1.034605088093893e-01 -6.476075695022168e-03 9.522528832098519e-02 -2.173343791766163e-03 1.335379527208834e-01 -3.563460671679370e-01 -1.111954618897797e-03 -5.234071208232519e-02
            9.525450029536416e-02 -2.179418884701136e-03 1.035066411294382e-01 -6.480568907252446e-03 -1.032903138649006e-03 -5.237597686449628e-02 1.335802003190442e-01 -3.563599505498798e-01
            1.336253676158324e-01 -3.562660400384052e-01 -1.040383940636395e-03 -5.230531319403029e-02 1.161485768981394e-01 1.660551958684392e-02 1.069377818040847e-01 1.384215681093527e-02
            -9.955713971144366e-04 -5.234519711317715e-02 1.335168169131883e-01 -3.563437148681219e-01 1.069341143779551e-01 1.384608580061787e-02 1.162016066456781e-01 1.659368528361147e-02
986680000.0000000000 1.039839868707133e-01 -2.184561557113583e-02 9.580571588712145e-02 -1.647602019015592e-02 3.680605076629686e-03 -3.797699934889430e-01 -1.979989040040029e-02 -4.833479901390735e-02
            9.581275765456113e-02 -1.651800416863506e-02 1.039683706695777e-01 -2.188168425627416e-02 -1.986274633244035e-02 -4.828430106253465e-02 3.683030038834825e-03 -3.798340599567663e-01
            3.752746463533096e-03 -3.798372552298908e-01 -1.976002952538831e-02 -4.834513714599443e-02 1.239386177395508e-01 4.770046130582490e-03 1.139730963071365e-01 2.683256559498113e-03
            -1.985496062829721e-02 -4.832473507063513e-02 3.629945123037183e-03 -3.797964567662679e-01 1.140644228782018e-01 2.687941369367247e-03 1.240305676877806e-01 4.832338587855977e-03
987512500.0000000000 9.409255315163173e-02 -3.569902557482150e-02 8.660045555706199e-02 -2.948859254226703e-02 -1.262100863275776e-01 -3.581461166964194e-01 -3.609193197482139e-02 -3.855409503544432e-02
            8.659919247227618e-02 -2.949450841788730e-02 9.410162308395860e-02 -3.575496969592514e-02 -3.608928540522031e-02 -3.857762827764088e-02 -1.262340944957696e-01 -3.580738980166140e-01
            -1.262322544131639e-01 -3.582045990393211e-01 -3.606900421987811e-02 -3.853386962347752e-02 1.242904931576583e-01 -8.469334829555501e-03 1.139509290486214e-01 -1.003144236950660e-02
            -3.611397764945073e-02 -3.852130942775616e-02 -1.262123670664757e-01 -3.582017985380206e-01 1.138761267034914e-01 -9.915319549655379e-03 1.242831551670642e-01 -8.564361974040514e-03
988345000.0000000000 7.645900460919035e-02 -4.194924008839877e-02 7.001946842472179e-02 -3.533536527856209e-02 -2.416241121507366e-01 -2.936813987909020e-01 -4.856585182884624e-02 -2.367863162877022e-02
            6.993118064632171e-02 -3.535870115774050e-02 7.647682825141038e-02 -4.195731943315695e-02 -4.860477502531686e-02 -2.371649982672719e-02 -2.417118437628777e-01 -2.937398574597046e-01
            -2.416904805375198e-01 -2.937610140181484e-01 -4.855078337828457e-02 -2.370616216136082e-02 1.179890501735214e-01 -1.884460964907277e-02 1.077218068881809e-01 -1.950095494135980e-02
            -4.861949903802078e-02 -2.373469949881454e-02 -2.417096375369235e-01 -2.937222047910533e-01 1.076783877944260e-01 -1.952819871387646e-02 1.180737501640413e-01 -1.885841984712971e-02
989177500.0000000000 5.728529838581943e-02 -3.703421529026826e-02 5.168294592825672e-02 -3.051579502061908e-02 -3.286828340247218e-01 -1.930880220029006e-01 -5.566939123962934e-02 -4.493346927756751e-03
            5.175281004622473e-02 -3.060117877281550e-02 5.727880934630057e-02 -3.694537268879530e-02 -5.568314166235570e-02 -4.568165470026616e-03 -3.287083008616922e-01 -1.930123344991262e-01
            -3.286887567785554e-01 -1.929609287218656e-01 -5.559719529558767e-02 -4.501075983464969e-03 1.087766907198857e-01 -2.316658176136795e-02 9.887428906683239e-02 -2.350032152596624e-02
            -5.566777938272621e-02 -4.574948425167450e-03 -3.287347423523667e-01 -1.930873949702591e-01 9.882195065395677e-02 -2.343549703499643e-02 1.088815883926285e-01 -2.325135179313058e-02
990010000.0000000000 4.360536130573742e-02 -2.175391596045705e-02 3.864795941287563e-02 -1.607203513085618e-02 -3.757868467534774e-01 -6.763698141936494e-02 -5.516887363461323e-02 1.709041157855372e-02
            3.866812868080536e-02 -1.606242151019165e-02 4.366981187454033e-02 -2.182186150939714e-02 -5.513423752143357e-02 1.709989524428757e-02 -3.758050327242874e-01 -6.758465380230810e-02
            -3.758286905008542e-01 -6.758282252423529e-02 -5.511586924148539e-02 1.707882920813585e-02 1.011370257060242e-01 -2.185537571773715e-02 9.168029275637755e-02 -2.199008978640305e-02
            -5.514548921103683e-02 1.704799037390049e-02 -3.758549307705484e-01 -6.763729383098006e-02 9.163381961026150e-02 -2.190386621599252e-02 1.012990062657417e-01 -2.192406676412543e-02
990842500.0000000000 4.067269477630182e-02 -1.823670607618421e-03 3.566715370857603e-02 3.088684311131498e-03 -3.761040029008828e-01 6.675386457712616e-02 -4.584627491979323e-02 3.779054267479606e-02
            3.566219017523793e-02 3.133261964263575e-03 4.063309636107990e-02 -1.832254016120612e-03 -4.583071004432093e-02 3.778714883472014e-02 -3.760780904914572e-01 6.674824533078867e-02
            -3.760439426292967e-01 6.680853809487183e-02 -4.591657305074024e-02 3.778471232457804e-02 9.815750093062001e-02 -1.792740461928845e-02 8.890835692163018e-02 -1.820352092136883e-02
            -4.587226531702664e-02 3.770617912640629e-02 -3.760161185338231e-01 6.684647493912575e-02 8.886968516583946e-02 -1.816120565896706e-02 9.819499019580857e-02 -1.784943401387140e-02
991675000.0000000000 4.865350525875417e-02 1.542973195488661e-02 4.313017988572232e-02 1.978173725775645e-02 -3.292964165152485e-01 1.926783207084841e-01 -2.862483811396526e-02 5.348786923761641e-02
            4.308099186497500e-02 1.985088838660217e-02 4.868912847917650e-02 1.549017726510523e-02 -2.857329335699766e-02 5.342075344835634e-02 -3.293442388042765e-01 1.926311397906500e-01
            -3.293030597371531e-01 1.927114161146428e-01 -2.865146088533260e-02 5.355359622630438e-02 9.967723896422438e-02 -1.541927492649961e-02 9.028009627051836e-02 -1.617856468142725e-02
            -2.860942577575957e-02 5.355802134338584e-02 -3.292877548757752e-01 1.926867636286679e-01 9.030200505632593e-02 -1.621206740871072e-02 9.967799893826386e-02 -1.536730763653039e-02
992507500.0000000000 6.345402360244674e-02 2.429584209293544e-02 5.705802693633109e-02 2.864042272419009e-02 -2.420915386652069e-01 2.939443026539124e-01 -6.535245288031740e-03 6.120421341915086e-02
            5.702975885955555e-02 2.867339123085375e-02 6.333879766234429e-02 2.432021692022261e-02 -6.475056503306242e-03 6.117752813996732e-02 -2.420298994240631e-01 2.940357728759019e-01
            -2.420563963513611e-01 2.940015752114381e-01 -6.486687355973740e-03 6.120972508358895e-02 1.026822267076138e-01 -1.736140107475018e-02 9.293995259332458e-02 -1.834007832763315e-02
            -6.514613207211364e-03 6.122511852458894e-02 -2.420694015029169e-01 2.939544732327186e-01 9.295225262943405e-02 -1.838497381717970e-02 1.027061365185469e-01 -1.736486484477129e-02
993340000.0000000000 7.820587328175591e-02 2.324183563662999e-02 7.108455338630212e-02 2.816453945775071e-02 -1.258810289784475e-01 3.587549781982474e-01 1.684135786820387e-02 6.008318039335168e-02
            7.110615933490003e-02 2.808142725711994e-02 7.823609326048463e-02 2.322175419172328e-02 1.678552623385364e-02 6.001110287852988e-02 -1.258161468414362e-01 3.587239281393581e-01
            -1.258096182495919e-01 3.586684915200480e-01 1.682048468639302e-02 5.996632599754849e-02 1.031936001345229e-01 -2.355764898458951e-02 9.288953661930326e-02 -2.450004039764432e-02
            1.678510029711984e-02 6.005194622189181e-02 -1.257780626980474e-01 3.587419431807526e-01 9.285772090914159e-02 -2.455223539226272e-02 1.032020473779125e-01 -2.351393943094767e-02
994172500.0000000000 8.739644441494912e-02 1.508728018787970e-02 8.004192462076291e-02 2.077403817679137e-02 5.120809272112765e-03 3.797914765139265e-01 3.799405351619076e-02 5.058838172608850e-02
            8.004681720710911e-02 2.091032894929656e-02 8.737713030147835e-02 1.510914228962307e-02 3.800640994609655e-02 5.062151015257548e-02 5.012172403483854e-03 3.798158184014906e-01
            5.058757206702712e-03 3.797810738300125e-01 3.802169070346488e-02 5.061208960730047e-02 9.835973928027765e-02 -3.086285736831563e-02 8.758325236850512e-02 -3.150318905232165e-02
            3.801133818354842e-02 5.064281060368946e-02 5.066140392149546e-03 3.797807699766605e-01 8.758366532631219e-02 -3.144739917610177e-02 9.827114674168423e-02 -3.076794376639563e-02
995005000.0000000000 8.843438083177761e-02 5.387409642707962e-03 8.129616599364038e-02 1.206821317049859e-02 1.354618324153470e-01 3.549280506508218e-01 5.484699215464959e-02 3.423761302786890e-02
            8.128381030055819e-02 1.211536398357716e-02 8.842058188387285e-02 5.392771160419823e-03 5.482592578904677e-02 3.426277435449540e-02 1.354490180012070e-01 3.550054831588932e-01
            1.355065366722260e-01 3.549740088134416e-01 5.483556381042812e-02 3.424399017777597e-02 8.798197082725868e-02 -3.484235495250657e-02 7.720549094716384e-02 -3.504190704232747e-02
            5.485055082034204e-02 3.431979451161955e-02 1.354234458388264e-01 3.549796366421027e-01 7.723151340781557e-02 -3.496168161395079e-02 8.809441711334058e-02 -3.491201008726276e-02
995837500.0000000000 8.310289117237706e-02 -3.756624720009848e-04 7.648780526655358e-02 6.800703491077842e-03 2.497864620012015e-01 2.866686497470518e-01 6.529483994064644e-02 1.240337072946396e-02
            7.659301646863474e-02 6.872603864670756e-03 8.306453522362807e-02 -3.314571616898917e-04 6.529528618458660e-02 1.238303711722217e-02 2.497589635911331e-01 2.866488963127784e-01
            2.498006010679052e-01 2.866338789158127e-01 6.528290759689125e-02 1.238809993954739e-02 7.550934159009209e-02 -3.241649431877367e-02 6.494771549935784e-02 -3.197617120088900e-02
            6.529771113814931e-02 1.240561516046265e-02 2.497717044222165e-01 2.866906922263975e-01 6.487825948226925e-02 -3.195426198332087e-02 7.548042496035175e-02 -3.240327445295208e-02
996670000.0000000000 7.594812015246849e-02 7.101350611687309e-04 7.008683524743456e-02 8.102196546933204e-03 3.336881467184501e-01 1.825370714185124e-01 6.727853049664574e-02 -1.280350643028649e-02
            7.007323606522003e-02 8.045505485922737e-03 7.603906195943196e-02 7.902131879918740e-04 6.731803064442232e-02 -1.275878012225941e-02 3.336723771539385e-01 1.825800714279932e-01
            3.336565904428057e-01 1.826507227018862e-01 6.731412752236252e-02 -1.282327222160970e-02 6.565130630603357e-02 -2.249967244841199e-02 5.560360862024185e-02 -2.197563175864484e-02
            6.733568541353482e-02 -1.275669398027867e-02 3.336601024206658e-01 1.825938303900157e-01 5.561603096784166e-02 -2.197828520402664e-02 6.566627598928192e-02 -2.252560362172977e-02
997502500.0000000000 7.250837963739121e-02 7.619447947979944e-03 6.700687197389282e-02 1.476694243299048e-02 3.759709298954768e-01 5.551943029125147e-02 5.928632747604898e-02 -3.798004783279663e-02
            6.707538952262147e-02 1.471349909768870e-02 7.247451818720081e-02 7.654626303538256e-03 5.929936027143325e-02 -3.797971560638179e-02 3.760173345167431e-01 5.544301001312692e-02
            3.760546944699812e-01 5.547682122631163e-02 5.934624587279477e-02 -3.797723465341760e-02 6.281421576121304e-02 -8.485300458340785e-03 5.346677446188458e-02 -8.138325798229097e-03
            5.936572083469289e-02 -3.798936423680090e-02 3.759939672937079e-01 5.546608139524364e-02 5.353829957511486e-02 -8.133314844621762e-03 6.292502067942048e-02 -8.408804005036958e-03
998335000.0000000000 7.565082414114430e-02 1.610478224261854e-02 7.016890674570442e-02 2.276651359598043e-02 3.710863513654707e-01 -7.813815028153223e-02 4.162995057540093e-02 -5.860095564555105e-02
            7.011175459230325e-02 2.284257108730627e-02 7.559780319649206e-02 1.603972715505686e-02 4.168671001807825e-02 -5.871576684029482e-02 3.711278492004732e-01 -7.808931931747910e-02
            3.711233210477424e-01 -7.814815832371524e-02 4.160277502961390e-02 -5.860161875322767e-02 6.870351809665382e-02 4.580554789927317e-03 5.969717688188871e-02 4.126755445839586e-03
            4.160436829375126e-02 -5.863840110680862e-02 3.711493474103076e-01 -7.814112865270742e-02 5.971029647996586e-02 4.133760020776978e-03 6.868438293261500e-02 4.589385308468788e-03
999167500.0000000000 8.468142945565892e-02 2.068505336380891e-02 7.872794796158789e-02 2.739997614554986e-02 3.202074804149466e-01 -2.008854974006885e-01 1.688310905694985e-02 -7.093386481768187e-02
            7.877752266683274e-02 2.725667260043940e-02 8.465481591652933e-02 2.066021441436680e-02 1.703624608742514e-02 -7.094268844714914e-02 3.202031069198262e-01 -2.009362400570167e-01
            3.201474143172933e-01 -2.009273719570348e-01 1.704972466748609e-02 -7.097389079260986e-02 8.061226099202416e-02 1.131859575341603e-02 7.145023300160440e-02 9.905362651196110e-03
            1.704411179354327e-02 -7.092040703903049e-02 3.201642271923966e-01 -2.008949287993528e-01 7.147875074919124e-02 9.941817014696550e-03 8.053530871201138e-02 1.123250569535551e-02
1000000000.0000000000 9.545279849551469e-02 1.843751682334131e-02 8.909379514198131e-02 2.551561728913226e-02 2.307372685142808e-01 -2.978570151332500e-01 -1.034431934912914e-02 -7.281633128324336e-02
            8.907782992164151e-02 2.553962009877097e-02 9.539529224289711e-02 1.836064203249251e-02 -1.029297452020634e-02 -7.289767507088671e-02 2.308218548095852e-01 -2.978930737840846e-01
            2.307242574698829e-01 -2.978687127719653e-01 -1.035758552765318e-02 -7.298123950553988e-02 9.318419100865971e-02 9.512929701505147e-03 8.345441775178976e-02 7.177670625302710e-03
            -1.039128174903147e-02 -7.287126528122490e-02 2.307614399483423e-01 -2.978474390847810e-01 8.341820849643795e-02 7.097170320097169e-03 9.311224290646083e-02 9.415613205919030e-03
