! synthetic lab measurement T=85C
! synthetic measurement, noise -85.0 dB
# Hz S RI R 50
1000000.0000000000 7.486891837584371e-02 4.434648211921111e-02 2.821676233329857e-02 6.041406984373567e-02 8.587633131015138e-01 -3.951225563757620e-01 -9.314061330785042e-03 -1.069654942571278e-02
            2.830911139009291e-02 6.037011023403728e-02 7.490689702615323e-02 4.440114703221257e-02 -9.229919916383358e-03 -1.065261938986965e-02 8.588105072551812e-01 -3.950887076169739e-01
            8.587909198994883e-01 -3.950637128569152e-01 -9.239001908091800e-03 -1.059816194548929e-02 7.488218128030022e-02 4.433801313527504e-02 2.822458782038819e-02 6.036092693368753e-02
            -9.230055154843634e-03 -1.068349758331571e-02 8.587482394124030e-01 -3.951052347750076e-01 2.825502738879074e-02 6.029178530053317e-02 7.483936527599033e-02 4.445597758130286e-02
1832500.0000000000 1.231278205961912e-01 4.546578842089413e-02 7.828688977508401e-02 7.805857377860735e-02 6.573795562622384e-01 -6.559081468804743e-01 -2.060480172633600e-02 -6.225485333187674e-03
            7.834449324887660e-02 7.803656906479414e-02 1.231136149285774e-01 4.556880520368325e-02 -2.055617708256963e-02 -6.256812650504287e-03 6.573908362258168e-01 -6.559007563100981e-01
            6.573343218458301e-01 -6.559954327734119e-01 -2.053817970882037e-02 -6.305845676756919e-03 1.231457993269465e-01 4.551035721088000e-02 7.824516515065613e-02 7.807971673372247e-02
            -2.063808927078866e-02 -6.297147659641404e-03 6.573146757197610e-01 -6.560243335417606e-01 7.834377480020711e-02 7.802865631095306e-02 1.230691357392213e-01 4.559629800010174e-02
2665000.0000000000 1.592699545977640e-01 1.548429444816091e-02 1.258321473017800e-01 6.023718673061952e-02 3.890007799218796e-01 -8.290095050515103e-01 -2.365866111202930e-02 5.446863682132796e-03
            1.257966706177275e-01 6.021529332388082e-02 1.592616089380827e-01 1.540435134390582e-02 -2.371487697497900e-02 5.336930604386971e-03 3.889756322431383e-01 -8.289978538944515e-01
            3.890020669498819e-01 -8.289572906811858e-01 -2.359832460922319e-02 5.382245797810204e-03 1.591524156702506e-01 1.558296636507298e-02 1.257607564550928e-01 6.033920983815787e-02
            -2.369235376421229e-02 5.405582918443159e-03 3.890309485324337e-01 -8.290552505914385e-01 1.257943190649427e-01 6.019669475889536e-02 1.592354741879297e-01 1.549822118005910e-02
3497500.0000000000 1.677167087011211e-01 -3.113858816519196e-02 1.505869133031260e-01 1.791331950545037e-02 8.540412629491678e-02 -9.040525517050572e-01 -1.786613839185047e-02 1.405624169657608e-02
            1.505481461909925e-01 1.797435842531107e-02 1.678395099198534e-01 -3.108959824293602e-02 -1.780623125495717e-02 1.397092144104992e-02 8.540272801740376e-02 -9.039586647205654e-01
            8.545741025579105e-02 -9.039669802722573e-01 -1.779883471181259e-02 1.398074364189330e-02 1.677737343669380e-01 -3.092115547718470e-02 1.505125342970498e-01 1.790967336947877e-02
            -1.778395788660210e-02 1.404315179594052e-02 8.535515367031454e-02 -9.039898861292848e-01 1.505360864698755e-01 1.793178418075824e-02 1.677806978582607e-01 -3.097703097992722e-02
4330000.0000000000 1.447802982624971e-01 -7.435282547558431e-02 1.430094807870731e-01 -2.990280176768139e-02 -2.249573829156935e-01 -8.776888156601340e-01 -1.104107569129528e-02 1.453429501312490e-02
            1.430995456150844e-01 -2.991379677831035e-02 1.447573914318305e-01 -7.440667364663731e-02 -1.088424845825240e-02 1.453850613833494e-02 -2.248969057501962e-01 -8.776689433747068e-01
            -2.249260603415965e-01 -8.776655921365774e-01 -1.092529198747395e-02 1.451220774214947e-02 1.448197414377002e-01 -7.414985110854919e-02 1.430037489966346e-01 -2.987630978440643e-02
            -1.097948952382391e-02 1.449539131329897e-02 -2.248262962223409e-01 -8.776590227490152e-01 1.430677101264763e-01 -2.989749018276893e-02 1.448393438650075e-01 -7.413297514203472e-02
5162500.0000000000 9.774828061688574e-02 -9.518608605160703e-02 1.063016284332175e-01 -6.187438705821374e-02 -5.125739215780458e-01 -7.497906587414114e-01 -1.113191671102153e-02 1.151967522898249e-02
            1.062988692991604e-01 -6.194001852951329e-02 9.775394386694652e-02 -9.523297776718267e-02 -1.116376649110271e-02 1.156139772293075e-02 -5.126018200719311e-01 -7.496771996281273e-01
            -5.125644748825442e-01 -7.497766017708729e-01 -1.116100209622850e-02 1.149993037403181e-02 9.796973026871440e-02 -9.492212861075593e-02 1.063052622814838e-01 -6.193029410758799e-02
            -1.112165618313678e-02 1.152071725334177e-02 -5.126426346526368e-01 -7.497120455241962e-01 1.063229723555049e-01 -6.199993454128701e-02 9.791481127419410e-02 -9.498924419943112e-02
5995000.0000000000 4.557336281199920e-02 -8.134674842166931e-02 5.670865556050775e-02 -6.173921484981872e-02 -7.438174572850951e-01 -5.267941157354034e-01 -1.770502759858670e-02 1.526347379729727e-02
            5.667417293594707e-02 -6.177133456038449e-02 4.558019082098356e-02 -8.144267495940009e-02 -1.765642390593725e-02 1.534313702681574e-02 -7.437543808598017e-01 -5.267755044028176e-01
            -7.437647710399249e-01 -5.268358309392784e-01 -1.757466298467514e-02 1.526104874236874e-02 4.581489989725667e-02 -8.129516745915204e-02 5.672132987968007e-02 -6.171756572272517e-02
            -1.759795256293376e-02 1.531557274183344e-02 -7.438321432276763e-01 -5.267510129290170e-01 5.677798542381562e-02 -6.174767875547678e-02 4.576424805459286e-02 -8.128738250898090e-02
6827500.0000000000 1.341845408434167e-02 -3.584935835700812e-02 1.980080227208186e-02 -2.747400399867108e-02 -8.819185040540414e-01 -2.309716317239892e-01 -1.959050023161077e-02 3.052683348838866e-02
            1.984059425060114e-02 -2.761813021857270e-02 1.347111322914746e-02 -3.589573352126611e-02 -1.955377453793948e-02 3.055859440590160e-02 -8.819524408753383e-01 -2.309562416181573e-01
            -8.819839038222378e-01 -2.309542449310918e-01 -1.958593199672811e-02 3.055129185748424e-02 1.361015167682341e-02 -3.581533255488400e-02 1.990659247819518e-02 -2.751917048216314e-02
            -1.955247345524827e-02 3.049512085631115e-02 -8.819808147120223e-01 -2.309873476615566e-01 1.985592788537488e-02 -2.757256018795513e-02 1.359551326511489e-02 -3.574330557720619e-02
7660000.0000000000 1.901885742360791e-02 1.983554106691680e-02 1.652261658871377e-02 2.248135326979908e-02 -9.013688969762880e-01 9.532335204138903e-02 -6.000522543869702e-03 4.849977399725237e-02
            1.659864265606242e-02 2.248364780558326e-02 1.904036835833713e-02 1.988532783913763e-02 -6.006088461296401e-03 4.842930120118624e-02 -9.013828956800082e-01 9.527419931247531e-02
            -9.012827057000636e-01 9.529349206376189e-02 -6.029934657140824e-03 4.843923170311119e-02 1.924838772766507e-02 1.989675402161805e-02 1.649993659463679e-02 2.247281695561430e-02
            -6.060233116751696e-03 4.843744767639366e-02 -9.013572023863775e-01 9.530761854342028e-02 1.652189034938924e-02 2.247030541427834e-02 1.924246938740310e-02 1.980157352801792e-02
8492500.0000000000 5.913974080503268e-02 5.690747633920553e-02 4.749197454798718e-02 6.040381246130282e-02 -8.016798059840010e-01 4.007056659062355e-01 2.065549197578542e-02 5.400244345237924e-02
            4.745418041154202e-02 6.034073506818498e-02 5.924547559358932e-02 5.691127091733767e-02 2.053153286011264e-02 5.403199940006652e-02 -8.016269830443917e-01 4.006645529434625e-01
            -8.016793506633956e-01 4.007031399891745e-01 2.056764189908025e-02 5.408291576752189e-02 5.927826650845888e-02 5.692500614218938e-02 4.743985233624345e-02 6.039542565976699e-02
            2.059751006848079e-02 5.401518339234996e-02 -8.016143100401308e-01 4.006728020859032e-01 4.747841728461968e-02 6.047364787958399e-02 5.927380989618577e-02 5.693823991610181e-02
9325000.0000000000 1.114079706688727e-01 5.835722212723749e-02 9.397864992098286e-02 6.780682946850056e-02 -6.063373528471753e-01 6.442026726168034e-01 4.616082258851108e-02 4.138233442613581e-02
            9.404055087967339e-02 6.777814228267703e-02 1.114526566256449e-01 5.835682844391805e-02 4.623520054880126e-02 4.139812929037130e-02 -6.062918580960385e-01 6.441994378977826e-01
            -6.063030104042925e-01 6.442253931490105e-01 4.625398167286778e-02 4.144019853054643e-02 1.114352015389353e-01 5.833842766123305e-02 9.401358695672639e-02 6.780304784377156e-02
            4.625895913605804e-02 4.134916874348357e-02 -6.063647506047439e-01 6.441793185670807e-01 9.404272926564163e-02 6.784160810755310e-02 1.114952134939951e-01 5.841760558990942e-02
10157500.0000000000 1.504827923876731e-01 2.714158836399867e-02 1.328240811614771e-01 4.419892817521543e-02 -3.478375125180480e-01 8.034746249180847e-01 5.934345851644403e-02 1.802596035243083e-02
            1.328513223056906e-01 4.412233779214488e-02 1.505172289469376e-01 2.701687050354712e-02 5.926308893980486e-02 1.801025048912296e-02 -3.477831736064821e-01 8.035379330296951e-01
            -3.477967196159525e-01 8.034382070598935e-01 5.935892207589612e-02 1.797844188674761e-02 1.505791762870544e-01 2.716245210866388e-02 1.328061972839015e-01 4.422054677442903e-02
            5.932123391188920e-02 1.796532384016696e-02 -3.478680342655389e-01 8.034564933457302e-01 1.328297489058280e-01 4.422619888197814e-02 1.505841639563378e-01 2.715627584604557e-02
10990000.0000000000 1.605742589034761e-01 -2.057038535336395e-02 1.475158972913881e-01 2.354964931270852e-03 -5.609693512424779e-02 8.692062222173487e-01 5.925280559343084e-02 -4.302580329752126e-03
            1.475522842325938e-01 2.248484021002012e-03 1.605368125810736e-01 -2.056553001268159e-02 5.923241445670809e-02 -4.329919682721103e-03 -5.619413235457527e-02 8.692015492743524e-01
            -5.609942545878784e-02 8.692489830422114e-01 5.915178357044359e-02 -4.330120336315412e-03 1.606056429005565e-01 -2.048912268053784e-02 1.475115620165072e-01 2.201159217506219e-03
            5.922756501580791e-02 -4.291926811998329e-03 -5.610749474341575e-02 8.692479955255759e-01 1.474766748311146e-01 2.193226012556713e-03 1.604901532296609e-01 -2.059205137222225e-02
11822500.0000000000 1.382302161106564e-01 -6.381233862890373e-02 1.325357299881927e-01 -3.953285045534985e-02 2.414936559476634e-01 8.375394982400142e-01 5.357474058485123e-02 -1.982913531400731e-02
            1.324748871862607e-01 -3.953214203422925e-02 1.382721267063872e-01 -6.387459458321021e-02 5.358707547618117e-02 -1.985209456168361e-02 2.414997523275898e-01 8.374334865998163e-01
            2.414494487176679e-01 8.374642383055759e-01 5.361930487666152e-02 -1.985269530397653e-02 1.382587950846753e-01 -6.381597236996851e-02 1.324257414674695e-01 -3.954777472281803e-02
            5.366358721392912e-02 -1.985855468514684e-02 2.415173342013369e-01 8.374746359837915e-01 1.324580830413728e-01 -3.956546516872070e-02 1.381288702615492e-01 -6.384744071847247e-02
12655000.0000000000 9.261450324543935e-02 -8.324484324972342e-02 9.342765222220818e-02 -6.240161996077024e-02 5.160391389063672e-01 7.071951919620213e-01 4.949769618402280e-02 -3.238576274561562e-02
            9.345019677093236e-02 -6.241551382454483e-02 9.256499106683064e-02 -8.330079700249597e-02 4.955013666160868e-02 -3.229512088038152e-02 5.161759762457275e-01 7.071351447579091e-01
            5.161474390341132e-01 7.071716783426713e-01 4.960681885937320e-02 -3.236159753296152e-02 9.242495935526292e-02 -8.339517459980625e-02 9.340241296363165e-02 -6.252725902482301e-02
            4.947817560747481e-02 -3.240476592086599e-02 5.160670594510811e-01 7.072140063659592e-01 9.334637502466535e-02 -6.244249266300772e-02 9.239194829876300e-02 -8.334588788388242e-02
13487500.0000000000 4.371858444868188e-02 -6.804991998974522e-02 4.776307537608902e-02 -5.368982254783818e-02 7.332787088677213e-01 4.852856699922681e-01 4.571166404170616e-02 -4.934993568456767e-02
            4.777568973999594e-02 -5.372727572110361e-02 4.374787906890605e-02 -6.807398454223776e-02 4.565618165649447e-02 -4.940437774795391e-02 7.332045233993615e-01 4.853028449525684e-01
            7.332618293678934e-01 4.853279801669540e-01 4.573553936307038e-02 -4.942060747123758e-02 4.340939700675058e-02 -6.814099989550444e-02 4.770523109553605e-02 -5.369550937423735e-02
            4.565834999159758e-02 -4.945168845503035e-02 7.332565040459001e-01 4.853166201009407e-01 4.764928122023748e-02 -5.381214781133112e-02 4.336569869799638e-02 -6.821642482258654e-02
14320000.0000000000 1.686959142241283e-02 -2.327850486538889e-02 1.940894974340822e-02 -1.584175159594283e-02 8.575057025525563e-01 1.956094247332130e-01 3.211519443675832e-02 -7.251960908015487e-02
            1.937279126358047e-02 -1.585691503934979e-02 1.673831101574962e-02 -2.325418518485856e-02 3.216298401931977e-02 -7.254862931082794e-02 8.574845309258778e-01 1.956066398151951e-01
            8.575212647114834e-01 1.956048384930627e-01 3.210490341817247e-02 -7.265608781912948e-02 1.610813045018444e-02 -2.326114091148712e-02 1.923183532695896e-02 -1.583462770905678e-02
            3.208311302394670e-02 -7.251235668836731e-02 8.574975772585793e-01 1.955738573137255e-01 1.925772724726132e-02 -1.573018731386065e-02 1.611548506855606e-02 -2.330245522240394e-02
15152500.0000000000 2.696904389023443e-02 2.807269713441382e-02 2.458688707828544e-02 3.127174037738128e-02 8.661389224441188e-01 -1.190346216978713e-01 1.797699205233155e-03 -9.062765683180143e-02
            2.455503736933879e-02 3.119125552312621e-02 2.693890786558229e-02 2.811677670677173e-02 1.865352511887166e-03 -9.067805783790917e-02 8.661284735860783e-01 -1.190183026672991e-01
            8.660527114720710e-01 -1.190147422092320e-01 1.837792171640011e-03 -9.072980441349152e-02 2.605171477459568e-02 2.836516502494308e-02 2.433734719639388e-02 3.130736660548691e-02
            1.778008470882591e-03 -9.074024617616823e-02 8.660877835798386e-01 -1.190081689440453e-01 2.436745149535552e-02 3.129270358305758e-02 2.597682930549410e-02 2.838840191122938e-02
15985000.0000000000 6.806127089084112e-02 5.881892154586305e-02 5.938860412185454e-02 6.148459763690129e-02 7.615705014915991e-01 -4.096335317243281e-01 -3.878354362665254e-02 -9.036211754224145e-02
            5.935276305116731e-02 6.154284998662137e-02 6.814483750885950e-02 5.880207070881596e-02 -3.888483437068498e-02 -9.024368933916875e-02 7.615693269801650e-01 -4.096595688582187e-01
            7.615124430305866e-01 -4.096023098342790e-01 -3.896395371833181e-02 -9.028534580304008e-02 6.699719362097045e-02 5.950561652702242e-02 5.937791614629367e-02 6.172397586080224e-02
            -3.882503163675184e-02 -9.028655146866564e-02 7.615825708332403e-01 -4.096290614598642e-01 5.936742303963426e-02 6.171892778589520e-02 6.699434581104258e-02 5.946583285603032e-02
16817500.0000000000 1.175116816476607e-01 5.483333705653252e-02 1.039765419142393e-01 6.115589793085658e-02 5.676357650043989e-01 -6.388131864664178e-01 -7.444942149570558e-02 -6.832402735740485e-02
            1.038835008757002e-01 6.107964910409847e-02 1.175090140328857e-01 5.480215806610793e-02 -7.443141955510632e-02 -6.831741416932775e-02 5.676530926739082e-01 -6.387580752581633e-01
            5.676730525643390e-01 -6.387916564370154e-01 -7.443005693341465e-02 -6.826203459853460e-02 1.164809034317695e-01 5.607466576526678e-02 1.039466345935682e-01 6.124869120153371e-02
            -7.449862388965942e-02 -6.826686853562974e-02 5.675877491811591e-01 -6.388392135015110e-01 1.040143446673577e-01 6.125045514549404e-02 1.165854830651709e-01 5.604712346858150e-02
17650000.0000000000 1.513606544171595e-01 2.108799257954422e-02 1.365766724557034e-01 3.303234989876309e-02 3.147295888344575e-01 -7.866705141291606e-01 -9.393157435825565e-02 -3.428554797644036e-02
            1.365793023501242e-01 3.302819912506802e-02 1.513845973307377e-01 2.105689895216054e-02 -9.384468992586133e-02 -3.423593265587083e-02 3.146896172154754e-01 -7.866237413903451e-01
            3.147172452959525e-01 -7.866637365375684e-01 -9.386521429406293e-02 -3.419107360982730e-02 1.508262640806932e-01 2.273691475980564e-02 1.366560341124244e-01 3.308281755739739e-02
            -9.391354676301215e-02 -3.429152560202611e-02 3.147435860496074e-01 -7.866582891514112e-01 1.367238984671195e-01 3.310628700351859e-02 1.508524924494312e-01 2.270576072955851e-02
18482500.0000000000 1.561448255365511e-01 -2.576713716966228e-02 1.438683264376144e-01 -8.761191397162861e-03 3.073580830087961e-02 -8.440073696135550e-01 -9.733709812441962e-02 -8.201959527857761e-05
            1.439385007958692e-01 -8.781621571946615e-03 1.561795235256443e-01 -2.576223950127595e-02 -9.737995519467781e-02 -1.475487993977194e-04 3.064252995401459e-02 -8.440842800357007e-01
            3.075266163447396e-02 -8.440482768798699e-01 -9.734089420069797e-02 -9.003156968806412e-05 1.561920295476356e-01 -2.386108271271061e-02 1.440773839648317e-01 -8.652507043556955e-03
            -9.727392832820625e-02 -8.392111127547334e-05 3.075719871249627e-02 -8.440087046970162e-01 1.440441725255117e-01 -8.762666812656203e-03 1.561626945203659e-01 -2.381614103488542e-02
19315000.0000000000 1.302479038890726e-01 -6.513650553825867e-02 1.229554316052024e-01 -4.582633114898781e-02 -2.579705697189840e-01 -8.060919890199032e-01 -9.194465224442602e-02 2.856439611962918e-02
            1.230436669326159e-01 -4.583585950897385e-02 1.301967558869911e-01 -6.515100225547694e-02 -9.198083118961310e-02 2.861141628423477e-02 -2.580726878572235e-01 -8.059932035071156e-01
            -2.580259580110549e-01 -8.060550669525203e-01 -9.201620167286000e-02 2.859139674891633e-02 1.307687999332320e-01 -6.338299747705731e-02 1.231717963645531e-01 -4.591165730923061e-02
            -9.198156035456842e-02 2.865693684679861e-02 -2.579813680559906e-01 -8.060481513805419e-01 1.231393900000545e-01 -4.583349490808589e-02 1.308021546576416e-01 -6.332392550711903e-02
20147500.0000000000 8.399819063043390e-02 -7.913720184385165e-02 8.220800887401991e-02 -6.112564520150626e-02 -5.220975190539526e-01 -6.714191824775814e-01 -8.345374491393927e-02 5.476350673978097e-02
            8.231154653027646e-02 -6.117747169504972e-02 8.401188627790303e-02 -7.917557602473262e-02 -8.345639587035628e-02 5.481687118646136e-02 -5.220877414638294e-01 -6.714101187729808e-01
            -5.220428611441532e-01 -6.714051546033051e-01 -8.345814152709383e-02 5.473580688363491e-02 8.513838557259384e-02 -7.777275893534939e-02 8.238794653224585e-02 -6.128050647762196e-02
            -8.346147033346650e-02 5.481721053312086e-02 -5.221104885932154e-01 -6.714695848622169e-01 8.245477829801795e-02 -6.122448774264594e-02 8.507803203856912e-02 -7.771413013504137e-02
20980000.0000000000 3.878685873079981e-02 -5.920961891528335e-02 4.047360233984604e-02 -4.535245135104902e-02 -7.265767557453369e-01 -4.484665109679717e-01 -6.913143065880356e-02 8.378756026656214e-02
            4.046276964410744e-02 -4.542681497834514e-02 3.880627049654501e-02 -5.909755729946514e-02 -6.910336866038183e-02 8.379455333447605e-02 -7.266264410676773e-01 -4.484934857462660e-01
            -7.265789922034045e-01 -4.485252942329410e-01 -6.913349803744021e-02 8.374937696060886e-02 4.003979100823623e-02 -5.819043151291683e-02 4.046947934894921e-02 -4.557770820281182e-02
            -6.918591099355868e-02 8.373448697001135e-02 -7.266976471374105e-01 -4.485298240316143e-01 4.054239211252106e-02 -4.561312009429486e-02 4.010961632798701e-02 -5.820527859167837e-02
21812500.0000000000 1.804865936147801e-02 -1.331048630423727e-02 1.991042704089582e-02 -4.828027731438099e-03 -8.374285960665275e-01 -1.630380337399035e-01 -4.052532731084794e-02 1.130040464979744e-01
            1.985495298125509e-02 -4.821995764350626e-03 1.809516083395602e-02 -1.343030824087669e-02 -4.051800138686246e-02 1.130986938370281e-01 -8.375155786044107e-01 -1.630778547877170e-01
            -8.374368605526190e-01 -1.630721484449435e-01 -4.047566711385468e-02 1.130878623133492e-01 1.915499406982805e-02 -1.303410806949789e-02 1.979253182013599e-02 -5.101174522353294e-03
            -4.046271861655582e-02 1.131003369485316e-01 -8.374570014006310e-01 -1.630530184558285e-01 1.977492515151242e-02 -5.041157595986348e-03 1.924638734616223e-02 -1.287432176831628e-02
22645000.0000000000 3.354413176565495e-02 3.421671161304824e-02 3.231586057436083e-02 3.883109834271079e-02 -8.352372020132349e-01 1.414412386305170e-01 5.578820529365904e-03 1.302378388819399e-01
            3.233960923759596e-02 3.873410508126295e-02 3.358473909712133e-02 3.426256469645242e-02 5.608364311400736e-03 1.302494474899735e-01 -8.353084560056158e-01 1.414978514439458e-01
            -8.353466319509764e-01 1.415127764242604e-01 5.602625165212578e-03 1.302777570621508e-01 3.440443307623303e-02 3.426187211466150e-02 3.218810748516124e-02 3.866865911151189e-02
            5.600779556064282e-03 1.301833589386488e-01 -8.351694155772422e-01 1.414191167264983e-01 3.215243718914534e-02 3.865997471116059e-02 3.440890162985354e-02 3.430479957851957e-02
23477500.0000000000 7.584147705258233e-02 5.853725419491106e-02 7.003959111277951e-02 6.194891465236418e-02 -7.257454713814241e-01 4.186735762870242e-01 5.898343696485085e-02 1.230388810481925e-01
            7.010854778907546e-02 6.194056946388908e-02 7.589604838539253e-02 5.852358069404247e-02 5.896089685384193e-02 1.230104148038336e-01 -7.257560315996729e-01 4.185622078431323e-01
            -7.258230678156407e-01 4.186674747872077e-01 5.911128747489314e-02 1.230469485210141e-01 7.626516932495651e-02 5.855236112451834e-02 6.984718681858183e-02 6.197320020592489e-02
            5.892648504771274e-02 1.230694051663854e-01 -7.258486225313626e-01 4.186000149728428e-01 6.986151271900815e-02 6.200662927239057e-02 7.624082618991559e-02 5.862055391999100e-02
24310000.0000000000 1.219210429491468e-01 4.940603807824600e-02 1.121799858526798e-01 5.473306212805162e-02 -5.327089869777450e-01 6.350145916965103e-01 1.031642836969648e-01 9.159554637677894e-02
            1.121399059909990e-01 5.475780215623850e-02 1.219479646883708e-01 4.941121073746287e-02 1.030687223366933e-01 9.170547189248218e-02 -5.327610215435357e-01 6.349246602638201e-01
            -5.327511199800867e-01 6.349915407545299e-01 1.030706372995041e-01 9.170483504121411e-02 1.221320303896544e-01 4.954656395079857e-02 1.120867857293354e-01 5.479900358446223e-02
            1.030852603291993e-01 9.164546549670424e-02 -5.326764667894326e-01 6.349804901745782e-01 1.121056602898886e-01 5.478196291481262e-02 1.220946378622175e-01 4.945983689945441e-02
25142500.0000000000 1.503867006080964e-01 1.379631494262457e-02 1.389623125768216e-01 2.306211964449941e-02 -2.842085284363121e-01 7.723315892745392e-01 1.279061415818372e-01 4.715098691966978e-02
            1.389788560653448e-01 2.303077677244152e-02 1.503229293589435e-01 1.368211636384745e-02 1.279480181292205e-01 4.724660062659121e-02 -2.842297295717347e-01 7.723599272542105e-01
            -2.841121462505363e-01 7.723887670591455e-01 1.278615931392581e-01 4.724676097891852e-02 1.504239262219171e-01 1.413052603943814e-02 1.389535780170950e-01 2.316374760586489e-02
            1.278976617335204e-01 4.719862660569782e-02 -2.842003367553324e-01 7.723727959006873e-01 1.389390608012532e-01 2.308398891215006e-02 1.503860342167594e-01 1.398400395081083e-02
25975000.0000000000 1.496060055978540e-01 -3.116301413859845e-02 1.396076338689681e-01 -1.798757083185884e-02 -6.520036397614175e-03 8.217210672545779e-01 1.341506460534942e-01 1.752018406382277e-03
            1.396362695095656e-01 -1.795566791177229e-02 1.496100643002995e-01 -3.113602406427970e-02 1.340960532581731e-01 1.736618322163831e-03 -6.588673614118855e-03 8.216591507771905e-01
            -6.572999419605260e-03 8.216129029274403e-01 1.340888490660677e-01 1.635435891311455e-03 1.496939819643334e-01 -3.069059773130439e-02 1.396310348258049e-01 -1.793653753508419e-02
            1.340604662521987e-01 1.693194334634852e-03 -6.518847621994240e-03 8.216876016104812e-01 1.396135531640235e-01 -1.795177509714896e-02 1.496363827852029e-01 -3.062273862432405e-02
26807500.0000000000 1.202012706552053e-01 -6.552860113480112e-02 1.138763911641151e-01 -5.019214870685981e-02 2.743635123392167e-01 7.771339322291722e-01 1.282798444651200e-01 -3.960613692587792e-02
            1.138645579851241e-01 -5.018463762616762e-02 1.201957876775485e-01 -6.553945004914204e-02 1.282900600942576e-01 -3.970238363831241e-02 2.744379389678491e-01 7.771165924475659e-01
            2.745145516478277e-01 7.770827003753944e-01 1.283063160739101e-01 -3.966163415827761e-02 1.204248693470572e-01 -6.495199155779227e-02 1.139441256139234e-01 -5.030150944069783e-02
            1.283065350618020e-01 -3.963936547770648e-02 2.744771017548464e-01 7.770766750682987e-01 1.138947350589701e-01 -5.032911540165989e-02 1.203722589089497e-01 -6.499643881730333e-02
27640000.0000000000 7.451291502358345e-02 -7.294817486690923e-02 7.242216925462926e-02 -5.842228073214854e-02 5.286062794105715e-01 6.376453282417616e-01 1.145031267115316e-01 -7.900001608422351e-02
            7.234254670270873e-02 -5.841417117153012e-02 7.462961461397154e-02 -7.290441353493839e-02 1.145545786607173e-01 -7.883393480503006e-02 5.286168308584398e-01 6.376231008476103e-01
            5.285944865384601e-01 6.376566646391482e-01 1.144642515883604e-01 -7.897069740992818e-02 7.482271367269062e-02 -7.245852197529340e-02 7.240918542170593e-02 -5.859180214421805e-02
            1.144690788542373e-01 -7.894597127537213e-02 5.286682989840805e-01 6.376458711024349e-01 7.242857151980879e-02 -5.851962492743225e-02 7.477285467476386e-02 -7.247360866848480e-02
28472500.0000000000 3.428419494717321e-02 -4.773925720809789e-02 3.491873678531516e-02 -3.659011361923457e-02 7.206316453287752e-01 4.130549702450920e-01 8.914604398888920e-02 -1.186577996990983e-01
            3.487055855033605e-02 -3.654367483649191e-02 3.436490673550197e-02 -4.770472469461023e-02 8.916440996494662e-02 -1.186236356461175e-01 7.206753889730189e-01 4.131881636194383e-01
            7.206751523391849e-01 4.130809596500760e-01 8.914356547234409e-02 -1.186557977525403e-01 3.450241876929377e-02 -4.742367782048471e-02 3.489723504743575e-02 -3.663276134104081e-02
            8.918243489563871e-02 -1.186690666665263e-01 7.206187381754816e-01 4.130881448420016e-01 3.484336141677497e-02 -3.656188671620400e-02 3.449022426425320e-02 -4.752898990895897e-02
29305000.0000000000 2.114949641364977e-02 -1.286966892614608e-03 2.194825805312602e-02 5.547543094105004e-03 8.178924916045883e-01 1.317820261500914e-01 4.529102441448815e-02 -1.528653519379315e-01
            2.192953112286485e-02 5.483845135996021e-03 2.115926643696984e-02 -1.222370379704190e-03 4.528560293423985e-02 -1.528589233183918e-01 8.179856979090506e-01 1.317230880962145e-01
            8.180483388668630e-01 1.317126610955041e-01 4.529582600832525e-02 -1.527936587401014e-01 2.110669208752735e-02 -1.180247881593066e-03 2.184498585241785e-02 5.431380497401164e-03
            4.526401031980103e-02 -1.528909349554148e-01 8.179890996938408e-01 1.317436731399545e-01 2.181252790057758e-02 5.507906822100510e-03 2.113471974095015e-02 -1.144471925167749e-03
30137500.0000000000 4.266313601048589e-02 4.157722355238196e-02 4.090899722536000e-02 4.491162377957010e-02 8.053027472627592e-01 -1.626383567535221e-01 -1.600907145767094e-02 -1.675772195586051e-01
            4.093339420593661e-02 4.487933151484862e-02 4.273120134435575e-02 4.154040634763734e-02 -1.599415640634642e-02 -1.676232766180943e-01 8.053605252175564e-01 -1.625998026595240e-01
            8.053983634341138e-01 -1.626598314689731e-01 -1.596105005989875e-02 -1.676169489144476e-01 4.249940653590757e-02 4.180319020735355e-02 4.083014473501462e-02 4.496094203463950e-02
            -1.598327202370145e-02 -1.675652151560121e-01 8.054285237018427e-01 -1.626449485717560e-01 4.086769624082984e-02 4.490481175074901e-02 4.241690102742558e-02 4.173423393126425e-02
30970000.0000000000 8.629098494932397e-02 5.878499711106269e-02 8.035970436467016e-02 6.090569811243055e-02 6.912557019332360e-01 -4.267940057968402e-01 -8.096576468385420e-02 -1.529026786283092e-01
            8.041802030036478e-02 6.092999089899644e-02 8.626554525557785e-02 5.880753831464617e-02 -8.093722632635751e-02 -1.528129939614594e-01 6.912660839119340e-01 -4.268293427517645e-01
            6.912898029666755e-01 -4.267704137146809e-01 -8.092144066579815e-02 -1.529081047471111e-01 8.587872043086429e-02 5.918213042877789e-02 8.032637366817173e-02 6.100191037316716e-02
            -8.088152152331844e-02 -1.528301408425932e-01 6.913265378857042e-01 -4.268223143863809e-01 8.035956500952980e-02 6.096839290061361e-02 8.592338357614815e-02 5.923406005157411e-02
31802500.0000000000 1.291123353520016e-01 4.391270254495204e-02 1.193492099592704e-01 4.741730818655648e-02 4.990899268391205e-01 -6.307100484578335e-01 -1.323922470323192e-01 -1.117868068132872e-01
            1.193697145623504e-01 4.749717508404811e-02 1.291398509484271e-01 4.388896894727114e-02 -1.323868426487094e-01 -1.117803448014161e-01 4.990253682170162e-01 -6.307265853421437e-01
            4.991263544839485e-01 -6.306552019277639e-01 -1.324313690948066e-01 -1.118100611982207e-01 1.287912879550525e-01 4.444236483043264e-02 1.194698217486363e-01 4.756380736060237e-02
            -1.323465165817653e-01 -1.118418804788164e-01 4.990558511314169e-01 -6.308381773263098e-01 1.194498379803193e-01 4.753527883486377e-02 1.287900213816245e-01 4.447373462585486e-02
32635000.0000000000 1.519889805794743e-01 6.022739181241332e-03 1.401193994705368e-01 1.310918999800563e-02 2.550843307857279e-01 -7.580676005499547e-01 -1.615149820678573e-01 -5.699136758652046e-02
            1.401028534950987e-01 1.307454015216257e-02 1.519884587566813e-01 6.006421843001057e-03 -1.615076136609631e-01 -5.699898890232879e-02 2.550370169435026e-01 -7.579861527444814e-01
            2.549637030325526e-01 -7.580424236925847e-01 -1.615273692819350e-01 -5.700334219600670e-02 1.517535652492583e-01 6.472187989713431e-03 1.402801695224758e-01 1.296007222415323e-02
            -1.615080431509933e-01 -5.696235436629327e-02 2.549484860400713e-01 -7.580016858050058e-01 1.403380020457318e-01 1.295954908999472e-02 1.517515870878627e-01 6.446560975191321e-03
33467500.0000000000 1.459227828261636e-01 -3.727095572395529e-02 1.346112030330763e-01 -2.629135830498807e-02 -1.645573337311229e-02 -7.993571754162837e-01 -1.695380421240548e-01 -3.186072889661466e-04
            1.345317169780904e-01 -2.643340541525745e-02 1.458437797062504e-01 -3.735432409997987e-02 -1.695069330062992e-01 -4.156099897384347e-04 -1.649043616526509e-02 -7.993574150231533e-01
            -1.638223676109891e-02 -7.993943395308223e-01 -1.695065856580693e-01 -3.463890300562140e-04 1.455582861309838e-01 -3.706502369935714e-02 1.344921332637813e-01 -2.662380778572880e-02
            -1.695350000601137e-01 -3.651896447661050e-04 -1.644307021622416e-02 -7.994359756203767e-01 1.344932548664931e-01 -2.666926901699245e-02 1.455718916449872e-01 -3.707277398501473e-02
34300000.0000000000 1.134016690702658e-01 -6.715937720604136e-02 1.046479656897556e-01 -5.358753198810286e-02 -2.896227183207635e-01 -7.486045102737267e-01 -1.621408876795419e-01 5.316467745972323e-02
            1.046591583752214e-01 -5.355386080824314e-02 1.133520330218646e-01 -6.707011933590698e-02 -1.621831041266659e-01 5.309853027939230e-02 -2.896160504406873e-01 -7.485450565753340e-01
            -2.896516086890050e-01 -7.485456760000373e-01 -1.621854637034988e-01 5.320539361504441e-02 1.129109817550226e-01 -6.714431888878054e-02 1.044846220488605e-01 -5.395933358506730e-02
            -1.621660277973431e-01 5.315731861533016e-02 -2.896795731858078e-01 -7.485013142524239e-01 1.044530598031407e-01 -5.388909256929098e-02 1.129137842779739e-01 -6.718513508392163e-02
35132500.0000000000 6.855392459463237e-02 -6.883963240405382e-02 6.334823903834855e-02 -5.506429702486940e-02 -5.337135882107440e-01 -6.045046726569314e-01 -1.421844135562011e-01 1.044038754746720e-01
            6.331882693970570e-02 -5.507721826780257e-02 6.854949214575039e-02 -6.884409837831722e-02 -1.421139149018155e-01 1.044218532306566e-01 -5.336999748966310e-01 -6.045018809812577e-01
            -5.337794394348603e-01 -6.045157840949791e-01 -1.422169920170060e-01 1.044949410689483e-01 6.754858358376431e-02 -6.921308459248936e-02 6.289905604069411e-02 -5.527603272587960e-02
            -1.421784530745691e-01 1.045230229967468e-01 -5.336888672287157e-01 -6.044854683244455e-01 6.277983386428412e-02 -5.522832319665519e-02 6.747412505932252e-02 -6.922020081681696e-02
35965000.0000000000 3.331828563125647e-02 -3.997294908360555e-02 3.063356937628296e-02 -2.808157215913440e-02 -7.133270881341883e-01 -3.789851637297553e-01 -1.053579746274534e-01 1.533386288919825e-01
            3.075252586195230e-02 -2.801806683417543e-02 3.326523643486116e-02 -3.995021219292912e-02 -1.053775798565545e-01 1.533357067610403e-01 -7.132323035226175e-01 -3.790581590428037e-01
            -7.133111405247714e-01 -3.790338915165263e-01 -1.054421229748650e-01 1.532932775345151e-01 3.116294779830640e-02 -4.025555179286585e-02 2.992112697684998e-02 -2.797745731806952e-02
            -1.053373694242059e-01 1.533473076182135e-01 -7.132895867536900e-01 -3.790244417644923e-01 2.990486619756997e-02 -2.794937652119138e-02 3.126084372335090e-02 -4.029723808272398e-02
36797500.0000000000 2.672329787564211e-02 5.367400307594954e-03 2.486734786200143e-02 1.443566464520638e-02 -7.979669031765740e-01 -1.025385354847498e-01 -4.694949570932451e-02 1.907003430433727e-01
            2.485543749390123e-02 1.443773748236475e-02 2.676651252284395e-02 5.338319972109252e-03 -4.698338315801821e-02 1.907153951605661e-01 -7.980502242283803e-01 -1.025773905711024e-01
            -7.980025329817424e-01 -1.025989922793160e-01 -4.698857269441543e-02 1.906767543106759e-01 2.350444113439345e-02 5.764730122563223e-03 2.403797162629340e-02 1.508108036456476e-02
            -4.700552352513080e-02 1.906646327064420e-01 -7.979411751368478e-01 -1.025635671450275e-01 2.409485826269179e-02 1.502076694129055e-02 2.342401376100841e-02 5.765164801874342e-03
37630000.0000000000 5.235686851163300e-02 4.256372271466705e-02 4.897853210975119e-02 4.914072277804293e-02 -7.762704585872249e-01 1.817362910920453e-01 2.804139666387439e-02 2.021704576617154e-01
            4.898218220043300e-02 4.917698437159459e-02 5.234155713965764e-02 4.258189864391201e-02 2.799917916635667e-02 2.022973301670001e-01 -7.761236019316421e-01 1.818043196759798e-01
            -7.761175462394768e-01 1.817011196356646e-01 2.803609457323079e-02 2.021780790112613e-01 4.838796917855967e-02 4.438850820742885e-02 4.850089484971369e-02 5.029048627736089e-02
            2.803066143704553e-02 2.022724432996885e-01 -7.761963202194674e-01 1.818173207680311e-01 4.850673894063952e-02 5.023861874076211e-02 4.833203065583006e-02 4.439068224216210e-02
38462500.0000000000 9.516473479056807e-02 5.273080681446858e-02 8.910459637190211e-02 5.854300639787592e-02 -6.583096826597444e-01 4.335953238917228e-01 1.032644925666263e-01 1.799948427421619e-01
            8.917867242341788e-02 5.851028845219811e-02 9.506613762556725e-02 5.266695590232534e-02 1.032179515309822e-01 1.800067306020678e-01 -6.583446635692423e-01 4.335893872614047e-01
            -6.583402106472372e-01 4.336359221544870e-01 1.031634015608724e-01 1.800246283053314e-01 9.110440969823667e-02 5.623644207398217e-02 8.919252898783930e-02 5.992415700852940e-02
            1.031922462056009e-01 1.799140325035749e-01 -6.583321635868370e-01 4.336928390379264e-01 8.917922923594405e-02 5.996565743559790e-02 9.100915784982169e-02 5.627480969449319e-02
39295000.0000000000 1.329803413666190e-01 3.274814586671335e-02 1.243280291512655e-01 4.004631676507182e-02 -4.671942197915744e-01 6.261909735868761e-01 1.614156933027234e-01 1.297585826293020e-01
            1.243137554048578e-01 4.000675437453270e-02 1.328510539465712e-01 3.275859966124097e-02 1.614387756494136e-01 1.297581188501415e-01 -4.672231307376071e-01 6.261505472096898e-01
            -4.671651434905232e-01 6.261156716980485e-01 1.614082871120222e-01 1.297855291247134e-01 1.297586791080409e-01 3.802472995470493e-02 1.252497384043709e-01 4.125520393065594e-02
            1.614101000043429e-01 1.297362332326215e-01 -4.671868140009424e-01 6.262458520109567e-01 1.251858798416846e-01 4.126532723043987e-02 1.297482623896339e-01 3.814300524902035e-02
40127500.0000000000 1.487697191757026e-01 -6.190553163826085e-03 1.392076471788790e-01 4.056093126345864e-03 -2.269616894274174e-01 7.440432385997988e-01 1.945503036397930e-01 6.495255999909330e-02
            1.391711033468159e-01 4.046918808403845e-03 1.486824661000713e-01 -6.253345224388011e-03 1.944982793845216e-01 6.506583913032743e-02 -2.269125817183132e-01 7.440515861454839e-01
            -2.269251022265757e-01 7.440888686631273e-01 1.945488494603012e-01 6.497584475326097e-02 1.471100089016006e-01 3.483624190825277e-04 1.406368650101575e-01 4.815590747364010e-03
            1.944166331200098e-01 6.501255337751254e-02 -2.270035108467393e-01 7.440498605725919e-01 1.406227625829045e-01 4.787210766055863e-03 1.470558867208965e-01 2.824615447875813e-04
40960000.0000000000 1.360723810333936e-01 -4.640850152586805e-02 1.278140027255047e-01 -3.299408475713125e-02 3.894428257381106e-02 7.775158151060253e-01 2.040967791828489e-01 -2.688167923177424e-03
            1.278575297806364e-01 -3.299399323146874e-02 1.359771630207988e-01 -4.644941579009505e-02 2.040780630429250e-01 -2.717119818861184e-03 3.890527705997416e-02 7.775966152579313e-01
            3.891284783445857e-02 7.776105615070501e-01 2.041082782029890e-01 -2.710966913171939e-03 1.363477249629424e-01 -3.943638275547195e-02 1.295056626557531e-01 -3.301096164427581e-02
            2.040862020934973e-01 -2.701208457554481e-03 3.898095907493837e-02 7.775748373291776e-01 1.295052856530118e-01 -3.302285417861493e-02 1.364260988387692e-01 -3.938705615592435e-02
41792500.0000000000 9.975250320294798e-02 -6.963153100853695e-02 9.482691442300545e-02 -5.447372982127349e-02 3.045913056854826e-01 7.199893558882073e-01 1.948584265712633e-01 -6.833867718570419e-02
            9.482200657815898e-02 -5.446469291647234e-02 9.980962605934576e-02 -6.965651911376783e-02 1.948076233838243e-01 -6.839643799592265e-02 3.046675619448957e-01 7.199006651084193e-01
            3.045579146080574e-01 7.199471086085399e-01 1.947682130463771e-01 -6.831049312490926e-02 1.023095587038343e-01 -6.315057319629173e-02 9.624577385674338e-02 -5.531487207352270e-02
            1.948352506902734e-01 -6.838121442644268e-02 3.045971616901535e-01 7.199470330147875e-01 9.626758719710138e-02 -5.525430543929224e-02 1.022679090799865e-01 -6.310858262551580e-02
42625000.0000000000 5.601614069497892e-02 -6.372000889872820e-02 5.487902046651422e-02 -4.907284603773610e-02 5.383282751181057e-01 5.709613632283720e-01 1.678624194197665e-01 -1.314893445729714e-01
            5.487184036511949e-02 -4.908524636734353e-02 5.605998756766439e-02 -6.369595672768924e-02 1.677802571228252e-01 -1.314156085176365e-01 5.383128684497839e-01 5.710309702478994e-01
            5.383555441715689e-01 5.709657868620291e-01 1.677266397747317e-01 -1.316104310729743e-01 5.997044346320293e-02 -5.870574096239178e-02 5.573735056666262e-02 -5.041282151127607e-02
            1.678061511783778e-01 -1.315078376644254e-01 5.383267331972960e-01 5.709649172116913e-01 5.579245372660493e-02 -5.044992592612932e-02 5.995371392404296e-02 -5.865593579486614e-02
43457500.0000000000 2.647858086129725e-02 -2.955316129279752e-02 2.812414764189338e-02 -1.763864747220495e-02 7.048713488191490e-01 3.449807479204989e-01 1.187628526635863e-01 -1.886308212028533e-01
            2.811991096978698e-02 -1.760000365183013e-02 2.652892510309834e-02 -2.950960822260582e-02 1.187764848721086e-01 -1.886694820986231e-01 7.048770587083257e-01 3.450002717712135e-01
            7.048196807342144e-01 3.450323968059337e-01 1.187659338848690e-01 -1.886735078070456e-01 3.075000461650650e-02 -2.629592066726909e-02 2.819737195993790e-02 -1.916654800853757e-02
            1.187336362516394e-01 -1.886129400992894e-01 7.049223856532948e-01 3.449649325178956e-01 2.828777143659286e-02 -1.927486642031722e-02 3.080808396475011e-02 -2.635044411346009e-02
44290000.0000000000 2.753415248374933e-02 1.585528714016598e-02 2.976882718625169e-02 2.387521843168530e-02 7.766950590584368e-01 7.402788049046419e-02 4.557516947222427e-02 -2.278666115188940e-01
            2.977512345339341e-02 2.391987611975343e-02 2.753674473539633e-02 1.595609600504160e-02 4.562268756469205e-02 -2.278677129854196e-01 7.766570884284391e-01 7.396805847163025e-02
            7.766757629171586e-01 7.397548559502434e-02 4.559955792024853e-02 -2.278485995555974e-01 3.127957427657877e-02 1.748552084140523e-02 2.901339391696583e-02 2.269862786845093e-02
            4.562163607745959e-02 -2.279215581272460e-01 7.767653407529496e-01 7.404876568520444e-02 2.899398888265926e-02 2.264752145015304e-02 3.122206497828600e-02 1.742627194830161e-02
45122500.0000000000 5.817502072544478e-02 4.844286149315873e-02 5.866360868445979e-02 5.311244215392266e-02 7.460668599438421e-01 -1.996118101253074e-01 -4.252556227170314e-02 -2.348013461291719e-01
            5.877309372477153e-02 5.309726848028695e-02 5.813497736971060e-02 4.840396055688256e-02 -4.257434028247612e-02 -2.348414137961214e-01 7.460854609556816e-01 -1.995475485994039e-01
            7.460611492159130e-01 -1.995986976494027e-01 -4.248722279093994e-02 -2.348280297844079e-01 6.067646788697511e-02 4.923422270238222e-02 5.754072736779296e-02 5.263208403080834e-02
            -4.256877872274344e-02 -2.348982738669913e-01 7.460606200312437e-01 -1.995824494537634e-01 5.751345563381387e-02 5.255811596493771e-02 6.073209704835161e-02 4.921712483229387e-02
45955000.0000000000 1.014427450970356e-01 5.239906008971403e-02 9.869527552376629e-02 5.545271493822483e-02 6.250350523078553e-01 -4.389685326701253e-01 -1.269364671735639e-01 -2.044628819485604e-01
            9.868622024006658e-02 5.546254678167299e-02 1.013582720587616e-01 5.238990754810372e-02 -1.270090821422877e-01 -2.045629657978152e-01 6.251072859456280e-01 -4.389686559313268e-01
            6.251297611974380e-01 -4.390035400578234e-01 -1.269917824098402e-01 -2.045065266403493e-01 1.026094608122155e-01 5.315983859766601e-02 9.757373135173568e-02 5.580217696623607e-02
            -1.269671087559394e-01 -2.045006084128335e-01 6.252040237153558e-01 -4.389517619432879e-01 9.751129709462403e-02 5.575871688828141e-02 1.027743308613429e-01 5.316879419635565e-02
46787500.0000000000 1.358026811357944e-01 2.807703714502760e-02 1.296462086670805e-01 3.197323699001967e-02 4.355656091181255e-01 -6.201961166121474e-01 -1.908056765643622e-01 -1.449078510619522e-01
            1.296730376971880e-01 3.191308838318785e-02 1.357041284760597e-01 2.808944989969226e-02 -1.908063470747834e-01 -1.448777621810100e-01 4.354592981454333e-01 -6.201712935447165e-01
            4.354369957458987e-01 -6.200908816544289e-01 -1.908203183311327e-01 -1.449595373706801e-01 1.361921445779775e-01 2.960181025217451e-02 1.291096851361656e-01 3.285577242775486e-02
            -1.907589844894603e-01 -1.449216210160051e-01 4.354929159220168e-01 -6.202400592495675e-01 1.290892514477900e-01 3.283899295692129e-02 1.362258168679098e-01 2.960782610971795e-02
47620000.0000000000 1.463007727746665e-01 -1.182535685513856e-02 1.383134097986455e-01 -5.243227867259409e-03 1.995577857730765e-01 -7.287629796582460e-01 -2.270214126937192e-01 -7.021616424885729e-02
            1.382589553838641e-01 -5.295870149303158e-03 1.462886881652213e-01 -1.183248302445749e-02 -2.270295219661289e-01 -7.027363588466802e-02 1.995699059469755e-01 -7.288363567276895e-01
            1.996106538808304e-01 -7.287619175878943e-01 -2.269745911724035e-01 -7.021380252378849e-02 1.468466339947763e-01 -9.203623708020385e-03 1.385091174125561e-01 -4.234047475909744e-03
            -2.269735974223024e-01 -7.019101269068191e-02 1.995491427139423e-01 -7.287982619480433e-01 1.385193955815784e-01 -4.177248177580417e-03 1.468258176579314e-01 -9.197285175075209e-03
48452500.0000000000 1.292655470034142e-01 -4.931620824673039e-02 1.213739835174934e-01 -3.946643962262258e-02 -6.038244104712304e-02 -7.545724862658719e-01 -2.371782817160653e-01 8.323805022451709e-03
            1.213328708275283e-01 -3.946121584880720e-02 1.291561971980927e-01 -4.931331194666414e-02 -2.372447642687604e-01 8.281654311339365e-03 -6.036793478923833e-02 -7.545945592974931e-01
            -6.027876390017108e-02 -7.545969768239185e-01 -2.372093637541841e-01 8.314268962484307e-03 1.301882314631097e-01 -4.587635588696725e-02 1.221609064026544e-01 -3.887851306032923e-02
            -2.372502922314001e-01 8.286339538717076e-03 -6.030737682460374e-02 -7.546395895217013e-01 1.221430964819860e-01 -3.896512994166362e-02 1.301821023906073e-01 -4.588987304393691e-02
49285000.0000000000 9.120540317029806e-02 -6.728805304803134e-02 8.574629522119377e-02 -5.521392760872913e-02 -3.179462263534877e-01 -6.905292849487609e-01 -2.251370061947499e-01 8.557137208821367e-02
            8.576011241269839e-02 -5.522467320961940e-02 9.124866146566080e-02 -6.722050831405803e-02 -2.250075301443607e-01 8.553652486053936e-02 -3.179236852684728e-01 -6.905143829624963e-01
            -3.180763776670986e-01 -6.905980574454487e-01 -2.251207906601072e-01 8.557083810046967e-02 9.329197387900744e-02 -6.370216965449732e-02 8.680105344932557e-02 -5.525506194291863e-02
            -2.250380641368344e-01 8.559592179763915e-02 -3.179282250777297e-01 -6.904729625294710e-01 8.669674195140940e-02 -5.524312095665447e-02 9.331996353844714e-02 -6.368864365770910e-02
50117500.0000000000 4.981454325924006e-02 -5.574174707111847e-02 4.764600308728775e-02 -4.345094661099813e-02 -5.407695325018202e-01 -5.374351321439648e-01 -1.903155688639550e-01 1.594789500230466e-01
            4.767344343942605e-02 -4.347238428858707e-02 4.974448280987908e-02 -5.577118503773293e-02 -1.902701718700928e-01 1.595522889332508e-01 -5.408084320441577e-01 -5.374458814821576e-01
            -5.407327248559090e-01 -5.374613568679094e-01 -1.903001199141288e-01 1.595032239223412e-01 5.274476998670360e-02 -5.275840929798484e-02 4.844175658278839e-02 -4.421611612767987e-02
            -1.902984856300897e-01 1.594113804726102e-01 -5.407613826982148e-01 -5.374737285339640e-01 4.838627920844515e-02 -4.411218647076074e-02 5.277724346915571e-02 -5.276874074541334e-02
50950000.0000000000 2.625884263516684e-02 -1.888206441561163e-02 2.677158078019439e-02 -8.417579549438378e-03 -6.943502972742871e-01 -3.118000202753125e-01 -1.288698061901933e-01 2.234197164146648e-01
            2.683383687504422e-02 -8.446479965089819e-03 2.618594002757124e-02 -1.885297187879153e-02 -1.287803518712259e-01 2.234680732223417e-01 -6.944300519340275e-01 -3.118078096322521e-01
            -6.944517528640711e-01 -3.117494434825320e-01 -1.288231479978464e-01 2.235286844409956e-01 2.959280833873037e-02 -1.684541824322817e-02 2.698343740528488e-02 -9.599492150828221e-03
            -1.287990166417740e-01 2.235252310366560e-01 -6.943616405459849e-01 -3.117687241598169e-01 2.694694518657317e-02 -9.530996261522848e-03 2.970954184725965e-02 -1.684720252244544e-02
51782500.0000000000 3.355814491609120e-02 2.440042943242862e-02 3.515870807366552e-02 3.155326548981393e-02 -7.541038226296483e-01 -4.729812701444848e-02 -4.156832380940618e-02 2.632138737155259e-01
            3.508705777672497e-02 3.158112690557435e-02 3.363689862213494e-02 2.427167183756937e-02 -4.162859107221336e-02 2.631822420324853e-01 -7.541504661436620e-01 -4.728732280901239e-02
            -7.541061516390364e-01 -4.722956372102769e-02 -4.162474111462735e-02 2.631426750674751e-01 3.665468541865062e-02 2.533181693775176e-02 3.455208939160963e-02 3.047958016030530e-02
            -4.160863513745575e-02 2.632123903576210e-01 -7.540667196034341e-01 -4.720331826574118e-02 3.448910634048179e-02 3.060562744952007e-02 3.662496179368312e-02 2.532521621329894e-02
52615000.0000000000 6.739649462986892e-02 5.086157652705958e-02 6.776110018290069e-02 5.503220795252579e-02 -7.156199444255295e-01 2.153648647742880e-01 5.850836734013152e-02 2.650374180757080e-01
            6.765000084365595e-02 5.505350087693798e-02 6.744394189256685e-02 5.080723246334680e-02 5.847826431426938e-02 2.649997302589958e-01 -7.156386259722664e-01 2.154293508763190e-01
            -7.156350460382591e-01 2.153634768158902e-01 5.844718909216910e-02 2.650625618321970e-01 6.956763599720217e-02 5.138530499245456e-02 6.665013398649229e-02 5.465504283253994e-02
            5.855378859225763e-02 2.649724894517028e-01 -7.156557450196487e-01 2.154411141029506e-01 6.663773214859241e-02 5.469420029710614e-02 6.960683506805046e-02 5.142270817146023e-02
53447500.0000000000 1.091639440845705e-01 4.846012381360627e-02 1.065209108828556e-01 5.118945192415982e-02 -5.923458124504162e-01 4.426031332089674e-01 1.511880510237453e-01 2.265194261900215e-01
            1.065449141601314e-01 5.117056474335523e-02 1.090868774587373e-01 4.852938366779773e-02 1.511821453684288e-01 2.265413377359666e-01 -5.923579866498002e-01 4.426262589288988e-01
            -5.923941526240230e-01 4.426657796537413e-01 1.511641120298727e-01 2.265008354994435e-01 1.102952689918644e-01 4.929635419759096e-02 1.054644096823323e-01 5.151323980968651e-02
            1.511646192740125e-01 2.265076025972778e-01 -5.923103634590720e-01 4.426591960085730e-01 1.055399511347980e-01 5.155223456916602e-02 1.103091119333969e-01 4.933141371866988e-02
54280000.0000000000 1.385559172932988e-01 2.052139262470253e-02 1.329346769875052e-01 2.376770220306761e-02 -4.045612563123447e-01 6.129916845344193e-01 2.199505627336253e-01 1.577465367965758e-01
            1.328168379924623e-01 2.367592652814159e-02 1.385749808806063e-01 2.057318558938639e-02 2.200520677825035e-01 1.577436916792065e-01 -4.045487302563043e-01 6.129980465814064e-01
            -4.046016809983555e-01 6.129784102171775e-01 2.200732975127894e-01 1.577503712254546e-01 1.392834277073050e-01 2.198500233665007e-02 1.323871996187075e-01 2.472735941631108e-02
            2.200065707337267e-01 1.577092973503007e-01 -4.046377725601526e-01 6.129632981916714e-01 1.324188327239111e-01 2.474334185394794e-02 1.391708690691178e-01 2.198418243050033e-02
55112500.0000000000 1.432917495175001e-01 -1.924635434050078e-02 1.356901283069647e-01 -1.359231281027975e-02 -1.729364549847600e-01 7.126304038806753e-01 2.589292420664663e-01 7.328937536381412e-02
            1.356483024111435e-01 -1.370059500476001e-02 1.432881252531793e-01 -1.929641141272893e-02 2.588981322631601e-01 7.336575033874546e-02 -1.729302787029439e-01 7.126209773382302e-01
            -1.729568119552135e-01 7.126209762988309e-01 2.589153788630975e-01 7.324257394716475e-02 1.440229191494427e-01 -1.681934754810881e-02 1.359345848786092e-01 -1.252354599526079e-02
            2.588598655534727e-01 7.331550470079681e-02 -1.729349721706442e-01 7.125614171467608e-01 1.360329497843442e-01 -1.250707056862205e-02 1.440103433751472e-01 -1.685013893595992e-02
55945000.0000000000 1.213687566126470e-01 -5.309395242074013e-02 1.138180184332247e-01 -4.437394656011821e-02 8.075437216738879e-02 7.307279285210257e-01 2.691140246157845e-01 -1.594458009362131e-02
            1.138696725788923e-01 -4.444912846827468e-02 1.213793797267937e-01 -5.320651772055117e-02 2.691485571255048e-01 -1.586468141620952e-02 8.074370455202133e-02 7.307265111059312e-01
            8.078983268249008e-02 7.308359804329382e-01 2.691685579783829e-01 -1.593045437851337e-02 1.227943708463099e-01 -4.987046358503031e-02 1.148984534215515e-01 -4.364845610506251e-02
            2.691950355718745e-01 -1.596393469303337e-02 8.080072357368022e-02 7.307693113582727e-01 1.149171028118529e-01 -4.366068698696268e-02 1.228214838289090e-01 -4.986693932598985e-02
56777500.0000000000 8.206099550172040e-02 -6.516104875379287e-02 7.655829364354995e-02 -5.412510904838384e-02 3.299765643929033e-01 6.603037373116417e-01 2.534097844614146e-01 -1.044878691530154e-01
            7.658825910173278e-02 -5.409962552622226e-02 8.202084412250690e-02 -6.523171698517979e-02 2.533334260538498e-01 -1.045363297025772e-01 3.298962790863385e-01 6.603035644542341e-01
            3.299480432075923e-01 6.603300889495533e-01 2.533554335576943e-01 -1.045632273042008e-01 8.470030324334811e-02 -6.155360450964627e-02 7.804763069980761e-02 -5.405286830531075e-02
            2.534089906259437e-01 -1.045588641125097e-01 3.299687160836691e-01 6.603514730662953e-01 7.805453397529000e-02 -5.409318437122412e-02 8.468046851572304e-02 -6.166715789410847e-02
57610000.0000000000 4.346385428890211e-02 -4.803091241852069e-02 4.125612258283896e-02 -3.641375410081294e-02 5.415290009605537e-01 5.035340470193290e-01 2.098919866131129e-01 -1.885303677888036e-01
            4.126715879558242e-02 -3.643670131468362e-02 4.351856887802846e-02 -4.802384041422703e-02 2.099786694897747e-01 -1.884497310788419e-01 5.415040657345224e-01 5.035191478365306e-01
            5.414698754410420e-01 5.035927713765747e-01 2.099117386295457e-01 -1.884272900827048e-01 4.738739189157825e-02 -4.491245728555914e-02 4.259531614568306e-02 -3.717945308995144e-02
            2.100010975723619e-01 -1.885050087019371e-01 5.415053506956602e-01 5.035464929867107e-01 4.263355796276315e-02 -3.725559955660725e-02 4.742198347354887e-02 -4.494287979244740e-02
58442500.0000000000 2.598108338825462e-02 -8.903210633875586e-03 2.662943893315660e-02 1.036023664142887e-03 6.818642699691766e-01 2.793083320445268e-01 1.357505390613666e-01 -2.578797696721176e-01
            2.666394026829290e-02 1.001384489516750e-03 2.600567400842350e-02 -8.807492051079785e-03 1.358422819897728e-01 -2.577813995927238e-01 6.819334272083585e-01 2.792934389877978e-01
            6.818686366703273e-01 2.792360465730273e-01 1.358227046195778e-01 -2.578341679733797e-01 3.077392010011651e-02 -6.987090633445012e-03 2.751701554047319e-02 -4.478381439894323e-04
            1.356998928177960e-01 -2.578294635878717e-01 6.818508230330493e-01 2.792302238668897e-01 2.752649723920456e-02 -4.897610526425707e-04 3.071251607085307e-02 -7.042045833852837e-03
59275000.0000000000 3.925078478962428e-02 3.169691200449980e-02 4.130101690428135e-02 3.849412058394364e-02 7.299357543044050e-01 2.202616493259197e-02 3.507071654744835e-02 -2.967884081560786e-01
            4.127720279875375e-02 3.853164023496022e-02 3.924123012581100e-02 3.182575661168023e-02 3.501736447614581e-02 -2.968356594308529e-01 7.300248108773258e-01 2.209902101458858e-02
            7.299886768172399e-01 2.216133080334343e-02 3.511081864973623e-02 -2.968407501598797e-01 4.416653215471569e-02 3.210739689600361e-02 4.119302062187767e-02 3.674001613444864e-02
            3.508496459798374e-02 -2.967486435262889e-01 7.299833028667356e-01 2.208504239905650e-02 4.118688419427398e-02 3.670977526882952e-02 4.408633160405761e-02 3.216917468431853e-02
60107500.0000000000 7.528569969769174e-02 5.266928046485438e-02 7.660418358966244e-02 5.627948177973110e-02 6.846480157952536e-01 -2.293479103684894e-01 -7.596593417735378e-02 -2.927546081305570e-01
            7.654675898700544e-02 5.623443714662062e-02 7.527373860103377e-02 5.260774750163397e-02 -7.593584352938330e-02 -2.928665081212464e-01 6.845834900156376e-01 -2.293084181784028e-01
            6.847248693513696e-01 -2.292982696638111e-01 -7.596817802942475e-02 -2.928597365257783e-01 7.976953634898894e-02 5.173780520158855e-02 7.574576958334572e-02 5.465778208729192e-02
            -7.598246526885578e-02 -2.928355567064745e-01 6.846716971035056e-01 -2.293339375130421e-01 7.570903031690675e-02 5.466728180505469e-02 7.970115127280623e-02 5.177192508817561e-02
60940000.0000000000 1.149355188792735e-01 4.515702287902779e-02 1.137209239122762e-01 4.662527007453225e-02 5.597056307897145e-01 -4.446249735511169e-01 -1.758760831424468e-01 -2.460176099083042e-01
            1.136881159622863e-01 4.667604374419477e-02 1.148931535800316e-01 4.519090819192242e-02 -1.758505066329772e-01 -2.461115761445088e-01 5.597398527994367e-01 -4.446748079002553e-01
            5.597375191323527e-01 -4.446896123914661e-01 -1.758755422420685e-01 -2.460927864211736e-01 1.183514120760666e-01 4.332645536816707e-02 1.122778022394442e-01 4.558997114534980e-02
            -1.758758425468659e-01 -2.461068631948304e-01 5.597163795940885e-01 -4.445789061779066e-01 1.123947614770443e-01 4.561462419554853e-02 1.183460807701554e-01 4.322625848981611e-02
61772500.0000000000 1.396216217626241e-01 1.475867925719402e-02 1.354228139002811e-01 1.604487296359919e-02 3.741857540527621e-01 -6.045058321874757e-01 -2.490722981284841e-01 -1.683714745971862e-01
            1.354247780500395e-01 1.610091773051415e-02 1.395052876998898e-01 1.489275200652902e-02 -2.489645542815498e-01 -1.684332481713140e-01 3.742108562624658e-01 -6.044518933006328e-01
            3.741237051357599e-01 -6.045059182362752e-01 -2.490665925894748e-01 -1.684439598571715e-01 1.417414922221293e-01 1.237379396137473e-02 1.338324844863653e-01 1.563087085304978e-02
            -2.490280998943589e-01 -1.683680648592110e-01 3.741410992203497e-01 -6.045314162267682e-01 1.338346936136812e-01 1.563941490768657e-02 1.418049925857974e-01 1.228140495889620e-02
62605000.0000000000 1.391805303250647e-01 -2.362673157445338e-02 1.327907442811574e-01 -2.085865559866825e-02 1.470538711452339e-01 -6.952569863502026e-01 -2.900333666798351e-01 -7.429426877559379e-02
            1.327767278709895e-01 -2.082756257846336e-02 1.392068679314589e-01 -2.354882599851087e-02 -2.901076572032525e-01 -7.427427938108262e-02 1.470328773372536e-01 -6.952041741980954e-01
            1.470231889162033e-01 -6.951499170846208e-01 -2.899946971453752e-01 -7.432898078685685e-02 1.401467958482004e-01 -2.634405060151492e-02 1.313571278056302e-01 -2.083151411817227e-02
            -2.900498821925060e-01 -7.435148058811515e-02 1.470364607073665e-01 -6.951462880948148e-01 1.313749491421639e-01 -2.090532764149570e-02 1.401612097238969e-01 -2.630780524860850e-02
63437500.0000000000 1.140993845810927e-01 -5.292009842148474e-02 1.071119953895160e-01 -4.778623714159720e-02 -1.003352154330669e-01 -7.057154669136390e-01 -2.999017058707646e-01 2.546920683341124e-02
            1.070964372960943e-01 -4.773899300786987e-02 1.141435279184015e-01 -5.281232386658124e-02 -2.998325651958361e-01 2.553985730805808e-02 -1.002778493732726e-01 -7.058035002741818e-01
            -1.002907869532276e-01 -7.057470268970185e-01 -2.998242964272976e-01 2.549249138944869e-02 1.140473584314339e-01 -5.546273680582569e-02 1.057294713894615e-01 -4.752845142721680e-02
            -2.998045614583516e-01 2.552712365675337e-02 -1.002445983383226e-01 -7.057441909874095e-01 1.057378521624723e-01 -4.750752739318610e-02 1.139785721932847e-01 -5.547554331955580e-02
64270000.0000000000 7.537568232198659e-02 -5.881876232685804e-02 6.934969557396008e-02 -5.177464810136730e-02 -3.404396061945520e-01 -6.291870140593170e-01 -2.796050036433845e-01 1.251406401148812e-01
            6.942598535245814e-02 -5.171258080794196e-02 7.536131521424082e-02 -5.875173408175446e-02 -2.796147705745657e-01 1.251174548394507e-01 -3.404759678654397e-01 -6.291401585899543e-01
            -3.404566423157771e-01 -6.291460935060913e-01 -2.795567803827226e-01 1.251864437103683e-01 7.397986572945198e-02 -6.100126717261919e-02 6.806615212302793e-02 -5.129338404834733e-02
            -2.796265046184375e-01 1.251449047741930e-01 -3.404634213265691e-01 -6.290581380464525e-01 6.807210496452645e-02 -5.126995758406090e-02 7.401666569849909e-02 -6.099947999665953e-02
65102500.0000000000 4.196450154866550e-02 -3.679325321822019e-02 3.785829844306627e-02 -2.933986271352334e-02 -5.400310123432204e-01 -4.693398230012470e-01 -2.268722596576041e-01 2.181458189116746e-01
            3.778495158650942e-02 -2.926182321336507e-02 4.190836824731152e-02 -3.676107183652512e-02 -2.268512132780799e-01 2.179982630827546e-01 -5.400159509088531e-01 -4.693165666993713e-01
            -5.400832852968694e-01 -4.693594696717004e-01 -2.268178631610766e-01 2.181897316413179e-01 3.940264474740319e-02 -3.827673951709785e-02 3.638305977385031e-02 -2.857156058787058e-02
            -2.268991369739340e-01 2.181775506412125e-01 -5.400036170536570e-01 -4.693574928338042e-01 3.636494160730414e-02 -2.848096953539106e-02 3.935044432313170e-02 -3.835666889666017e-02
65935000.0000000000 3.203250016252365e-02 2.563822503423934e-03 2.959759835382862e-02 8.959814618760316e-03 -6.672404719041796e-01 -2.475035945804354e-01 -1.398343455443301e-01 2.916979755619638e-01
            2.957100624338119e-02 8.914204981791423e-03 3.201544531364396e-02 2.606941140725856e-03 -1.397680956424671e-01 2.917084552945859e-01 -6.672938150157659e-01 -2.474835277192773e-01
            -6.672558650468381e-01 -2.474527431018340e-01 -1.398452733392709e-01 2.915756240275806e-01 2.841826737081717e-02 2.073226763116694e-03 2.828488826729802e-02 1.018736045471833e-02
            -1.398466857484507e-01 2.916846046086300e-01 -6.672076508063453e-01 -2.474201405426411e-01 2.813231712515898e-02 1.010038939565137e-02 2.849143919577480e-02 2.150788352165182e-03
66767500.0000000000 5.146433604574912e-02 3.823107135865766e-02 4.924177463572385e-02 4.235286898612711e-02 -7.043123176731647e-01 1.476920437598960e-03 -2.620541697558595e-02 3.286755794974897e-01
            4.930890897142264e-02 4.226784413249873e-02 5.149094343415082e-02 3.819344418058029e-02 -2.621183700847200e-02 3.286429432131807e-01 -7.044043808175260e-01 1.509161263132997e-03
            -7.043644725430567e-01 1.479735426442990e-03 -2.626648965807172e-02 3.285889656608557e-01 4.712333939569460e-02 3.920007439741496e-02 4.829319098263766e-02 4.416893027574946e-02
            -2.624389920901005e-02 3.286990102478003e-01 -7.043174139196045e-01 1.578128993973310e-03 4.835700672418262e-02 4.421978913691182e-02 4.711978818502904e-02 3.928998067401256e-02
67600000.0000000000 8.909332024322424e-02 5.155238847194096e-02 8.536899460745910e-02 5.365851944921358e-02 -6.530044562229619e-01 2.413710951069368e-01 9.474126169816095e-02 3.182516685587908e-01
            8.548331427921316e-02 5.354696330021923e-02 8.907753172484452e-02 5.148511676283973e-02 9.476509802435065e-02 3.182657799912878e-01 -6.529261536268567e-01 2.412709884031946e-01
            -6.529494267906433e-01 2.412688776708211e-01 9.480155720111569e-02 3.182262077554359e-01 8.464324039955282e-02 5.420415213813932e-02 8.526853813165612e-02 5.600777360811242e-02
            9.473072018779902e-02 3.182447945604887e-01 -6.529446401653950e-01 2.413035645425153e-01 8.534627977350247e-02 5.603455507702806e-02 8.471014161900582e-02 5.420676828776470e-02
68432500.0000000000 1.254584946794686e-01 3.735172452593623e-02 1.191262629927222e-01 3.865547102736648e-02 -5.271211802784516e-01 4.448235347950330e-01 2.009440554430436e-01 2.632429296570543e-01
            1.191492959795322e-01 3.869297919389720e-02 1.253902781590207e-01 3.731984406948279e-02 2.009680328024244e-01 2.632024028401007e-01 -5.272100049297037e-01 4.448254265938659e-01
            -5.271335548554641e-01 4.448245182033711e-01 2.009108331448326e-01 2.632019120388480e-01 1.216461350091865e-01 4.162632339377705e-02 1.200334811670050e-01 4.097097447761402e-02
            2.009829378484896e-01 2.631789350995335e-01 -5.271592212778974e-01 4.447861119679508e-01 1.200521009794371e-01 4.097915637540005e-02 1.216399389925008e-01 4.161524793068590e-02
69265000.0000000000 1.439449978070463e-01 3.617075316182906e-03 1.349150312485763e-01 6.213597984502129e-03 -3.442579037599978e-01 5.943117018825410e-01 2.777445792556381e-01 1.767220854659910e-01
            1.347770748091943e-01 6.247176318571859e-03 1.439840907037485e-01 3.811791065620765e-03 2.778130295257968e-01 1.766990649003844e-01 -3.442080909249970e-01 5.943089409602658e-01
            -3.442234661952848e-01 5.942851563854513e-01 2.777398912647145e-01 1.766485590778732e-01 1.413210452206613e-01 9.213303220468167e-03 1.368124898362213e-01 7.798844270504618e-03
            2.777031648462541e-01 1.766389382694233e-01 -3.442293341715629e-01 5.942925502479592e-01 1.366790684439167e-01 7.831330761886988e-03 1.412903929412436e-01 9.237036680748458e-03
70097500.0000000000 1.370314546169310e-01 -3.390672677677169e-02 1.263599261851207e-01 -2.851766294328570e-02 -1.219701610251144e-01 6.762869541775851e-01 3.202453349213186e-01 7.318436723976389e-02
            1.262458519324257e-01 -2.855456135847090e-02 1.369739880740117e-01 -3.392096706734728e-02 3.202392536284845e-01 7.313226068253682e-02 -1.219829431435843e-01 6.763110873897108e-01
            -1.219934327283090e-01 6.763582625623118e-01 3.202566818611461e-01 7.308914145907844e-02 1.356832128143015e-01 -2.796008174424719e-02 1.287190082274829e-01 -2.819910802990862e-02
            3.202750538606202e-01 7.308434776699570e-02 -1.219670891818167e-01 6.763422644115192e-01 1.286074006177602e-01 -2.821577291903351e-02 1.355985438235513e-01 -2.794976287363272e-02
70930000.0000000000 1.071464134590970e-01 -5.873998847565273e-02 9.706771199157578e-02 -5.001445150973435e-02 1.184401464093073e-01 6.794012405473886e-01 3.289303555119285e-01 -3.709686507340473e-02
            9.704941518542899e-02 -5.000607444748380e-02 1.071728828488635e-01 -5.873493943272602e-02 3.288422231792754e-01 -3.710951981323329e-02 1.184156862766896e-01 6.793718556880893e-01
            1.183733912025427e-01 6.793733562062350e-01 3.289717392357129e-01 -3.706809760789029e-02 1.072242411006904e-01 -5.294766204206071e-02 9.901125839458791e-02 -5.103796728515894e-02
            3.289715341216610e-01 -3.706289311026844e-02 1.184151479312629e-01 6.793998924894635e-01 9.904820645869655e-02 -5.104316386975766e-02 1.072070119817825e-01 -5.298269473557116e-02
71762500.0000000000 6.769167901030988e-02 -5.815269848954348e-02 5.993331691391251e-02 -4.711871846293732e-02 3.490088553465426e-01 5.969855915418626e-01 3.034288980112225e-01 -1.471073215847168e-01
            5.989757127703167e-02 -4.712286844532084e-02 6.758852856872281e-02 -5.812908469204093e-02 3.034259804999318e-01 -1.471607971007972e-01 3.489959026029195e-01 5.970781944232382e-01
            3.490241817311955e-01 5.971128811016976e-01 3.033603204854150e-01 -1.470805793528571e-01 6.849441972013529e-02 -5.331612223572593e-02 6.085967212552219e-02 -4.911276220910207e-02
            3.033250245902534e-01 -1.471558667073767e-01 3.490161517337177e-01 5.970819461485344e-01 6.076213316674494e-02 -4.908828142411515e-02 6.836782489857363e-02 -5.331054789220838e-02
72595000.0000000000 3.797486490048489e-02 -3.091860460769195e-02 3.361747119517161e-02 -1.965928582475207e-02 5.361692636820140e-01 4.351677152409582e-01 2.407025405838737e-01 -2.480755471813954e-01
            3.364394883457765e-02 -1.951745821265307e-02 3.798789649061098e-02 -3.083338113380298e-02 2.407700548321544e-01 -2.481902663813616e-01 5.361779223006129e-01 4.351329402619736e-01
            5.361974493212712e-01 4.351235225955664e-01 2.407584933569642e-01 -2.481181430840514e-01 3.854996037034666e-02 -2.708750453939087e-02 3.281246995607778e-02 -2.166208242767449e-02
            2.408171670192237e-01 -2.481156733551729e-01 5.362297881187101e-01 4.351551004183269e-01 3.274471026212153e-02 -2.159676794331850e-02 3.850665543683746e-02 -2.706457430894551e-02
73427500.0000000000 3.443598382736209e-02 9.675483421545807e-03 3.283379463147210e-02 1.888778997383668e-02 6.503714411109799e-01 2.166861512842336e-01 1.409976086319794e-01 -3.244388481914366e-01
            3.278104549763123e-02 1.880118513307381e-02 3.440930374583821e-02 9.715908496467814e-03 1.409798584632919e-01 -3.244994569127976e-01 6.503889982574064e-01 2.167772082698916e-01
            6.504382948501688e-01 2.167440558251339e-01 1.410321060081286e-01 -3.244978820484943e-01 3.395269049352400e-02 1.294552404108247e-02 3.058446228802546e-02 1.792057600182830e-02
            1.409608933875359e-01 -3.245238639192215e-01 6.504381288242498e-01 2.167783440748110e-01 3.059789013645348e-02 1.797182919334135e-02 3.397598532966551e-02 1.291754066047455e-02
74260000.0000000000 5.890703792338209e-02 4.175088934332407e-02 5.820705361968094e-02 4.759516132542934e-02 6.771788227227694e-01 -2.331105895704619e-02 1.524370626317586e-02 -3.584623274273972e-01
            5.808829109539213e-02 4.755133803917738e-02 5.900046021089116e-02 4.180108749692286e-02 1.522356786574498e-02 -3.584706467584021e-01 6.773058097994040e-01 -2.323006332253902e-02
            6.772902017547273e-01 -2.323999140134487e-02 1.527209600630275e-02 -3.585108062764444e-01 5.720253807096293e-02 4.541732448394761e-02 5.548588764233475e-02 4.848830345753161e-02
            1.529979362584096e-02 -3.585024449977714e-01 6.772853291726382e-01 -2.338643088761200e-02 5.533703627049532e-02 4.852134456798653e-02 5.722734428865490e-02 4.541281562043860e-02
75092500.0000000000 9.787128085017077e-02 4.934022134654293e-02 9.531451836643177e-02 5.189936567050431e-02 6.207954859303985e-01 -2.512774003270572e-01 -1.145318819963461e-01 -3.412362268603806e-01
            9.538342133197834e-02 5.187134069183743e-02 9.783650224123411e-02 4.933045560335765e-02 -1.144993186186729e-01 -3.412204168361459e-01 6.208139760569222e-01 -2.511990489805003e-01
            6.208032345007065e-01 -2.512498125410826e-01 -1.145489404963181e-01 -3.412040335306940e-01 9.502433939215385e-02 5.440017935954847e-02 9.351895318986087e-02 5.471552359598279e-02
            -1.145963104320035e-01 -3.412294705884112e-01 6.208808299332161e-01 -2.512632348892461e-01 9.349922510502463e-02 5.466996079642063e-02 9.508965444036442e-02 5.442281027394993e-02
75925000.0000000000 1.316208295215437e-01 3.022935794184113e-02 1.255970483341434e-01 3.122419220702040e-02 4.947048965168391e-01 -4.429772830000850e-01 -2.262947741991934e-01 -2.779118378177663e-01
            1.256222601299414e-01 3.121445867736837e-02 1.317577173354557e-01 3.019060256712371e-02 -2.262854320735969e-01 -2.778939905008847e-01 4.947390370970928e-01 -4.430738166850212e-01
            4.947684423239301e-01 -4.430280685675013e-01 -2.262796633089839e-01 -2.778904464662486e-01 1.287921746539249e-01 3.735025568023331e-02 1.256029254818410e-01 3.509536197929884e-02
            -2.262906924562921e-01 -2.780047910552771e-01 4.946799996339545e-01 -4.431092048194054e-01 1.257183211367222e-01 3.509600375961724e-02 1.287823386400131e-01 3.733088927065825e-02
76757500.0000000000 1.453550622696996e-01 -5.505772405479911e-03 1.353722894667438e-01 -3.588206289446165e-03 3.149247701650246e-01 -5.823281077316941e-01 -3.060630641849821e-01 -1.825779749535799e-01
            1.353779778788528e-01 -3.630045397269770e-03 1.454510792267440e-01 -5.577196667928337e-03 -3.059852589725914e-01 -1.826433001206091e-01 3.148936820132782e-01 -5.823965125721974e-01
            3.148798496707310e-01 -5.824382709884565e-01 -3.060796064521670e-01 -1.826184804256527e-01 1.435342099327962e-01 3.502130759171309e-03 1.377328662671294e-01 -1.364232116402620e-05
            -3.060084570599647e-01 -1.825506008940710e-01 3.148429619291514e-01 -5.823837436193136e-01 1.377005997396403e-01 1.249915467344569e-05 1.436135741530624e-01 3.591047135346146e-03
77590000.0000000000 1.335447156926207e-01 -4.203057418936746e-02 1.206809446996302e-01 -3.670189786152894e-02 9.802141105844321e-02 -6.558552952029756e-01 -3.493773072976479e-01 -6.965281328881776e-02
            1.206725245160867e-01 -3.673672720023510e-02 1.335569226480234e-01 -4.211164069563249e-02 -3.493289642711052e-01 -6.976956186272579e-02 9.798245664855705e-02 -6.558205617954375e-01
            9.799975315200055e-02 -6.558585779814192e-01 -3.493072432564514e-01 -6.961144159165987e-02 1.337059139130375e-01 -3.147799593393458e-02 1.247891243817314e-01 -3.469999927008872e-02
            -3.493499763335253e-01 -6.970787348524936e-02 9.805182758519132e-02 -6.558441555510848e-01 1.247289380753044e-01 -3.468931494299645e-02 1.337325215238250e-01 -3.142494471540350e-02
78422500.0000000000 1.007903312308645e-01 -6.291431857646630e-02 8.757621357075618e-02 -5.306592008102804e-02 -1.348668287604974e-01 -6.518023372177179e-01 -3.559175899219810e-01 5.047048732411204e-02
            8.760042955017260e-02 -5.301214045373835e-02 1.007152676859159e-01 -6.288210775051767e-02 -3.558990290189600e-01 5.054481613910102e-02 -1.348572997887800e-01 -6.517120606140239e-01
            -1.349122224781197e-01 -6.517484299122163e-01 -3.558845479056166e-01 5.058025882670705e-02 1.034623395294416e-01 -5.213241254161083e-02 9.228285553141022e-02 -5.347189151065684e-02
            -3.558606647007485e-01 5.049129845028765e-02 -1.348389609581890e-01 -6.517477605822962e-01 9.222294883282152e-02 -5.341748021825024e-02 1.034944595909544e-01 -5.212407384127121e-02
79255000.0000000000 6.149175847189033e-02 -5.747034297840555e-02 5.075714464022160e-02 -4.362959695211032e-02 -3.551258187363809e-01 -5.644060283085998e-01 -3.243534344473655e-01 1.701063467223144e-01
            5.085103777728230e-02 -4.357611057448705e-02 6.154929155913415e-02 -5.740755301504582e-02 -3.243530780602770e-01 1.699764945909463e-01 -3.552378462548267e-01 -5.644047130894554e-01
            -3.551548125860334e-01 -5.644412358120713e-01 -3.243613061077805e-01 1.700907405448692e-01 6.654319018522833e-02 -4.770366851043938e-02 5.453420391117857e-02 -4.645557837940473e-02
            -3.243314976847118e-01 1.700658883346181e-01 -3.551792334793928e-01 -5.643984796147261e-01 5.451540180136946e-02 -4.647666911766373e-02 6.651842987765191e-02 -4.771957934406237e-02
80087500.0000000000 3.553015233776839e-02 -2.687831015194192e-02 2.891199452194775e-02 -1.130422346488946e-02 -5.299381986572488e-01 -4.015186956663510e-01 -2.515680513812802e-01 2.776036004617019e-01
            2.904147513970978e-02 -1.134084815996289e-02 3.565267915843840e-02 -2.689050789218072e-02 -2.516319506833050e-01 2.776885943649271e-01 -5.299959603131841e-01 -4.015099792466146e-01
            -5.299968210602567e-01 -4.015838209659310e-01 -2.516210766882956e-01 2.776282405652662e-01 4.171193079877018e-02 -1.920658296997435e-02 3.044400407065074e-02 -1.569336935841795e-02
            -2.516209356350841e-01 2.776384721719135e-01 -5.299918469169826e-01 -4.015757117173278e-01 3.047195566991329e-02 -1.565071727607704e-02 4.168725656990485e-02 -1.918289795501114e-02
80920000.0000000000 3.688164757536620e-02 1.318576232397448e-02 3.469292962921367e-02 2.755787277001654e-02 -6.317788818513002e-01 -1.877448840021687e-01 -1.397838053142370e-01 3.554916566854816e-01
            3.469880410306904e-02 2.765782217464454e-02 3.684507277802410e-02 1.313818788111852e-02 -1.397454560644504e-01 3.555043789734128e-01 -6.318228776762077e-01 -1.878519069029118e-01
            -6.317769647161399e-01 -1.877538145780707e-01 -1.398091865845224e-01 3.554633794804146e-01 4.275193746816194e-02 1.871349331528090e-02 3.340849850397075e-02 2.350702824960072e-02
            -1.397929033432440e-01 3.555774784761390e-01 -6.317772724534716e-01 -1.877119019792073e-01 3.337798598381506e-02 2.358716396401287e-02 4.285261207844252e-02 1.874529488122779e-02
81752500.0000000000 6.422574717520034e-02 4.134559428929416e-02 6.476915849914784e-02 5.251336180218708e-02 -6.496188227910199e-01 4.285107821735294e-02 -3.209773569218083e-03 3.859692154799105e-01
            6.474073988577525e-02 5.250477201365012e-02 6.426845573158289e-02 4.127162661793912e-02 -3.163560355479399e-03 3.859895444001000e-01 -6.496633772698381e-01 4.289287640888999e-02
            -6.496857084358310e-01 4.288935846417479e-02 -3.213554831161955e-03 3.860008861632730e-01 6.902999147791423e-02 4.562153481882632e-02 6.140968996470441e-02 5.026535986730730e-02
            -3.195727203406904e-03 3.858978909993401e-01 -6.495784821154207e-01 4.289086582938306e-02 6.146869493021247e-02 5.017148616812972e-02 6.909864632008877e-02 4.558257703895866e-02
82585000.0000000000 1.022334340578094e-01 4.416988134009533e-02 1.028444740969922e-01 5.117443395796988e-02 -5.888352207757510e-01 2.593382028015214e-01 1.345879246606853e-01 3.620266403827076e-01
            1.027984571369741e-01 5.119763514394241e-02 1.022832930533492e-01 4.417417319344272e-02 1.346080664405126e-01 3.621131893345689e-01 -5.888290588818282e-01 2.593385474973808e-01
            -5.888863444839558e-01 2.593374137452937e-01 1.346075520888947e-01 3.620770787137159e-01 1.055463696193265e-01 4.821485301188628e-02 9.915973391200138e-02 5.155232600686328e-02
            1.346085905918002e-01 3.620585824829862e-01 -5.889518851315272e-01 2.594134860587167e-01 9.916720204143088e-02 5.143929982754524e-02 1.055157140190440e-01 4.826264639174168e-02
83417500.0000000000 1.322795411786992e-01 2.224324243753885e-02 1.303148974023245e-01 2.613432798601666e-02 -4.629213613613216e-01 4.400631421914290e-01 2.512183881049987e-01 2.910149423686624e-01
            1.302671684125438e-01 2.610766579879700e-02 1.322930066422348e-01 2.227063232679213e-02 2.512651732399550e-01 2.908683334536876e-01 -4.629662120741036e-01 4.400301793212605e-01
            -4.629236322486494e-01 4.400106005372728e-01 2.513013383643091e-01 2.909154459455086e-01 1.343034277207093e-01 2.692105903520530e-02 1.278512699437959e-01 2.844130781254668e-02
            2.512810165109461e-01 2.908864249738521e-01 -4.629440646632182e-01 4.400602788243125e-01 1.279048013400119e-01 2.842765412239238e-02 1.343652463884935e-01 2.694509876101383e-02
84250000.0000000000 1.410937814107443e-01 -1.311734889978343e-02 1.353860806591592e-01 -1.013390068796779e-02 -2.861967003882794e-01 5.696793613302915e-01 3.338117800398238e-01 1.870647317860484e-01
            1.353552655062287e-01 -1.006618707989656e-02 1.411053061728971e-01 -1.315835939159780e-02 3.338393824588661e-01 1.870070212518856e-01 -2.861882535939392e-01 5.696558878575684e-01
            -2.861791036504669e-01 5.696166199066734e-01 3.338433743944555e-01 1.871267536317985e-01 1.428502006986358e-01 -7.352265400861291e-03 1.351417967717949e-01 -6.979152715545910e-03
            3.337934484717793e-01 1.870243053623709e-01 -2.861298597844533e-01 5.696135650984286e-01 1.350626672081794e-01 -7.054189605805570e-03 1.428591914968896e-01 -7.331762432503225e-03
85082500.0000000000 1.253842610229320e-01 -4.612280868820268e-02 1.162552347364846e-01 -4.129948084221390e-02 -7.454080817917011e-02 6.345549686868498e-01 3.776647382293070e-01 6.474969210613990e-02
            1.162560172453721e-01 -4.125237056973994e-02 1.254235585092783e-01 -4.602294665171449e-02 3.777216834264510e-01 6.472873317951071e-02 -7.456815992737499e-02 6.345241244831529e-01
            -7.460352848251030e-02 6.344376289750685e-01 3.777450501407106e-01 6.481752278941853e-02 1.274387555701061e-01 -3.935993936486049e-02 1.180307771855127e-01 -3.907518575114590e-02
            3.777639075341909e-01 6.479144826237955e-02 -7.455388434590206e-02 6.344915586072314e-01 1.179729568851557e-01 -3.907769707486099e-02 1.275547150089660e-01 -3.932210272068737e-02
85915000.0000000000 9.184772398270975e-02 -6.121790512366117e-02 8.101527227481550e-02 -5.306336699118337e-02 1.504153383006686e-01 6.230957681456666e-01 3.817404051526763e-01 -6.549484223759865e-02
            8.104632554423848e-02 -5.307515553189440e-02 9.180964489262049e-02 -6.127918305753484e-02 3.817268170699470e-01 -6.547344031120597e-02 1.503507265855765e-01 6.231641831741609e-01
            1.504502697683514e-01 6.230778216136118e-01 3.817551029052050e-01 -6.544629929301217e-02 9.457436803204326e-02 -5.426057258567261e-02 8.362394692806106e-02 -5.287949877037993e-02
            3.817121237190511e-01 -6.542568405693036e-02 1.504345406125506e-01 6.231323428277719e-01 8.359117987478747e-02 -5.281087893278794e-02 9.458243019517802e-02 -5.417651058562598e-02
86747500.0000000000 5.584772448400790e-02 -5.033592865096491e-02 4.597459054579967e-02 -3.865357061395645e-02 3.598974422626639e-01 5.309153912447657e-01 3.434365022719071e-01 -1.942467220576623e-01
            4.600280017281473e-02 -3.855655706968801e-02 5.579037654433849e-02 -5.038136223569122e-02 3.433140991421686e-01 -1.941344192101843e-01 3.598963944870024e-01 5.309295324721180e-01
            3.599371914225590e-01 5.308596843095351e-01 3.434081311120584e-01 -1.942418074941343e-01 5.902911009959155e-02 -4.367108684712634e-02 4.763918805651048e-02 -4.053867859186302e-02
            3.433605846265032e-01 -1.941980368252117e-01 3.599142146579380e-01 5.309278447170422e-01 4.764289713439891e-02 -4.049498431066163e-02 5.903917698430826e-02 -4.363143197681300e-02
87580000.0000000000 3.633298218491860e-02 -1.758580105851170e-02 2.940005935318249e-02 -3.753390386658280e-03 5.217118291032382e-01 3.677898434364488e-01 2.599083040894012e-01 -3.075846531102813e-01
            2.935478927580054e-02 -3.697552296512096e-03 3.627418535582367e-02 -1.771523092774108e-02 2.598795705906154e-01 -3.076385414268902e-01 5.216783364969497e-01 3.677720101198271e-01
            5.216455407312038e-01 3.677665379287104e-01 2.598575200601829e-01 -3.074923621680370e-01 3.921292365704691e-02 -1.156661834569904e-02 2.859091474117069e-02 -6.652661039313609e-03
            2.599190753145396e-01 -3.075706137366814e-01 5.216829001011609e-01 3.677492547416070e-01 2.864030300613265e-02 -6.609986851501828e-03 3.918936825149349e-02 -1.159449348728224e-02
88412500.0000000000 4.426313477310923e-02 1.966022162676423e-02 4.073647715799116e-02 3.319532088730684e-02 6.110955164621511e-01 1.595819032155776e-01 1.359762088208387e-01 -3.856446305416975e-01
            4.062573842916009e-02 3.317068917614811e-02 4.439540139807029e-02 1.957912301194461e-02 1.360384467126972e-01 -3.857270759181583e-01 6.111237480432240e-01 1.595893862290098e-01
            6.111436050889386e-01 1.595435259577290e-01 1.360296862959864e-01 -3.856757384941708e-01 4.591666248248569e-02 2.558936350397536e-02 3.737304628489898e-02 3.155491427919431e-02
            1.360727895879781e-01 -3.857780240093835e-01 6.111399761844717e-01 1.596291682584768e-01 3.740730990922299e-02 3.160083474738966e-02 4.605169960307107e-02 2.557709216918139e-02
89245000.0000000000 7.504033165105234e-02 4.141851613685676e-02 7.353712213267416e-02 5.255209588636162e-02 6.204926381306463e-01 -6.085490340363708e-02 -1.083241197141205e-02 -4.116733439939174e-01
            7.356328757872929e-02 5.245990070661023e-02 7.510947183722118e-02 4.142563816315564e-02 -1.080989276834094e-02 -4.115824536365703e-01 6.204397776951031e-01 -6.084385235445097e-02
            6.204623682919393e-01 -6.087368271661863e-02 -1.086770284811414e-02 -4.116247821117856e-01 7.519889407713534e-02 4.833334002659102e-02 6.883168234267628e-02 5.383803801498820e-02
            -1.091754092353263e-02 -4.116883557624069e-01 6.204376838784094e-01 -6.085705558341573e-02 6.885245950550464e-02 5.374050441520571e-02 7.524235542201228e-02 4.841189768897375e-02
90077500.0000000000 1.118966602462592e-01 3.743677227249455e-02 1.100785561607609e-01 4.521219836691011e-02 5.563609753918850e-01 -2.656042521560718e-01 -1.556060937886661e-01 -3.805524403662582e-01
            1.100407717721333e-01 4.519555701405086e-02 1.118228323428209e-01 3.740593416589123e-02 -1.555920618343340e-01 -3.805934037228820e-01 5.563541237149274e-01 -2.654927955459650e-01
            5.563468836958286e-01 -2.655795889828758e-01 -1.555146245281533e-01 -3.805666095766507e-01 1.109623664827028e-01 4.649046015237500e-02 1.063300659487362e-01 5.007672402556006e-02
            -1.555757029054345e-01 -3.805925379501949e-01 5.563163000147713e-01 -2.655949968499698e-01 1.064039206793961e-01 5.001785729682056e-02 1.110158465344049e-01 4.652692985331471e-02
90910000.0000000000 1.369298052549866e-01 1.095847817737482e-02 1.325916376455545e-01 1.652115806000554e-02 4.311506277865338e-01 -4.352147878206469e-01 -2.764844207435626e-01 -3.014592759376540e-01
            1.326032989031841e-01 1.642562025115673e-02 1.369771379979694e-01 1.098536115898985e-02 -2.764144261731858e-01 -3.014819949246597e-01 4.311738115334448e-01 -4.352045630047009e-01
            4.311522655858498e-01 -4.352141772329112e-01 -2.764310853038132e-01 -3.014183634841548e-01 1.361539931126757e-01 2.283927042326658e-02 1.319953736835507e-01 2.363791847898061e-02
            -2.764849179832170e-01 -3.014853551387894e-01 4.311868951806799e-01 -4.351643713113718e-01 1.321066116079155e-01 2.369639402351816e-02 1.361198569281435e-01 2.282730726214261e-02
91742500.0000000000 1.396097080405779e-01 -2.538084445933738e-02 1.314574679998902e-01 -1.963256020147642e-02 2.578727766822554e-01 -5.550604276452283e-01 -3.610576185695967e-01 -1.891470812287851e-01
            1.313976183297276e-01 -1.967364399994967e-02 1.396679762829365e-01 -2.535481187179197e-02 -3.610791050426546e-01 -1.892403079933308e-01 2.580695072883298e-01 -5.550839359079319e-01
            2.578936078624084e-01 -5.550663350285009e-01 -3.610689698926687e-01 -1.892897738701111e-01 1.403681505487000e-01 -1.069161350329979e-02 1.352519367384257e-01 -1.258253567882438e-02
            -3.610751296632628e-01 -1.892129300054580e-01 2.579833001463015e-01 -5.551735012841619e-01 1.352104773906092e-01 -1.251213572686124e-02 1.403804039931774e-01 -1.072658206365630e-02
92575000.0000000000 1.185585219645908e-01 -5.540326877298543e-02 1.071272786366437e-01 -4.701859310258336e-02 5.217937771311833e-02 -6.114396265104480e-01 -4.048447196564612e-01 -5.779938286682926e-02
            1.072189667488947e-01 -4.687532288907976e-02 1.186185624586187e-01 -5.545202606308860e-02 -4.048300285723770e-01 -5.777803359110807e-02 5.219857592497635e-02 -6.114911182008436e-01
            5.224123315851239e-02 -6.115068174200040e-01 -4.048843649460912e-01 -5.774548318628038e-02 1.222317180153256e-01 -3.891481540372450e-02 1.146183658795488e-01 -4.262218846838554e-02
            -4.048578203950344e-01 -5.783753969134216e-02 5.220236274508542e-02 -6.114932733923767e-01 1.145679622867844e-01 -4.269030556804657e-02 1.222478947160920e-01 -3.892984356676408e-02
93407500.0000000000 8.249508355667884e-02 -6.530621808705264e-02 7.008178209116477e-02 -5.220898494765485e-02 -1.643412681545624e-01 -5.931110689139366e-01 -4.055749734178307e-01 8.203943097956914e-02
            7.019766963964091e-02 -5.209193476628012e-02 8.250786686541456e-02 -6.524273005627738e-02 -4.055911391172788e-01 8.204661978248670e-02 -1.643143070197533e-01 -5.930828999291220e-01
            -1.642963148111140e-01 -5.931538600128461e-01 -4.055177229011774e-01 8.201267569074280e-02 8.951642634122413e-02 -4.848708468465276e-02 7.892481335174485e-02 -5.257253291187454e-02
            -4.055216987531381e-01 8.201398218561610e-02 -1.642850637124609e-01 -5.931449755562872e-01 7.893333540811709e-02 -5.255952103301235e-02 8.962058755555515e-02 -4.853281309096873e-02
94240000.0000000000 4.823760218435524e-02 -4.878994171487978e-02 3.796751020806224e-02 -3.120487613136569e-02 -3.624220559648801e-01 -4.967484350126932e-01 -3.597618711845736e-01 2.191330861863038e-01
            3.786045889627920e-02 -3.119125626134167e-02 4.817409466776088e-02 -4.881165500035433e-02 -3.597623948643606e-01 2.192071657490491e-01 -3.623751320771778e-01 -4.967640205848360e-01
            -3.624488231786961e-01 -4.968647429864083e-01 -3.596704374875599e-01 2.192173892517313e-01 5.794882818324041e-02 -3.354784788412297e-02 4.479131640676293e-02 -3.629077187165816e-02
            -3.597360093801764e-01 2.191385589350451e-01 -3.623884510496982e-01 -4.967986652718988e-01 4.478175632677748e-02 -3.632218634141587e-02 5.796623391861207e-02 -3.346816118834441e-02
95072500.0000000000 3.380577762609786e-02 -1.327534001090541e-02 2.797814240975842e-02 6.934648625092050e-03 -5.109862853766516e-01 -3.343740845288138e-01 -2.653167296092173e-01 3.369797409837120e-01
            2.784280836395734e-02 6.872613280998587e-03 3.378652857418501e-02 -1.335801729128839e-02 -2.653381384254462e-01 3.369859045506516e-01 -5.110775638416801e-01 -3.344824154041413e-01
            -5.109511279234558e-01 -3.344028251974562e-01 -2.653391048629707e-01 3.370088416514809e-01 4.456525323518374e-02 -4.190336477194525e-04 2.997393374120330e-02 -1.059564392995654e-03
            -2.653591202611210e-01 3.370218125429442e-01 -5.110240251902829e-01 -3.344108925453036e-01 3.003689128758479e-02 -1.050258941300779e-03 4.459315602336578e-02 -4.239048524831652e-04
95905000.0000000000 4.719835466814466e-02 2.225299009368095e-02 4.628862960146379e-02 4.195147714869295e-02 -5.886073691980841e-01 -1.327803697730602e-01 -1.298311000169331e-01 4.144218528743031e-01
            4.625246516655401e-02 4.195139461989777e-02 4.712499876152206e-02 2.224986761959004e-02 -1.298566892022008e-01 4.143929304718387e-01 -5.885296186375742e-01 -1.327300022338228e-01
            -5.886246239568159e-01 -1.327770569867790e-01 -1.298957095792536e-01 4.144066755713660e-01 5.710462686016914e-02 3.331472595398893e-02 4.265390220226865e-02 3.499769138202766e-02
            -1.299188956450667e-01 4.144620204968941e-01 -5.885458340350683e-01 -1.327364289659424e-01 4.263838514450886e-02 3.494100971918145e-02 5.709400741820127e-02 3.329916670059709e-02
96737500.0000000000 8.025158658508509e-02 3.925311996131972e-02 8.306506888950876e-02 5.539178988310973e-02 -5.902918304249628e-01 7.699582034690106e-02 2.637634492380045e-02 4.350627044618621e-01
            8.308891139528235e-02 5.533414003421575e-02 8.032049181675388e-02 3.924190354850069e-02 2.635478846136908e-02 4.350652052414499e-01 -5.902107207287932e-01 7.699924087817205e-02
            -5.902208577876402e-01 7.698469008206570e-02 2.636269900367690e-02 4.350369309623347e-01 8.850140710486581e-02 4.997833753451535e-02 7.546569406374148e-02 5.297199680837025e-02
            2.631696361764268e-02 4.351131569857675e-01 -5.901487700155539e-01 7.703651520118686e-02 7.549220834388676e-02 5.301029836013581e-02 8.850548825942009e-02 4.994487733745272e-02
97570000.0000000000 1.157697007867752e-01 3.033414210393828e-02 1.189269944662343e-01 4.154073765524373e-02 -5.234140680331537e-01 2.699514984603411e-01 1.772500314395606e-01 3.968197918066341e-01
            1.189830195122884e-01 4.145218457901093e-02 1.157676715748329e-01 3.032719153742070e-02 1.771651253757523e-01 3.966997669541326e-01 -5.233966741674144e-01 2.699380364065808e-01
            -5.233998739385347e-01 2.698364382265157e-01 1.772416457347868e-01 3.967423615337804e-01 1.222369056808804e-01 4.240912458315989e-02 1.111506242135906e-01 4.540503136127857e-02
            1.772190773170551e-01 3.967022200795299e-01 -5.234340748744598e-01 2.698879425860571e-01 1.111499929437800e-01 4.544506106001673e-02 1.222690906018574e-01 4.248363234958395e-02
98402500.0000000000 1.368788870856313e-01 1.170542091723623e-03 1.371022351805292e-01 8.332519217344686e-03 -3.994395858697556e-01 4.284345929162432e-01 3.015099079412208e-01 3.096450801070963e-01
            1.371247466757439e-01 8.310844275761693e-03 1.368418619392111e-01 1.206678149243023e-03 3.015145514698017e-01 3.096827614063865e-01 -3.995001640353124e-01 4.284090705477754e-01
            -3.995174943095249e-01 4.284724246100763e-01 3.015406255066488e-01 3.095858451449846e-01 1.428086840923550e-01 1.599090368258197e-02 1.332651094562438e-01 1.734002045829859e-02
            3.015350013890729e-01 3.095756510489700e-01 -3.995396547768068e-01 4.284604448755579e-01 1.332078419926466e-01 1.732650168252996e-02 1.428532790843415e-01 1.585009176026987e-02
99235000.0000000000 1.348061565965833e-01 -3.456930914208960e-02 1.299410158843650e-01 -2.875704597772711e-02 -2.304077901135131e-01 5.386938510562986e-01 3.875545406419165e-01 1.890363349701875e-01
            1.299710179255369e-01 -2.875510202038835e-02 1.348188209723797e-01 -3.458822432270203e-02 3.876094282712976e-01 1.890118891846480e-01 -2.303525248167975e-01 5.385968905798530e-01
            -2.303493272337904e-01 5.386736484874474e-01 3.875898479601042e-01 1.889887488271873e-01 1.419200308502938e-01 -1.687981869206982e-02 1.324555193076014e-01 -1.803949484693262e-02
            3.875689145557291e-01 1.890461653170374e-01 -2.303674178199976e-01 5.386780258187693e-01 1.324398976375686e-01 -1.797443955953282e-02 1.419120406281253e-01 -1.692658910730732e-02
100067500.0000000000 1.103674362465961e-01 -6.139706593625797e-02 1.004114749779274e-01 -5.292180231579200e-02 -3.101510203544892e-02 5.868525667839480e-01 4.304897789950215e-01 4.858543239344244e-02
            1.003278631569183e-01 -5.291070524885900e-02 1.104526877031756e-01 -6.140567709788312e-02 4.305568415377085e-01 4.866284849144940e-02 -3.111784386838029e-02 5.868699787972026e-01
            -3.116338671983900e-02 5.867830812457363e-01 4.304702897033473e-01 4.857736825253865e-02 1.202161422644109e-01 -4.139428332584957e-02 1.091161721046264e-01 -4.505606569382259e-02
            4.305119124779557e-01 4.866525770110427e-02 -3.105359323391354e-02 5.868950142543623e-01 1.091068364947436e-01 -4.505992935755978e-02 1.202263592156589e-01 -4.142642364155145e-02
100900000.0000000000 7.413824239283094e-02 -6.614899325232262e-02 6.138554699669302e-02 -5.215873729765945e-02 1.764064752352093e-01 5.619444531338105e-01 4.270577281722199e-01 -1.002789497177642e-01
            6.140359561600255e-02 -5.213526108353120e-02 7.411680041414827e-02 -6.611941362194533e-02 4.270729383939070e-01 -1.003558164796879e-01 1.763841766560967e-01 5.618385896302424e-01
            1.764034840421217e-01 5.619355464603435e-01 4.270355894329995e-01 -1.002845736138764e-01 8.709728328237656e-02 -4.568015957143891e-02 7.300667837271885e-02 -5.081153907244050e-02
            4.270636094368099e-01 -1.002629857738646e-01 1.764441562299139e-01 5.618787240819457e-01 7.297496113398066e-02 -5.074598013756598e-02 8.713906466213833e-02 -4.564002793637144e-02
101732500.0000000000 4.362325383223757e-02 -4.534324594630646e-02 3.201432381629917e-02 -2.499745283469576e-02 3.626398207722260e-01 4.621664683665932e-01 3.730593951610800e-01 -2.448457400817853e-01
            3.203583240896223e-02 -2.498317520187164e-02 4.366786025748999e-02 -4.532993805892922e-02 3.731184759650168e-01 -2.448331541776490e-01 3.626162087339040e-01 4.621664644709363e-01
            3.626351807368546e-01 4.621116693362715e-01 3.730522702702305e-01 -2.448816899316606e-01 5.887567830899412e-02 -2.605394416507776e-02 4.122925810667342e-02 -3.072602170918855e-02
            3.731172187649579e-01 -2.447902891423518e-01 3.625965384570298e-01 4.621290450124761e-01 4.127046984735282e-02 -3.079503604785916e-02 5.891054320863336e-02 -2.610606674331365e-02
102565000.0000000000 3.579414992186971e-02 -9.302317345271894e-03 2.889133375648632e-02 1.572414513603449e-02 4.979630670014534e-01 3.014208721572494e-01 2.676297265960604e-01 -3.659472777377552e-01
            2.889536183825460e-02 1.564471362310672e-02 3.589203236642362e-02 -9.261366832675153e-03 2.677572411120173e-01 -3.659801790803135e-01 4.979634133436195e-01 3.014401206864722e-01
            4.979319032330187e-01 3.014658453829482e-01 2.677094709544728e-01 -3.660172276390098e-01 5.090716934377882e-02 8.796114128560488e-03 3.056202072994189e-02 6.130573502350327e-03
            2.677103977542058e-01 -3.660199958803131e-01 4.979464249557907e-01 3.013832864186688e-01 3.054366220701571e-02 6.080492436293329e-03 5.080398594768614e-02 8.771963660248697e-03
103397500.0000000000 5.550859515978446e-02 2.200068738550782e-02 5.472681862208652e-02 4.773544554389531e-02 5.637684973865422e-01 1.071264429241579e-01 1.209976408034845e-01 -4.414288791294625e-01
            5.470037410292723e-02 4.773290364832460e-02 5.552198005009350e-02 2.206827693638381e-02 1.210211237844094e-01 -4.415710465082269e-01 5.638052999073486e-01 1.071984428572666e-01
            5.638071197630319e-01 1.070988075448803e-01 1.209674200752648e-01 -4.414228220368393e-01 6.824078416949689e-02 4.080291103378444e-02 4.707561966355438e-02 4.113245495504852e-02
            1.209751628791953e-01 -4.414474309267439e-01 5.638915943650836e-01 1.071459566199845e-01 4.697655820874503e-02 4.123255892772209e-02 6.831646503623648e-02 4.069476021412886e-02
104230000.0000000000 9.155960488434559e-02 3.111816526796955e-02 9.562447227472862e-02 5.353563857965286e-02 5.581818675950210e-01 -9.125127419946927e-02 -4.418088398964815e-02 -4.559529179988396e-01
            9.570118389120161e-02 5.354198992180234e-02 9.149085933137170e-02 3.116461712805224e-02 -4.409692693733908e-02 -4.560901897167321e-01 5.582135165628898e-01 -9.129433786564982e-02
            5.581499275811462e-01 -9.129949767310463e-02 -4.412600969998486e-02 -4.560431805629983e-01 1.020596855863745e-01 5.422112512810270e-02 8.205885910075070e-02 5.717212746865359e-02
            -4.412505980593215e-02 -4.560057944870747e-01 5.581797177951044e-01 -9.126476248856510e-02 8.209285151910986e-02 5.716979104175450e-02 1.020707908983483e-01 5.418937624023805e-02
105062500.0000000000 1.254108331545804e-01 1.348160870400524e-02 1.305358813544624e-01 3.020096790727145e-02 4.891644872579403e-01 -2.714507188261204e-01 -2.003136484272949e-01 -4.093497611015737e-01
            1.304302936960939e-01 3.026708719136999e-02 1.254005645036894e-01 1.357422459263766e-02 -2.002884148893720e-01 -4.093638520455793e-01 4.892573377047746e-01 -2.714005042822525e-01
            4.891177893818668e-01 -2.714315903190025e-01 -2.003626763004639e-01 -4.093112115574952e-01 1.357874346226859e-01 4.458081389608433e-02 1.187172508351087e-01 4.791533714390361e-02
            -2.003344515746099e-01 -4.093837292709838e-01 4.891877394761803e-01 -2.715382022160729e-01 1.187326434174859e-01 4.786109769145547e-02 1.357392410332287e-01 4.463685495163322e-02
105895000.0000000000 1.412344358249898e-01 -2.313831862181901e-02 1.422501626024213e-01 -1.109763001297948e-02 3.676824835614063e-01 -4.182328139278987e-01 -3.266862877071116e-01 -3.132736795544552e-01
            1.423461064063324e-01 -1.116319168255836e-02 1.412127853346523e-01 -2.304466490996888e-02 -3.267200749617131e-01 -3.133355608983583e-01 3.676594686332744e-01 -4.181479581436485e-01
            3.675889320546056e-01 -4.182128549445144e-01 -3.266839920994364e-01 -3.132747477429370e-01 1.561857054514771e-01 1.871328661300854e-02 1.420515590770102e-01 1.917993684378646e-02
            -3.267062606977709e-01 -3.133315626826482e-01 3.676699310664297e-01 -4.181544493595961e-01 1.420608582796665e-01 1.914793559680104e-02 1.561822334693104e-01 1.871777348006104e-02
106727500.0000000000 1.317616349380150e-01 -6.406957064120487e-02 1.246379597042431e-01 -5.261076988257304e-02 2.044853183125256e-01 -5.182405978064876e-01 -4.117321001773383e-01 -1.838398599410625e-01
            1.246710109037408e-01 -5.256149279409215e-02 1.317329103517376e-01 -6.412506968899670e-02 -4.116805143466933e-01 -1.838916561323844e-01 2.045380251923588e-01 -5.183876073599427e-01
            2.045658470624320e-01 -5.183215333699337e-01 -4.117128839547189e-01 -1.839593383867710e-01 1.575847311748013e-01 -1.153732140649557e-02 1.441845200438339e-01 -1.697074927582424e-02
            -4.116981406256154e-01 -1.839426569613385e-01 2.044950543502115e-01 -5.183129822004990e-01 1.441355114264282e-01 -1.687181699996620e-02 1.577214832952420e-01 -1.149965200293173e-02
107560000.0000000000 9.832359387098734e-02 -9.394479777808974e-02 8.276819447335745e-02 -7.613311175813599e-02 1.414161111633282e-02 -5.591863707630983e-01 -4.506479347301689e-01 -3.577318627516339e-02
            8.271220457119116e-02 -7.625882182598442e-02 9.843515190030201e-02 -9.384949995170036e-02 -4.505530392791508e-01 -3.572705789099265e-02 1.412154944648561e-02 -5.591596716268914e-01
            1.412687649281843e-02 -5.591790048205233e-01 -4.506144422689359e-01 -3.579920091887772e-02 1.427781254801881e-01 -3.365234859980602e-02 1.255853681062198e-01 -4.672856234899214e-02
            -4.506572387082091e-01 -3.579915224853571e-02 1.408621655062263e-02 -5.592387394915791e-01 1.256345649106462e-01 -4.669270260299307e-02 1.427212895242461e-01 -3.368473891971136e-02
108392500.0000000000 5.207994390408260e-02 -9.979161123477370e-02 3.165825467761600e-02 -6.898486941952066e-02 -1.823429197055587e-01 -5.305092502920062e-01 -4.407070828750532e-01 1.186336957969021e-01
            3.159648329287968e-02 -6.906790111344459e-02 5.222146295676622e-02 -9.978334330296736e-02 -4.407632000720710e-01 1.186330796857275e-01 -1.824587766115595e-01 -5.305576865204674e-01
            -1.823664217196453e-01 -5.304873752225134e-01 -4.406891603938202e-01 1.186151112189580e-01 1.210322643280853e-01 -3.973034250833433e-02 9.470291141273227e-02 -5.942804830433058e-02
            -4.406881750654536e-01 1.186108250854676e-01 -1.823819355717532e-01 -5.304541986858877e-01 9.461346893918644e-02 -5.954048050067668e-02 1.210427990606385e-01 -3.983132172971579e-02
109225000.0000000000 1.042988222290739e-02 -7.786365690276453e-02 -7.132712126292549e-03 -3.003030799754278e-02 -3.573982085688868e-01 -4.315028051495978e-01 -3.793117169912694e-01 2.653004623754567e-01
            -7.178657576628979e-03 -2.998812466410732e-02 1.044143576433063e-02 -7.789903605334263e-02 -3.792942505596795e-01 2.652605776036586e-01 -3.573006780254376e-01 -4.315927907380959e-01
            -3.572581872010155e-01 -4.315342502737892e-01 -3.793066752866830e-01 2.652630539971652e-01 1.053569931833739e-01 -2.981090505625520e-02 6.462709147741309e-02 -5.183495561156587e-02
            -3.792933967835323e-01 2.652436314393917e-01 -3.572911234360346e-01 -4.315645416110123e-01 6.474906684660679e-02 -5.178512096429584e-02 1.052563609443636e-01 -2.980392240255247e-02
110057500.0000000000 -1.000527889547955e-02 -3.742866202001931e-02 -1.474120486403147e-02 2.668056605332000e-02 -4.832997578118378e-01 -2.756555859826392e-01 -2.675099219925368e-01 3.856262134078826e-01
            -1.481151135296245e-02 2.671411221182329e-02 -1.004372093422839e-02 -3.745693987018989e-02 -2.674753899810919e-01 3.855892844341546e-01 -4.833489754427091e-01 -2.756814149176378e-01
            -4.832255126841586e-01 -2.756906583340145e-01 -2.674235032211306e-01 3.855627787351530e-01 1.057076811756997e-01 -1.301713263892267e-02 4.820226238120660e-02 -3.035503945909550e-02
            -2.674196885403021e-01 3.856182453394618e-01 -4.832383924043991e-01 -2.756408631048353e-01 4.826608240250747e-02 -3.034704781926490e-02 1.057264331507926e-01 -1.300479985310736e-02
110890000.0000000000 -3.373129250813932e-03 2.765381534080863e-03 1.358182196814091e-02 7.705675029778378e-02 -5.429496555560088e-01 -8.799214360332230e-02 -1.163511579320212e-01 4.591748188130682e-01
            1.355109316411351e-02 7.709459981474874e-02 -3.319526264833100e-03 2.807717345586983e-03 -1.163275690057178e-01 4.591314345209566e-01 -5.429440333294302e-01 -8.801783934636082e-02
            -5.429111704446186e-01 -8.808239544051433e-02 -1.163554443642931e-01 4.590681145578132e-01 1.226839352679449e-01 -4.198969082062485e-03 4.937434105250655e-02 -8.379847977350649e-03
            -1.163806934506412e-01 4.591650509593838e-01 -5.429341093754768e-01 -8.808568262432548e-02 4.931496084721246e-02 -8.400029709638886e-03 1.227534721449003e-01 -4.191876878615724e-03
111722500.0000000000 2.144747691028607e-02 2.637527809964232e-02 6.501121258130643e-02 1.003586257357835e-01 -5.333751658456155e-01 1.034837791793328e-01 5.221852096125611e-02 4.725261138522477e-01
            6.493188359034439e-02 1.003065885921020e-01 2.148847593763896e-02 2.639144494504898e-02 5.219383069397523e-02 4.724751466143239e-01 -5.334341630402404e-01 1.034876999635541e-01
            -5.333438713483841e-01 1.035060615852219e-01 5.225418117520338e-02 4.724696434650325e-01 1.453631965127584e-01 -1.397024248149322e-02 6.154380320025783e-02 2.883166805403405e-03
            5.215307900797973e-02 4.725347925021752e-01 -5.334496042965401e-01 1.034750371066577e-01 6.162333107337480e-02 2.929516447999240e-03 1.453462195481343e-01 -1.387567110210266e-02
112555000.0000000000 4.818868640655705e-02 2.831593900201950e-02 1.175349389894397e-01 8.957156264159288e-02 -4.615706501625403e-01 2.766921379493634e-01 2.129163169466636e-01 4.249292142147815e-01
            1.174910541321619e-01 8.951979480539742e-02 4.828482190781459e-02 2.824573222063420e-02 2.129552576782897e-01 4.249104497515645e-01 -4.615604251212049e-01 2.767089961339692e-01
            -4.615869454532515e-01 2.767270570810990e-01 2.129072247582656e-01 4.249069884454422e-01 1.583924109237171e-01 -4.187972340374681e-02 7.343194295531148e-02 5.295822083772300e-04
            2.129875342969416e-01 4.249619680494202e-01 -4.615875318390952e-01 2.767420782919355e-01 7.354868108968080e-02 5.825751182960538e-04 1.583440940332320e-01 -4.197415426603493e-02
113387500.0000000000 6.334625322552327e-02 1.499292093773066e-02 1.514800066181889e-01 5.297236827350511e-02 -3.379320102942537e-01 4.153003036749651e-01 3.455965825063885e-01 3.263327093304296e-01
            1.515509706811927e-01 5.309348947949900e-02 6.328864758915825e-02 1.497305921556945e-02 3.455706270521460e-01 3.263536925884120e-01 -3.378171443739708e-01 4.153171613996757e-01
            -3.378763217701955e-01 4.152657627421041e-01 3.455370070974007e-01 3.262435731473929e-01 1.509418420355844e-01 -7.808464343309687e-02 7.589651553038562e-02 -9.712108473405916e-03
            3.455980046684806e-01 3.263150950389062e-01 -3.378636814784320e-01 4.152991991727092e-01 7.591009634029866e-02 -9.731865922656388e-03 1.509286592837718e-01 -7.801775734909704e-02
114220000.0000000000 6.108058382432285e-02 -9.331870651977268e-04 1.571023706799274e-01 7.675708535923955e-03 -1.746991965385282e-01 5.051318968512423e-01 4.373232373429721e-01 1.904379379689063e-01
            1.570758101597167e-01 7.630278471984486e-03 6.107147671182872e-02 -9.399846537501271e-04 4.373074918561132e-01 1.905121851238753e-01 -1.746569832569618e-01 5.051484263333739e-01
            -1.747226074249077e-01 5.051800273252764e-01 4.372510976460253e-01 1.904123740366185e-01 1.208568601411400e-01 -1.071403349232573e-01 6.573675580226702e-02 -1.828047056452487e-02
            4.373090502499005e-01 1.904724116538443e-01 -1.746764099128287e-01 5.051156863106827e-01 6.574654735509625e-02 -1.829122850231271e-02 1.208361816335107e-01 -1.071692547554273e-01
115052500.0000000000 4.512035333603664e-02 -6.779293691571056e-03 1.362059961491565e-01 -2.813247118928770e-02 1.132987987097858e-02 5.339205958972009e-01 4.800518365600078e-01 3.123592754605790e-02
            1.363196266387312e-01 -2.802015635224546e-02 4.511882635056636e-02 -6.704464722195397e-03 4.801292125288848e-01 3.119576108647343e-02 1.138572338237240e-02 5.339610901816111e-01
            1.143002533289414e-02 5.339520441553828e-01 4.801210331687977e-01 3.120486879298550e-02 7.591050903469382e-02 -1.154646296746896e-01 4.797316627210312e-02 -1.541226457337014e-02
            4.801992365257499e-01 3.127505075763288e-02 1.138456214456012e-02 5.339673212080267e-01 4.796665141022280e-02 -1.549430421244676e-02 7.591887646156777e-02 -1.153919219814590e-01
115885000.0000000000 2.674511147019097e-02 5.020029184850006e-03 1.017895874913290e-01 -4.081078156771626e-02 1.971713156284683e-01 4.944375348278787e-01 4.676911691774326e-01 -1.369058175789951e-01
            1.018412003212164e-01 -4.072546941705288e-02 2.685215510481037e-02 5.083120248837733e-03 4.676884855956275e-01 -1.369137982740329e-01 1.971877388483168e-01 4.944646707420919e-01
            1.971606767876343e-01 4.944566464104073e-01 4.677489880075887e-01 -1.369170989213879e-01 3.200804911610428e-02 -9.641688329173019e-02 3.315900789116381e-02 2.753206921796370e-03
            4.676915193207050e-01 -1.369182630290091e-01 1.972056217395921e-01 4.944438229235269e-01 3.312549403367285e-02 2.817257752555408e-03 3.201024321540320e-02 -9.637061766799150e-02
116717500.0000000000 2.020222612160553e-02 3.196741645876627e-02 7.214394202618668e-02 -2.855105487434329e-02 3.555371997788680e-01 3.904903349376847e-01 3.960063303916536e-01 -2.948955013975757e-01
            7.215468923667233e-02 -2.856674457643920e-02 2.023937024938708e-02 3.198734979195763e-02 3.960135445680161e-01 -2.949930119117098e-01 3.555891937765394e-01 3.904404494267509e-01
            3.555353306481160e-01 3.904715794561560e-01 3.960433436363560e-01 -2.949221193753757e-01 6.750679156819444e-03 -5.554171509411564e-02 3.323550577391005e-02 3.177826526513339e-02
            3.960328345543820e-01 -2.949527331037043e-01 3.555376286786729e-01 3.904007568452726e-01 3.325613563571560e-02 3.161049823972212e-02 6.842906577491293e-03 -5.553769854041795e-02
117550000.0000000000 3.448485566651348e-02 6.163680004254221e-02 6.172587482348917e-02 -2.414631245991054e-03 4.636503134144937e-01 2.388202174993257e-01 2.692038780366011e-01 -4.195798787571806e-01
            6.180040490013418e-02 -2.518870604735410e-03 3.448666398122532e-02 6.168585357792190e-02 2.692193067710358e-01 -4.195331707673944e-01 4.637283203163995e-01 2.388477968752400e-01
            4.637329392625052e-01 2.387676363426946e-01 2.692651457232704e-01 -4.195987856953297e-01 1.030602072357380e-02 -9.670903203731099e-03 5.388916827239329e-02 5.743251096937843e-02
            2.691586546177715e-01 -4.194953975775256e-01 4.636722421220789e-01 2.388408625681918e-01 5.391083094011292e-02 5.744127243703858e-02 1.034933342119944e-02 -9.630348230857084e-03
118382500.0000000000 6.694862641271089e-02 7.810688928777165e-02 7.297159356436593e-02 1.997536510962100e-02 5.104591677846018e-01 6.371858724446737e-02 1.038825390024419e-01 -4.894212062912570e-01
            7.295224921887127e-02 1.998680508936273e-02 6.688899478469920e-02 7.812804589949018e-02 1.038891073187019e-01 -4.894126395303433e-01 5.104137638697108e-01 6.363239835650131e-02
            5.103901870895444e-01 6.378407462376476e-02 1.039022518710996e-01 -4.893408226715100e-01 3.853591145439999e-02 2.204429470778771e-02 8.851924504482753e-02 6.566926916213683e-02
            1.038914071379863e-01 -4.893721695507839e-01 5.104143217537929e-01 6.365874224501909e-02 8.859521379951550e-02 6.578909487263328e-02 3.850196510509971e-02 2.195739701478452e-02
119215000.0000000000 1.041770250357142e-01 7.202642012602520e-02 9.595437305408279e-02 2.604299708906292e-02 4.960369216046542e-01 -1.121293453628690e-01 -7.414276028607267e-02 -4.939664629432997e-01
            9.593231445649286e-02 2.601046418829767e-02 1.040940070129539e-01 7.203228714910286e-02 -7.416499096544418e-02 -4.938955225271952e-01 4.960009892485507e-01 -1.121572155219717e-01
            4.960451682348493e-01 -1.121134530058706e-01 -7.411707312903501e-02 -4.940585719060884e-01 7.595702972934362e-02 2.844881721457720e-02 1.223900193773465e-01 5.105100283618333e-02
            -7.423563649292518e-02 -4.940854443340937e-01 4.960570359975706e-01 -1.121636783774446e-01 1.223324904590984e-01 5.098275948454101e-02 7.598616838931015e-02 2.834624744856292e-02
120047500.0000000000 1.306649383026252e-01 4.534546170492430e-02 1.161619505136773e-01 1.339095109858686e-02 4.263386279589695e-01 -2.714066955056612e-01 -2.395534646688842e-01 -4.364485206555164e-01
            1.161010140387916e-01 1.331291462660720e-02 1.306254269684241e-01 4.529895520377445e-02 -2.395354536103041e-01 -4.364659395327887e-01 4.263477216863472e-01 -2.714273997940566e-01
            4.263354394455646e-01 -2.714901778904217e-01 -2.395314986972348e-01 -4.363609745807107e-01 1.053777002427215e-01 1.110692044722795e-02 1.406890438268011e-01 1.895334334559059e-02
            -2.395256311129068e-01 -4.363993708237611e-01 4.263934788415517e-01 -2.714158539197243e-01 1.407761385371393e-01 1.897420892798721e-02 1.053585449089451e-01 1.115545933050932e-02
120880000.0000000000 1.362981922585259e-01 9.192486183230519e-03 1.220404255987067e-01 -1.092795952962093e-02 3.085177812682597e-01 -3.996131233203404e-01 -3.733190353305394e-01 -3.281125038565605e-01
            1.221569878324874e-01 -1.100535870442970e-02 1.362888965644028e-01 9.256643644414203e-03 -3.733776535314391e-01 -3.281805904654276e-01 3.085324163971698e-01 -3.996035806250097e-01
            3.085719210767057e-01 -3.995523804729649e-01 -3.732789682724216e-01 -3.281410972201781e-01 1.148402639544074e-01 -1.889854069030851e-02 1.364823331966644e-01 -1.756599332841836e-02
            -3.733341646537878e-01 -3.281017312005561e-01 3.085557209878710e-01 -3.995644812681047e-01 1.365987342188092e-01 -1.760160739666681e-02 1.148329140218958e-01 -1.887483405768838e-02
121712500.0000000000 1.194514469927287e-01 -2.169985738566976e-02 1.095608842939913e-01 -3.429837555642008e-02 1.525102260403210e-01 -4.821930140151062e-01 -4.638117536746412e-01 -1.830872017799502e-01
            1.095449743022769e-01 -3.428691258339963e-02 1.194178849526568e-01 -2.173738480651678e-02 -4.637621889347223e-01 -1.831534098394881e-01 1.525631920168759e-01 -4.821838746838842e-01
            1.525966659082341e-01 -4.821776442801262e-01 -4.637094322629448e-01 -1.830790296225722e-01 1.015466061873272e-01 -4.646752191647564e-02 1.112823615126479e-01 -4.400273538609342e-02
            -4.638435861275543e-01 -1.831090883793059e-01 1.525744459115476e-01 -4.821918455688116e-01 1.113164387458981e-01 -4.403702737276215e-02 1.015098671359056e-01 -4.646898850776267e-02
122545000.0000000000 8.785570855096957e-02 -3.465510114000406e-02 8.305489288260758e-02 -4.439684001466263e-02 -2.542397369495729e-02 -5.057266067275402e-01 -5.026521049434812e-01 -1.511837747552435e-02
            8.313108234934564e-02 -4.428305781135852e-02 8.782330298929850e-02 -3.458899766185585e-02 -5.025710204453132e-01 -1.500043366853742e-02 -2.550016024014261e-02 -5.055707486845136e-01
            -2.550692219248655e-02 -5.056323122175719e-01 -5.026693744059137e-01 -1.515265500775254e-02 7.242093222440234e-02 -5.743266112260957e-02 7.521314663416083e-02 -4.918156982048500e-02
            -5.026934459065256e-01 -1.509655575281175e-02 -2.549366692431363e-02 -5.056734914150558e-01 7.517955938373398e-02 -4.921439752833762e-02 7.249137807927958e-02 -5.740853208514574e-02
123377500.0000000000 5.633105314494032e-02 -2.355335573269800e-02 5.506742298641826e-02 -3.396302142767262e-02 -2.016758269079323e-01 -4.626269603883922e-01 -4.831031548418840e-01 1.604020124426672e-01
            5.515435762815159e-02 -3.390303207369485e-02 5.641423344690142e-02 -2.350523361815725e-02 -4.830544363802771e-01 1.604165953442052e-01 -2.016110036712607e-01 -4.626248970321951e-01
            -2.016610293005361e-01 -4.626802992461272e-01 -4.830622481843528e-01 1.603729341865452e-01 4.243098079772025e-02 -4.497117233411841e-02 4.388236435689993e-02 -3.000650913598997e-02
            -4.830308395463723e-01 1.603466293385433e-01 -2.017318217382020e-01 -4.626030120613322e-01 4.391226613909133e-02 -2.999547371856980e-02 4.241070993701290e-02 -4.499979769433789e-02
124210000.0000000000 4.100837689028986e-02 5.896134668157792e-03 4.062735387255977e-02 -6.661789775975231e-03 -3.487725009040830e-01 -3.582097383745404e-01 -4.013593381924151e-01 3.225545957622072e-01
            4.060951854885387e-02 -6.654357600096236e-03 4.110419897884439e-02 5.850991286813031e-03 -4.013655873839208e-01 3.226594627442934e-01 -3.487432150315765e-01 -3.581411349575928e-01
            -3.488521004332072e-01 -3.581604127976393e-01 -4.013959489229004e-01 3.225972575516652e-01 2.809684101848467e-02 -1.442915427796554e-02 3.298607575362555e-02 5.132598581895010e-03
            -4.014075104300357e-01 3.225975547247164e-01 -3.487961108447957e-01 -3.581463921578606e-01 3.291759595271063e-02 5.100823716479256e-03 2.807360620117732e-02 -1.442938918188910e-02
125042500.0000000000 5.021183682684869e-02 3.773197586800182e-02 4.831032834058767e-02 2.352285120967453e-02 -4.456142630613272e-01 -2.107348595045074e-01 -2.637801103072093e-01 4.465736747684463e-01
            4.828334410024488e-02 2.345171592880416e-02 5.023067124509218e-02 3.770081618637416e-02 -2.636615026964050e-01 4.465516171936346e-01 -4.455510414528981e-01 -2.107263895317701e-01
            -4.455847962224583e-01 -2.107777674318826e-01 -2.637003008081359e-01 4.465420180940353e-01 3.796300774536582e-02 1.848291883709826e-02 4.809104401563429e-02 3.847304452463737e-02
            -2.637145700428690e-01 4.466165572254900e-01 -4.455646983709244e-01 -2.107457893452149e-01 4.814630328183672e-02 3.832564997288920e-02 3.795844195154623e-02 1.849638083655916e-02
125875000.0000000000 7.858144286015366e-02 5.491923108461693e-02 7.384199843338893e-02 4.062032196441316e-02 -4.834610616386725e-01 -4.404641986422001e-02 -8.934527214588167e-02 5.114794237488814e-01
            7.392433421114881e-02 4.071287251958709e-02 7.863484255891058e-02 5.491014035763239e-02 -8.936615184747387e-02 5.115374087102060e-01 -4.834671237578042e-01 -4.404454509315441e-02
            -4.835371112500779e-01 -4.407275364899271e-02 -8.934872062153262e-02 5.114643886292310e-01 6.672063707826462e-02 3.674159395411557e-02 8.112850622785664e-02 5.295544398277279e-02
            -8.931634118912035e-02 5.114764814824602e-01 -4.835177440619471e-01 -4.407818413817031e-02 8.102359243374972e-02 5.299245726327320e-02 6.674877033493795e-02 3.679331527489264e-02
126707500.0000000000 1.110948443869354e-01 4.920769237769621e-02 1.038179882250465e-01 3.664294172450176e-02 -4.643792855837945e-01 1.209976258418302e-01 9.453100871101884e-02 5.089234449808736e-01
            1.038618442509050e-01 3.658545166579301e-02 1.112232363935745e-01 4.921495399745376e-02 9.449470558592526e-02 5.089269984722314e-01 -4.643900988710393e-01 1.209931437740180e-01
            -4.644015641961289e-01 1.210200019161771e-01 9.446209699368092e-02 5.088776216956510e-01 9.943907230123160e-02 3.209381628770379e-02 1.148691012643285e-01 4.271665810594543e-02
            9.450871531597335e-02 5.089257616934038e-01 -4.644976760815119e-01 1.209568958462989e-01 1.148953538107801e-01 4.262236553483195e-02 9.941575204032287e-02 3.218761558508151e-02
127540000.0000000000 1.324511353711173e-01 2.419707121994817e-02 1.237561566123023e-01 1.441051890082967e-02 -3.940434118198075e-01 2.691432238379461e-01 2.627739912792365e-01 4.435837135785560e-01
            1.238038988261448e-01 1.444020994054144e-02 1.325106407096039e-01 2.425366190637306e-02 2.627755088854277e-01 4.436662397513722e-01 -3.940102182470653e-01 2.690454686811837e-01
            -3.940233859552162e-01 2.690614189186729e-01 2.626863512427901e-01 4.436195758092014e-01 1.209670594352710e-01 8.611888634980436e-03 1.339886440473400e-01 1.348569044094056e-02
            2.627676386594243e-01 4.435902179272476e-01 -3.940440458520337e-01 2.690788039151705e-01 1.339449102028374e-01 1.350896061430384e-02 1.210237003246606e-01 8.676618825051439e-03
128372500.0000000000 1.333191385197566e-01 -8.551293144598458e-03 1.247428995596385e-01 -1.542994495177696e-02 -2.789430163908289e-01 3.867944009840442e-01 3.973192952489016e-01 3.276409227899193e-01
            1.247061519757345e-01 -1.549199042490227e-02 1.333324373360135e-01 -8.457965228560130e-03 3.972999714424799e-01 3.276933815242332e-01 -2.788915231309507e-01 3.868453210381158e-01
            -2.790029505773071e-01 3.868835687550992e-01 3.973066987115663e-01 3.277106326275113e-01 1.224487839241679e-01 -2.262897613968325e-02 1.303220544798680e-01 -2.083151774595929e-02
            3.973332486349462e-01 3.276624182825146e-01 -2.789597349790559e-01 3.868125685643326e-01 1.303035443760485e-01 -2.084905366667588e-02 1.224165333237211e-01 -2.265064335456236e-02
129205000.0000000000 1.134002073026457e-01 -3.446502869188973e-02 1.059589496453225e-01 -3.940820986497812e-02 -1.285148660735640e-01 4.601106412213655e-01 4.865130041763334e-01 1.748793090560413e-01
            1.059441541636313e-01 -3.947400937002343e-02 1.134430728233954e-01 -3.449201561648725e-02 4.865159794603067e-01 1.748639507320562e-01 -1.285092904005610e-01 4.602153322218463e-01
            -1.285191703785392e-01 4.602375892378666e-01 4.865473445215644e-01 1.749157223187320e-01 1.033449070468880e-01 -4.735782851092579e-02 1.057544839864069e-01 -4.529935339243850e-02
            4.865589562701711e-01 1.748708396648281e-01 -1.285352231701240e-01 4.601443644502035e-01 1.057176878055148e-01 -4.536194226070051e-02 1.034078483551823e-01 -4.732259783605412e-02
130037500.0000000000 8.134033642407018e-02 -4.172445963695141e-02 7.527826837214428e-02 -4.564475562996907e-02 4.092618658679907e-02 4.761259779698431e-01 5.217214098725907e-01 -7.385419663011202e-04
            7.528217512601658e-02 -4.574811495955287e-02 8.130617373688788e-02 -4.167347159090765e-02 5.217340328728947e-01 -7.101718852855254e-04 4.096218423286240e-02 4.761432349239295e-01
            4.093072386425757e-02 4.761883786887987e-01 5.217468607395293e-01 -7.756802488639155e-04 7.248528578104774e-02 -5.348478366143656e-02 7.072695231080514e-02 -4.853045118052304e-02
            5.216855367411464e-01 -8.379656108509054e-04 4.098790227117671e-02 4.760822222132141e-01 7.071497366217294e-02 -4.849556908164513e-02 7.243823717339692e-02 -5.357103184476451e-02
130870000.0000000000 5.234479700855770e-02 -2.593472692279469e-02 4.730232779690965e-02 -3.000440979590841e-02 2.057131681596404e-01 4.287705916991635e-01 4.953099539250898e-01 -1.825034446870478e-01
            4.723741863458821e-02 -2.999749364548264e-02 5.239115715903708e-02 -2.596745935205016e-02 4.953638270060588e-01 -1.825237039800025e-01 2.057077620538782e-01 4.287441116007778e-01
            2.058076276648602e-01 4.287390284380413e-01 4.953468360546003e-01 -1.824876339096010e-01 4.479308702940643e-02 -3.717969458114814e-02 4.182070790100226e-02 -2.792880939948239e-02
            4.953830665178112e-01 -1.824334262013791e-01 2.057958628791139e-01 4.287318672384618e-01 4.173717767074304e-02 -2.790834426789181e-02 4.484128627247413e-02 -3.719415057495751e-02
131702500.0000000000 4.132673625286735e-02 5.161957945105865e-03 3.659340513530013e-02 7.502262265080870e-04 3.400123525563209e-01 3.247965971310496e-01 4.044395949136582e-01 -3.477323846559526e-01
            3.654581750047051e-02 7.953376618992935e-04 4.142748244344967e-02 5.223931857375679e-03 4.045224925409816e-01 -3.477384304023368e-01 3.400349458513328e-01 3.247257519001805e-01
            3.400281347890026e-01 3.248210316165759e-01 4.044379369574356e-01 -3.477663559971074e-01 3.528203277623717e-02 -6.157975163858141e-03 3.369935935147617e-02 6.760874480845850e-03
            4.045988596690364e-01 -3.477096112276175e-01 3.400290676051347e-01 3.248657757217612e-01 3.380845001385598e-02 6.817013415346824e-03 3.526711774616959e-02 -6.168946563971664e-03
132535000.0000000000 5.424617429310399e-02 3.517910391330219e-02 4.896142492118950e-02 3.072770567247677e-02 4.252335443690448e-01 1.830143323861997e-01 2.573014413465070e-01 -4.705471688150373e-01
            4.901363793004933e-02 3.081264960804627e-02 5.425477412699500e-02 3.519043919169240e-02 2.574232983732959e-01 -4.706193658564636e-01 4.253348608312999e-01 1.830121631317674e-01
            4.251780998040698e-01 1.830172638800398e-01 2.573489497737493e-01 -4.705421849242024e-01 4.918243441333394e-02 2.309992290596512e-02 5.075738429369406e-02 3.758814487009841e-02
            2.573206378302751e-01 -4.705422931044263e-01 4.252933674518975e-01 1.829882310539813e-01 5.079217095867979e-02 3.761059487201814e-02 4.908618015998983e-02 2.312916116116758e-02
133367500.0000000000 8.355005284048221e-02 4.849270027789652e-02 7.755599964212305e-02 4.470623226831157e-02 4.552225575255858e-01 2.588372271697950e-02 7.539629895997849e-02 -5.309644758844057e-01
            7.748395078452849e-02 4.465964575519835e-02 8.350503727166581e-02 4.842066524498741e-02 7.548283644221923e-02 -5.309545626784860e-01 4.551688918944051e-01 2.584000089857223e-02
            4.551545030479227e-01 2.589115696366246e-02 7.539748797374315e-02 -5.309459769994650e-01 7.856952847181790e-02 3.532932472421507e-02 8.320655651259683e-02 4.893982831103445e-02
            7.546576373738156e-02 -5.309880353829324e-01 4.550996290351996e-01 2.587143027412219e-02 8.325633116846573e-02 4.902137335757933e-02 7.847977450304450e-02 3.538531830592894e-02
134200000.0000000000 1.135269857760316e-01 3.936394229953940e-02 1.074349429255847e-01 3.674650650153004e-02 4.322366694654858e-01 -1.282299910054579e-01 -1.135172993418031e-01 -5.223008441117596e-01
            1.073431362678118e-01 3.670195733785123e-02 1.136042757781707e-01 3.931238565884744e-02 -1.135795674576930e-01 -5.222986565140321e-01 4.322835716733905e-01 -1.282489875217137e-01
            4.323196296193746e-01 -1.281752982488430e-01 -1.134345836171544e-01 -5.223145929650942e-01 1.079845388714261e-01 2.543594125512985e-02 1.143425636329453e-01 3.648924658731945e-02
            -1.135274920992173e-01 -5.223398091790407e-01 4.323425404972902e-01 -1.281149601382493e-01 1.143365624981841e-01 3.650363332050089e-02 1.080647415950517e-01 2.547967300323661e-02
135032500.0000000000 1.302203022485106e-01 1.327486122003767e-02 1.245193821978156e-01 1.204690635017858e-02 3.616893702193505e-01 -2.654945643813145e-01 -2.847865091653921e-01 -4.502383801585586e-01
            1.246003643708109e-01 1.211682878971147e-02 1.302410847465231e-01 1.329865334247106e-02 -2.848772710864726e-01 -4.502520627110937e-01 3.617304996356479e-01 -2.654105146975041e-01
            3.617919518872380e-01 -2.654837566871960e-01 -2.847569976738479e-01 -4.502538790242301e-01 1.237352591288155e-01 -9.078093458039253e-04 1.295944726004147e-01 7.297043067286990e-03
            -2.848432561087666e-01 -4.501961737574487e-01 3.617032284900247e-01 -2.654357652609027e-01 1.296310767088689e-01 7.220570025505253e-03 1.237511112783001e-01 -9.505860022455401e-04
135865000.0000000000 1.263264031984544e-01 -1.714832527755494e-02 1.219039219880671e-01 -1.741908477078657e-02 2.492978060749087e-01 -3.729303808748870e-01 -4.206446658646600e-01 -3.269303658611617e-01
            1.218401226438316e-01 -1.744535817709739e-02 1.262551112705778e-01 -1.725608202157086e-02 -4.206805429361325e-01 -3.268818569550161e-01 2.494624636241328e-01 -3.729056380581777e-01
            2.493856438857771e-01 -3.729546569295514e-01 -4.206634271122652e-01 -3.269431586585532e-01 1.187244872222706e-01 -3.120506742196609e-02 1.223454972549460e-01 -2.469219829525648e-02
            -4.207458595506663e-01 -3.268471578063945e-01 2.494866772501722e-01 -3.729545289539597e-01 1.222904978476375e-01 -2.466435044773082e-02 1.187647331682313e-01 -3.114857913515745e-02
136697500.0000000000 1.034556554694008e-01 -3.811372581218681e-02 1.008702189230323e-01 -3.820749877081706e-02 1.047176657445813e-01 -4.367832266924738e-01 -5.090037423670907e-01 -1.658975858140418e-01
            1.007718756339997e-01 -3.820157895650298e-02 1.035805807073502e-01 -3.812590628379191e-02 -5.090918436370032e-01 -1.659360892265350e-01 1.046984867725169e-01 -4.367189215534324e-01
            1.047529650068349e-01 -4.368256592957279e-01 -5.091211762437992e-01 -1.660201340073927e-01 9.502485877667051e-02 -5.142562433981600e-02 9.599271669759389e-02 -4.458674922627145e-02
            -5.090134698619361e-01 -1.659220204926060e-01 1.047437542191234e-01 -4.368241468848668e-01 9.592753149625499e-02 -4.451161704524226e-02 9.495609040767818e-02 -5.138043765265420e-02
137530000.0000000000 7.217666327464466e-02 -3.898304613804503e-02 7.083281818103580e-02 -3.997469218808875e-02 -5.563365001703084e-02 -4.450159911197349e-01 -5.402420304990972e-01 1.790320863718250e-02
            7.086103125173261e-02 -4.000413708347524e-02 7.211866293710746e-02 -3.900942883561807e-02 -5.402038839969661e-01 1.790128924452232e-02 -5.569999498278808e-02 -4.450557418007982e-01
            -5.567490402643945e-02 -4.449886437987205e-01 -5.402495398227420e-01 1.794062603933650e-02 6.289825197450188e-02 -5.134049726158376e-02 6.213146168074764e-02 -4.237851323758036e-02
            -5.402110285064903e-01 1.786847643462119e-02 -5.571637841801120e-02 -4.449639675637345e-01 6.213315000697783e-02 -4.235170898609298e-02 6.287855045954070e-02 -5.139293611736330e-02
138362500.0000000000 4.767897888684514e-02 -1.831852061203514e-02 4.713523505361317e-02 -2.102628902153135e-02 -2.081976814802850e-01 -3.933640020704965e-01 -5.060565592719738e-01 2.059932076826886e-01
            4.710587604788961e-02 -2.095817567548828e-02 4.766676405369437e-02 -1.832681331898505e-02 -5.061699017589416e-01 2.059897152631513e-01 -2.081380974876451e-01 -3.932934810377313e-01
            -2.081316787812297e-01 -3.933843982722697e-01 -5.061233046233564e-01 2.059624207385365e-01 3.810348521527899e-02 -2.957418104077462e-02 3.759151757382073e-02 -1.769266988055318e-02
            -5.060302404170690e-01 2.059897548976362e-01 -2.081316603754824e-01 -3.933195696275513e-01 3.755610453135724e-02 -1.771318331237730e-02 3.807159289260777e-02 -2.950757562302793e-02
139195000.0000000000 4.340378738890724e-02 1.371028215406949e-02 4.262189064012720e-02 9.280880944064217e-03 -3.287480187608717e-01 -2.907152813598441e-01 -4.050260192683420e-01 3.734126917034788e-01
            4.263055312662509e-02 9.341149687068877e-03 4.346558102352709e-02 1.374939638531148e-02 -4.050529774796655e-01 3.734680092973666e-01 -3.287943257392060e-01 -2.907172920075819e-01
            -3.287567052670466e-01 -2.906722800086133e-01 -4.050141179961585e-01 3.734616423750546e-01 3.389540169027292e-02 3.532739483460862e-03 3.575524955760835e-02 1.752967223767331e-02
            -4.050906795838967e-01 3.734398404381670e-01 -3.287894070039177e-01 -2.906787110776077e-01 3.573437481795903e-02 1.756204131240291e-02 3.396966898232870e-02 3.569171978627625e-03
140027500.0000000000 6.212830184035866e-02 4.026402914779283e-02 5.999185598859444e-02 3.454136358861054e-02 -4.021650690815407e-01 -1.560053577109579e-01 -2.482183634803966e-01 4.937358881019772e-01
            5.985514529834652e-02 3.444316828443842e-02 6.210895978296285e-02 4.044617116757094e-02 -2.483524833833892e-01 4.937542570277585e-01 -4.021169784378801e-01 -1.559823014546171e-01
            -4.021471608315664e-01 -1.560234046025777e-01 -2.482209032256068e-01 4.937244208540535e-01 5.255811795040412e-02 3.095538059592290e-02 5.782362327870944e-02 4.520404226312762e-02
            -2.482976937052420e-01 4.937372352170176e-01 -4.021584942030006e-01 -1.560350356958496e-01 5.790430823723789e-02 4.512730574886829e-02 5.256748642676253e-02 3.096904936858861e-02
140860000.0000000000 9.342185901255673e-02 4.773847046529296e-02 8.929363979318561e-02 4.144479162867222e-02 -4.246197694675897e-01 -9.649535814001995e-03 -5.937630029867905e-02 5.483852746113876e-01
            8.931290720588447e-02 4.135710947086488e-02 9.342431003119678e-02 4.779759486401666e-02 -5.936737920453299e-02 5.484466125171423e-01 -4.246547498133529e-01 -9.597875052008122e-03
            -4.245282603794650e-01 -9.636685461321634e-03 -5.935769132261135e-02 5.484655662504083e-01 8.382146028728148e-02 3.928015965129304e-02 9.230880536745371e-02 5.141880388718176e-02
            -5.937538607771674e-02 5.484144908767331e-01 -4.245875199263893e-01 -9.650449488856454e-03 9.230619292818042e-02 5.140829210726840e-02 8.373359239358562e-02 3.925565850540041e-02
141692500.0000000000 1.218096800542822e-01 3.326743204397072e-02 1.157108949356794e-01 2.729149886389602e-02 -3.989506684853424e-01 1.327880670215447e-01 1.335803080875495e-01 5.329182889436959e-01
            1.156551563003722e-01 2.732199519317795e-02 1.217915114972754e-01 3.322534533629390e-02 1.336577298614287e-01 5.328440966647147e-01 -3.990288234924413e-01 1.327109540248353e-01
            -3.989522384184390e-01 1.327804565343006e-01 1.336024876323857e-01 5.329284585142180e-01 1.119278325392438e-01 2.575680660967484e-02 1.221073533943602e-01 3.423421844185413e-02
            1.335910916795837e-01 5.328350832376998e-01 -3.990187189517893e-01 1.327058452368216e-01 1.221053147350703e-01 3.435631418933238e-02 1.119450063559677e-01 2.584092495989099e-02
142525000.0000000000 1.344703762166973e-01 4.125736391884881e-03 1.265100878502762e-01 -4.558342721532948e-04 -3.294954354632302e-01 2.588702887782693e-01 3.066532435870202e-01 4.539390798488953e-01
            1.264951629169056e-01 -4.908202452756671e-04 1.344232488065819e-01 4.135238432079131e-03 3.066792685173333e-01 4.537712749198772e-01 -3.294898361893290e-01 2.587505436974938e-01
            -3.295309594748407e-01 2.587977482898252e-01 3.066596361714718e-01 4.538282113246702e-01 1.245371008913415e-01 -1.708139528827487e-03 1.341927580030165e-01 2.732587742842505e-03
            3.067213033101538e-01 4.538161538907674e-01 -3.296269576069602e-01 2.587443816173040e-01 1.342191280676223e-01 2.780464868855126e-03 1.246289881680294e-01 -1.710127016245826e-03
143357500.0000000000 1.257886495876909e-01 -2.652411313775551e-02 1.170262873589098e-01 -2.919376152150377e-02 -2.212243233679855e-01 3.562027411705629e-01 4.426735814025413e-01 3.233917228019558e-01
            1.170374531532190e-01 -2.925507620038986e-02 1.257552325501627e-01 -2.636406079894841e-02 4.426955564284363e-01 3.233420442866181e-01 -2.212330016491230e-01 3.562294737219464e-01
            -2.213129114438570e-01 3.562367127452449e-01 4.426279745302339e-01 3.233389977419161e-01 1.167567343583329e-01 -3.044522997733929e-02 1.237218438334456e-01 -2.922234089065755e-02
            4.426099925557946e-01 3.233752775534895e-01 -2.212351266406277e-01 3.562735539411124e-01 1.236826392915462e-01 -2.921226607929037e-02 1.168105899537359e-01 -3.046348318218797e-02
144190000.0000000000 9.949546837464432e-02 -4.483558288753785e-02 9.072406458404286e-02 -4.564910069965111e-02 -8.331826622933661e-02 4.115234504455206e-01 5.291224723247168e-01 1.552003129117578e-01
            9.055602117767791e-02 -4.571883124154239e-02 9.953594520379094e-02 -4.481188598546228e-02 5.290629429663453e-01 1.551407567744825e-01 -8.329614498223967e-02 4.114935352588481e-01
            -8.328069896337502e-02 4.115454137714822e-01 5.291371091417151e-01 1.550954457916224e-01 9.213702368363194e-02 -4.720720628350784e-02 9.540152039682451e-02 -4.729658240228611e-02
            5.291368072380317e-01 1.551072936372613e-01 -8.327039117871300e-02 4.115177814050937e-01 9.549150103398245e-02 -4.734143411052548e-02 9.216917833070283e-02 -4.725982041214655e-02
145022500.0000000000 6.718466008655631e-02 -4.201900707007439e-02 5.893212845999615e-02 -4.102866579373601e-02 6.729350839276950e-02 4.132588017264762e-01 5.555753587864787e-01 -3.562785782562578e-02
            5.884782812320955e-02 -4.109133024225910e-02 6.713184539145976e-02 -4.193010428905301e-02 5.555001928002299e-01 -3.557835998811940e-02 6.733519388899227e-02 4.132393071152931e-01
            6.732589499100811e-02 4.131990662474835e-01 5.555645049742983e-01 -3.560040448744290e-02 6.225586627478492e-02 -4.352503698006259e-02 6.197929987736099e-02 -4.282427785776589e-02
            5.555561120053905e-01 -3.562556907997957e-02 6.730964961146466e-02 4.131582160256129e-01 6.193511660758658e-02 -4.285458177676722e-02 6.225241825230476e-02 -4.350107256719069e-02
145855000.0000000000 4.466614251925111e-02 -1.842206467070779e-02 3.720219383198145e-02 -1.624439199838261e-02 2.076518846592416e-01 3.590038094369860e-01 5.138205459114746e-01 -2.284796694711878e-01
            3.726185449241283e-02 -1.628036544390585e-02 4.456342910722088e-02 -1.842287723395468e-02 5.137726425777588e-01 -2.284489295598769e-01 2.076475635395047e-01 3.589798095916627e-01
            2.076016219627635e-01 3.589537204335736e-01 5.138221016456971e-01 -2.284514300601733e-01 4.237878129401330e-02 -2.027979781069735e-02 3.988185911791418e-02 -1.740860612660465e-02
            5.138337111926536e-01 -2.284274508780796e-01 2.076351439372368e-01 3.589062965503979e-01 3.980446834958636e-02 -1.734560904382350e-02 4.232864009238445e-02 -2.036460216479265e-02
146687500.0000000000 4.346585890883438e-02 1.386150228723193e-02 3.730935486534515e-02 1.689139344198869e-02 3.156773693682013e-01 2.587948043622613e-01 4.037921150669449e-01 -3.968993044066932e-01
            3.725999257494227e-02 1.694916622900388e-02 4.345830950764677e-02 1.384262203457241e-02 4.038145739012639e-01 -3.969732776913464e-01 3.156569446759989e-01 2.588666455395627e-01
            3.156709477027972e-01 2.588373623537393e-01 4.037311936313732e-01 -3.969502769534229e-01 4.360863120211321e-02 1.042330914447282e-02 4.050514312747101e-02 1.587815005568894e-02
            4.037980861056461e-01 -3.969621127405520e-01 3.156098259953853e-01 2.588164616898798e-01 4.049088395597744e-02 1.589022388363065e-02 4.358926897373376e-02 1.036643683354383e-02
147520000.0000000000 6.398226777940172e-02 3.807885268600097e-02 5.892849341234818e-02 4.159129576676587e-02 3.787994109564803e-01 1.312973821404400e-01 2.388120199162841e-01 -5.145708637275098e-01
            5.887582727853025e-02 4.166020187345876e-02 6.394154109820059e-02 3.805397773537789e-02 2.387330074375825e-01 -5.146386768925304e-01 3.787145234765567e-01 1.312997981702014e-01
            3.787400127756429e-01 1.313674136270516e-01 2.387516614106546e-01 -5.145968195084518e-01 6.537163915215947e-02 3.211684763797253e-02 6.288592383076876e-02 3.951169568415409e-02
            2.387748900801526e-01 -5.145865879500627e-01 3.787082761388418e-01 1.312865716297057e-01 6.296392927010408e-02 3.947340090794720e-02 6.541055764213649e-02 3.206576944361143e-02
148352500.0000000000 9.432363838422897e-02 4.224820141530917e-02 9.054415529642071e-02 4.613409017004897e-02 3.946653970271972e-01 -4.973840543038910e-03 4.386459068297791e-02 -5.642277715063811e-01
            9.051549689618950e-02 4.618401883974641e-02 9.429882792861706e-02 4.228905181755484e-02 4.381787257344435e-02 -5.642360397508881e-01 3.946330359819338e-01 -4.965093355209711e-03
            3.946635813179599e-01 -4.950688323899478e-03 4.380997074436482e-02 -5.642077246702862e-01 9.569823855813515e-02 3.356608934733452e-02 9.448588161579055e-02 4.169997518301292e-02
            4.380141968064385e-02 -5.641407252574513e-01 3.946819507799648e-01 -4.962194765101757e-03 9.440452937941128e-02 4.181172105348537e-02 9.570072036024124e-02 3.349008450524223e-02
149185000.0000000000 1.192529102537947e-01 2.579858962115308e-02 1.167606550429743e-01 2.983445800224263e-02 3.665873335234822e-01 -1.364101072940101e-01 -1.529939012554479e-01 -5.425798198131480e-01
            1.167260069793399e-01 2.976031740510085e-02 1.192117361069419e-01 2.585199226977592e-02 -1.530049501543061e-01 -5.425183912217011e-01 3.665494014569976e-01 -1.364175796293796e-01
            3.665976608176029e-01 -1.363945598043463e-01 -1.530528339108240e-01 -5.425317334585139e-01 1.193517155821789e-01 1.491728596898611e-02 1.190027034968007e-01 2.294109086499270e-02
            -1.530254943211666e-01 -5.425798551839834e-01 3.665606815029875e-01 -1.363353965413983e-01 1.189373816972565e-01 2.297717423317229e-02 1.193574096318796e-01 1.506273871732755e-02
150017500.0000000000 1.272539032111650e-01 -2.343206846274750e-03 1.262264313659857e-01 1.271428373579903e-03 2.977313660643297e-01 -2.518420073719589e-01 -3.281900524052354e-01 -4.569623182328921e-01
            1.262038149666100e-01 1.456457294014217e-03 1.272810526173349e-01 -2.364633060706306e-03 -3.282323775268285e-01 -4.568800892842588e-01 2.977670833388055e-01 -2.518348673544989e-01
            2.977615800629191e-01 -2.518248003956782e-01 -3.282260925432098e-01 -4.569230505786200e-01 1.255271639142728e-01 -1.446904724665709e-02 1.251018358892819e-01 -7.057847299540053e-03
            -3.281827494253830e-01 -4.568539566344629e-01 2.977393158572317e-01 -2.518462438550818e-01 1.251186720118324e-01 -6.992647547019341e-03 1.254885941513929e-01 -1.457339697427097e-02
150850000.0000000000 1.152350351775756e-01 -2.908177020516687e-02 1.155072779234103e-01 -2.609093095298826e-02 1.930006885771931e-01 -3.391287254928120e-01 -4.646710642868256e-01 -3.191996032844736e-01
            1.154261446905942e-01 -2.604345209263996e-02 1.152022944020164e-01 -2.909367451147958e-02 -4.646677317386124e-01 -3.191319954003962e-01 1.929595699646510e-01 -3.391453477613053e-01
            1.929971593045010e-01 -3.391279804097342e-01 -4.646353608294999e-01 -3.191338032211770e-01 1.113422052832190e-01 -4.155783053121556e-02 1.100898881954894e-01 -3.404120765033329e-02
            -4.646798666480876e-01 -3.190995341467436e-01 1.930480212012852e-01 -3.390734344224969e-01 1.100782807445764e-01 -3.405136693545516e-02 1.113688210404146e-01 -4.151973446380075e-02
151682500.0000000000 8.828426732991337e-02 -4.165850993060877e-02 8.958825609893560e-02 -3.988132435287543e-02 6.193430164046452e-02 -3.851333469306165e-01 -5.490544518066918e-01 -1.430467782529472e-01
            8.963821122563093e-02 -3.994478831533865e-02 8.823786300350833e-02 -4.163779455588678e-02 -5.490683336984717e-01 -1.430255499487929e-01 6.202014346079492e-02 -3.850975875349286e-01
            6.198417926210825e-02 -3.850830999381157e-01 -5.490377560547611e-01 -1.429758668135393e-01 8.250151395042882e-02 -5.361426007484014e-02 8.037719339510878e-02 -4.504955651205781e-02
            -5.490348906543234e-01 -1.429458472196871e-01 6.201253099248228e-02 -3.851401606219298e-01 8.036068333966155e-02 -4.503931112467139e-02 8.254327743751942e-02 -5.370205508994717e-02
152515000.0000000000 5.898827449044911e-02 -3.307555321750208e-02 6.110620239977890e-02 -3.316775493900421e-02 -7.828798934882240e-02 -3.799823369347936e-01 -5.699455111011021e-01 5.495894759864903e-02
            6.110862884800670e-02 -3.322559476398559e-02 5.892662782583913e-02 -3.313565958855865e-02 -5.700003311842063e-01 5.501479451071252e-02 -7.823852410715526e-02 -3.799693653488789e-01
            -7.821495800899182e-02 -3.799608885500736e-01 -5.700126737629351e-01 5.501214703241400e-02 5.201581171783209e-02 -4.411799816896332e-02 4.975089425825898e-02 -3.350067985733025e-02
            -5.699555577593574e-01 5.493626264455142e-02 -7.821706992569231e-02 -3.800140225889512e-01 4.973147971307744e-02 -3.350297043063098e-02 5.197751215203129e-02 -4.409636006351395e-02
153347500.0000000000 4.261258066305701e-02 -6.798188216127001e-03 4.457611339873421e-02 -8.892606909772737e-03 -2.054187261462056e-01 -3.234046198337594e-01 -5.195205579432399e-01 2.521935011431808e-01
            4.459282329898325e-02 -8.905937053110154e-03 4.254572655779870e-02 -6.709634083842581e-03 -5.195067551409380e-01 2.522161186215709e-01 -2.053804359436493e-01 -3.234314957579626e-01
            -2.054227942425393e-01 -3.234353130317694e-01 -5.195817876494547e-01 2.521800985695614e-01 3.496672731074749e-02 -1.669654373774060e-02 3.396433318536435e-02 -3.716908461390087e-03
            -5.195599212752579e-01 2.521759265285858e-01 -2.053854810985212e-01 -3.234512931443924e-01 3.389326607830843e-02 -3.834863228019810e-03 3.500238605177067e-02 -1.662084840578980e-02
154180000.0000000000 4.807280650025671e-02 2.388886061177748e-02 4.898738784210177e-02 1.982485563438736e-02 -3.001645173864209e-01 -2.267416622722874e-01 -3.997951465172210e-01 4.206574430682092e-01
            4.899290049712362e-02 1.991808660424321e-02 4.811980465531084e-02 2.380923207311193e-02 -3.998003804792764e-01 4.205701708335836e-01 -3.001890501151699e-01 -2.268116934689421e-01
            -3.001411687433033e-01 -2.267957528558934e-01 -3.997685026220422e-01 4.206389384495723e-01 4.033764914386334e-02 1.483468773868423e-02 4.183484147198754e-02 2.920423453997152e-02
            -3.998273384348049e-01 4.205827003837789e-01 -3.001354661025221e-01 -2.267992862564535e-01 4.192783049407088e-02 2.916018106429336e-02 4.038782637494049e-02 1.491830220755417e-02
155012500.0000000000 7.256439829182310e-02 4.288596892367266e-02 7.150066370813975e-02 3.755858477909786e-02 -3.530535083438275e-01 -1.078251763937995e-01 -2.267442965022483e-01 5.342248343088488e-01
            7.153148072099669e-02 3.761756114407015e-02 7.255518063699869e-02 4.289726714389188e-02 -2.268267744574094e-01 5.342215570694975e-01 -3.531123403805351e-01 -1.077609354422542e-01
            -3.529847532786837e-01 -1.078012889916049e-01 -2.267565666763047e-01 5.342606768458739e-01 6.453742469499257e-02 3.425250946532547e-02 6.945203348986075e-02 4.861037982836652e-02
            -2.266987980248991e-01 5.341978133683801e-01 -3.529501497622111e-01 -1.078160820189246e-01 6.929918581706875e-02 4.855550980233567e-02 6.452884225664542e-02 3.427905960990249e-02
155845000.0000000000 1.028688507850742e-01 4.108554198601612e-02 9.942020782145453e-02 3.556565857731558e-02 -3.633783482077454e-01 1.770473270414646e-02 -2.666257723147934e-02 5.779227730878346e-01
            9.957096301865562e-02 3.558347597027386e-02 1.028653199568000e-01 4.109644656047113e-02 -2.656999339056611e-02 5.779075282393786e-01 -3.632961003210997e-01 1.772217832249791e-02
            -3.632648837784366e-01 1.767086676438083e-02 -2.659502414023698e-02 5.779062549305224e-01 9.427442665997689e-02 3.283150811772382e-02 1.022002281097820e-01 4.555436269067348e-02
            -2.665064214722044e-02 5.779014340192619e-01 -3.634542056031831e-01 1.768326967476274e-02 1.022136394890366e-01 4.552282892398716e-02 9.418192679196463e-02 3.284034646286178e-02
156677500.0000000000 1.242895402965931e-01 2.035463626253213e-02 1.188010006741044e-01 1.576921098237120e-02 -3.334522692637407e-01 1.379251726112066e-01 1.729504337321477e-01 5.498890773601750e-01
            1.187937317637666e-01 1.580682396592097e-02 1.243517732158457e-01 2.046443084265212e-02 1.730377695621626e-01 5.499401923390794e-01 -3.334409308356915e-01 1.379956840237126e-01
            -3.334456962590384e-01 1.380001517623246e-01 1.729619243447986e-01 5.499597668260993e-01 1.149340085776458e-01 1.300072279797782e-02 1.247112978182826e-01 2.257434318355844e-02
            1.729811540880047e-01 5.498941678661766e-01 -3.334705424087652e-01 1.379523122820712e-01 1.246904858431883e-01 2.253017846285118e-02 1.149387869255652e-01 1.290322175157420e-02
157510000.0000000000 1.274034383672452e-01 -9.071026165170477e-03 1.204203403945068e-01 -1.173043149699301e-02 -2.660218617916705e-01 2.426565971171952e-01 3.495656969432242e-01 4.576715236536564e-01
            1.203801913896917e-01 -1.173958445760105e-02 1.274398786438153e-01 -9.101396560779141e-03 3.496061566065543e-01 4.576915049710495e-01 -2.661170573222270e-01 2.427549908115522e-01
            -2.661989569488692e-01 2.426943430729557e-01 3.496024033960620e-01 4.576569618018737e-01 1.173868809183835e-01 -1.514322439711748e-02 1.272648570280632e-01 -8.870005001128226e-03
            3.495802377573834e-01 4.577501849332800e-01 -2.661306415489685e-01 2.427786869648459e-01 1.273169007650443e-01 -8.722759076814648e-03 1.173791106861730e-01 -1.510728299924553e-02
158342500.0000000000 1.107924201088858e-01 -3.374011904171727e-02 1.033937379732766e-01 -3.391502662947322e-02 -1.655898496777980e-01 3.199724844018582e-01 4.857907477798903e-01 3.127766858274471e-01
            1.034361165643220e-01 -3.387468938665785e-02 1.108131820779293e-01 -3.369753231368257e-02 4.857594491902996e-01 3.127886250468265e-01 -1.655308172340568e-01 3.199647046800572e-01
            -1.655948944322134e-01 3.199032521071332e-01 4.858524661509760e-01 3.127584878398134e-01 1.005801077240135e-01 -3.805134938203078e-02 1.092085894299195e-01 -3.432062730836376e-02
            4.858586898730928e-01 3.127552556577197e-01 -1.655489892947883e-01 3.199809862730160e-01 1.091898233751716e-01 -3.438164441809096e-02 1.005991620309264e-01 -3.804635502078601e-02
159175000.0000000000 8.164557133625668e-02 -4.177751837606756e-02 7.520056119713882e-02 -3.965832029524591e-02 -4.209349985858406e-02 3.570095346062181e-01 5.673910451436157e-01 1.289775013563926e-01
            7.516826232488222e-02 -3.973375997518320e-02 8.162974759881575e-02 -4.183312556864446e-02 5.674302394678518e-01 1.290019747240546e-01 -4.212524839566659e-02 3.570206669195420e-01
            -4.204831477731274e-02 3.570178743786374e-01 5.674481730774046e-01 1.289202069084157e-01 7.204825638468100e-02 -4.432609874910343e-02 7.857247082751970e-02 -4.186895662424293e-02
            5.674216401145636e-01 1.289347245752043e-01 -4.205655627030731e-02 3.570590647235364e-01 7.864663613931176e-02 -4.180741889115151e-02 7.200644937643623e-02 -4.432549944886657e-02
160007500.0000000000 5.390157869289773e-02 -2.850239401122245e-02 4.954295399945741e-02 -2.480493273806941e-02 8.697421442181065e-02 3.454881321904051e-01 5.821436611982265e-01 -7.565470947721606e-02
            4.957406091276264e-02 -2.478805223474839e-02 5.388261799971110e-02 -2.843398421528170e-02 5.821329730828962e-01 -7.568309193800699e-02 8.699164875169861e-02 3.455631898768138e-01
            8.697045873662881e-02 3.455648405564122e-01 5.820621491002389e-01 -7.570762953813176e-02 4.560113243951656e-02 -2.959419639301012e-02 5.038021487789791e-02 -2.686752162447261e-02
            5.820666020822932e-01 -7.571879087596040e-02 8.700847941580443e-02 3.455011840166639e-01 5.046677639467109e-02 -2.692522487359172e-02 4.559479308301535e-02 -2.966860593490130e-02
160840000.0000000000 4.200256703416617e-02 2.526161035930229e-04 4.017684331777314e-02 4.282745704358083e-03 2.003552082392556e-01 2.875554885781335e-01 5.225120099258865e-01 -2.763454359451076e-01
            4.010866350343291e-02 4.352093617053998e-03 4.193574919636592e-02 3.059596355105628e-04 5.225170473144986e-01 -2.763198734941224e-01 2.005160605774988e-01 2.875757787716340e-01
            2.004049517168484e-01 2.875258712686571e-01 5.224482559543809e-01 -2.763274686024774e-01 3.534521183332542e-02 -9.559047001636312e-05 3.953945472775550e-02 3.617571270106442e-03
            5.224681050149250e-01 -2.762885097228467e-01 2.004159421394985e-01 2.876107116155632e-01 3.949545855224121e-02 3.438294517755483e-03 3.545342630363786e-02 -1.753783732765974e-04
161672500.0000000000 5.234528044413082e-02 2.962169723327307e-02 5.292983746068331e-02 3.252665652039382e-02 2.820961964195670e-01 1.955549856407992e-01 3.930479577354765e-01 -4.434775453624341e-01
            5.300337651383011e-02 3.243461534567048e-02 5.239641457414058e-02 2.962804707626439e-02 3.931018677438183e-01 -4.434118146013415e-01 2.820444118232784e-01 1.955569240246654e-01
            2.820856794787724e-01 1.956396731819342e-01 3.930007515768593e-01 -4.434874097553861e-01 4.733910387649874e-02 2.909969016063934e-02 5.219695334251725e-02 3.342744408868824e-02
            3.930504069644379e-01 -4.434228958389163e-01 2.821139913693537e-01 1.956298249623511e-01 5.218348395718118e-02 3.344799634370326e-02 4.732348376297882e-02 2.906326922823536e-02
162505000.0000000000 7.915163116463216e-02 4.442278556607821e-02 8.128183414460904e-02 4.499694745911403e-02 3.252844464117296e-01 8.602374763745521e-02 2.124475966475468e-01 -5.519544099269800e-01
            8.126269702787993e-02 4.502636966151282e-02 7.915173698026037e-02 4.437567001106985e-02 2.125235975199932e-01 -5.520602745237390e-01 3.252933656964380e-01 8.599378619523645e-02
            3.253069844430534e-01 8.593979285880803e-02 2.124362763617445e-01 -5.520313467233432e-01 7.525603948682748e-02 4.312963967598378e-02 8.144409925666181e-02 4.719592056213612e-02
            2.125327222483966e-01 -5.520505750043840e-01 3.252877543265348e-01 8.603283662292067e-02 8.142593486292019e-02 4.715143984657088e-02 7.526001170779428e-02 4.313020047778292e-02
163337500.0000000000 1.083550636322231e-01 3.809912072923451e-02 1.106735166710139e-01 3.610032419788255e-02 3.306697999390188e-01 -2.785817456160631e-02 8.052503824496406e-03 -5.889966038321409e-01
            1.107588044005545e-01 3.609760181702790e-02 1.082846400554298e-01 3.816067918296416e-02 8.020457312318700e-03 -5.888147634573423e-01 3.306089019687584e-01 -2.786401161457317e-02
            3.307123121006333e-01 -2.784431222600042e-02 8.042003970028855e-03 -5.889700617124141e-01 1.048547795601424e-01 3.599838575107208e-02 1.121546739317087e-01 3.837679579132654e-02
            7.943546077768707e-03 -5.889107275761210e-01 3.306272748533205e-01 -2.789835535545223e-02 1.121671666246307e-01 3.844555627392831e-02 1.047669218587237e-01 3.602486988195081e-02
164170000.0000000000 1.262292660519280e-01 1.498190587899062e-02 1.275480747577271e-01 1.051255071019816e-02 3.001774209821844e-01 -1.365883541230989e-01 -1.933935651359605e-01 -5.540245700241677e-01
            1.274041391467398e-01 1.049767616800647e-02 1.262793699650761e-01 1.496424003247991e-02 -1.933820377038730e-01 -5.540647656503637e-01 3.002476913214446e-01 -1.365767174904816e-01
            3.002778758487435e-01 -1.366518532946264e-01 -1.933438571492870e-01 -5.540884005570219e-01 1.224920289066040e-01 1.244871074904189e-02 1.299862201549226e-01 1.219344099664081e-02
            -1.933944846921610e-01 -5.539845954329192e-01 3.002470697456305e-01 -1.366177183763818e-01 1.300391698281902e-01 1.216097831961918e-02 1.225583419867279e-01 1.250038243864506e-02
165002500.0000000000 1.252431177464218e-01 -1.398164228677595e-02 1.242390906136486e-01 -1.992482093792826e-02 2.355187270807973e-01 -2.308351478446670e-01 -3.699806334426879e-01 -4.553245271037873e-01
            1.241628837911487e-01 -2.000269055314938e-02 1.252081858788742e-01 -1.404214045864027e-02 -3.699946362346118e-01 -4.552804289299813e-01 2.355072959697996e-01 -2.307773398557554e-01
            2.354949065551979e-01 -2.307834324747078e-01 -3.699634282823580e-01 -4.553161919763785e-01 1.211718251557222e-01 -1.643679929779813e-02 1.271874044786311e-01 -1.929357102342565e-02
            -3.699497164111784e-01 -4.552735156430233e-01 2.355438908079659e-01 -2.308319433885332e-01 1.270739339451231e-01 -1.931417522908420e-02 1.212125791458180e-01 -1.636695170761575e-02
165835000.0000000000 1.056355446798677e-01 -3.566000217260851e-02 1.020182584927737e-01 -4.183259523477546e-02 1.403873980118853e-01 -2.985618730986142e-01 -5.046297135908725e-01 -3.038144675008976e-01
            1.020248235212282e-01 -4.172696705488802e-02 1.056118013083110e-01 -3.562050375899631e-02 -5.046793499129179e-01 -3.038872205767759e-01 1.404203702802052e-01 -2.985922617047442e-01
            1.403787175202115e-01 -2.985476812628037e-01 -5.046743902268644e-01 -3.038062195857215e-01 1.016984014919549e-01 -3.744242136963918e-02 1.046628805447745e-01 -4.204438225517951e-02
            -5.045605517050797e-01 -3.038910221127465e-01 1.403782044812276e-01 -2.986437640394107e-01 1.047320269437029e-01 -4.200028851680740e-02 1.016867643271958e-01 -3.738918908566462e-02
166667500.0000000000 7.630515291762661e-02 -3.925112503373903e-02 7.040100645245406e-02 -4.431536423995482e-02 2.519501684508074e-02 -3.278388785193211e-01 -5.824982152703565e-01 -1.136372591394726e-01
            7.042071292907440e-02 -4.431809437283726e-02 7.626057602376993e-02 -3.929216131830394e-02 -5.826375688740028e-01 -1.137446187754178e-01 2.530138496382944e-02 -3.278291363344929e-01
            2.522190363593240e-02 -3.278416854712564e-01 -5.825548447827840e-01 -1.137504552632252e-01 7.292898430582140e-02 -4.038583871621897e-02 7.256208360284397e-02 -4.508422532517185e-02
            -5.825286730666439e-01 -1.136916976042706e-01 2.523647684714950e-02 -3.278064966040221e-01 7.257706448942342e-02 -4.507698438963943e-02 7.292546956360731e-02 -4.041097581951897e-02
167500000.0000000000 5.140541788179338e-02 -2.231787924903630e-02 4.419008934244455e-02 -2.532705358138643e-02 -9.250076483737586e-02 -3.116804393083308e-01 -5.908341285101156e-01 9.599977797297771e-02
            4.429857318286040e-02 -2.529159034684570e-02 5.143139978260649e-02 -2.229183218901939e-02 -5.907946595333597e-01 9.595182581623807e-02 -9.249618877898554e-02 -3.116780744138369e-01
            -9.257901531645668e-02 -3.116613700000421e-01 -5.907833616955486e-01 9.594445998167023e-02 4.913766529758191e-02 -2.303088064113618e-02 4.585960390127227e-02 -2.610018097320081e-02
            -5.908061364334728e-01 9.596312315828695e-02 -9.249902333073153e-02 -3.116474028128149e-01 4.586540174906622e-02 -2.607481533370986e-02 4.915497820673850e-02 -2.307549246055828e-02
168332500.0000000000 4.429661034514449e-02 7.248294754486516e-03 3.713212326118322e-02 6.508822061940018e-03 -1.932669234913497e-01 -2.537144989133685e-01 -5.228266851360522e-01 2.984929145943718e-01
            3.715044283268912e-02 6.536514110959041e-03 4.438756471216814e-02 7.232076542556843e-03 -5.227832062136344e-01 2.984365635017005e-01 -1.931900900395128e-01 -2.536578079430835e-01
            -1.931922690173233e-01 -2.536308268389765e-01 -5.228313083028814e-01 2.985139644128102e-01 4.339812659426017e-02 6.244816901801863e-03 3.864516780720154e-02 5.698888893234893e-03
            -5.229044059779272e-01 2.984763017952451e-01 -1.932459542564808e-01 -2.537019184700713e-01 3.872846394400915e-02 5.706504314176078e-03 4.339102497087423e-02 6.294223591157958e-03
169165000.0000000000 5.893749710978737e-02 3.370543002151277e-02 5.284023719768306e-02 3.475725398341992e-02 -2.630527596643553e-01 -1.668824571818662e-01 -3.851364309209258e-01 4.636781484921036e-01
            5.281573744137765e-02 3.479446581676385e-02 5.891560868856796e-02 3.373952231288863e-02 -3.851656641292557e-01 4.637526892828179e-01 -2.630768148813222e-01 -1.669463986435805e-01
            -2.630631121707166e-01 -1.669258200577921e-01 -3.851765107822167e-01 4.638103635713370e-01 5.902725899271091e-02 3.175389928677780e-02 5.458687089430059e-02 3.392563226841625e-02
            -3.852407568905646e-01 4.637367033120340e-01 -2.630717558183259e-01 -1.669800362083925e-01 5.458485982807212e-02 3.396449121250671e-02 5.899919640483340e-02 3.172267375749818e-02
169997500.0000000000 8.698250602864893e-02 4.347192218291712e-02 8.263729046949699e-02 4.547253817952508e-02 -2.977965239032729e-01 -6.645737626913227e-02 -1.983397983192777e-01 5.675327600669243e-01
            8.264855988551499e-02 4.543444793655762e-02 8.700172391838847e-02 4.353559802116799e-02 -1.984259916691318e-01 5.675191557525827e-01 -2.978066214216193e-01 -6.647577305036978e-02
            -2.978427462560588e-01 -6.634339192345977e-02 -1.983600944716596e-01 5.675665237420160e-01 8.735915708857422e-02 4.036393221865758e-02 8.448026526629902e-02 4.405883463293845e-02
            -1.983912274921091e-01 5.675688837307852e-01 -2.978283800025351e-01 -6.644756460534064e-02 8.448987010020240e-02 4.410042119459461e-02 8.741628676993864e-02 4.036699788576556e-02
170830000.0000000000 1.139569766531272e-01 3.259317327575560e-02 1.114585068011296e-01 3.441304139595130e-02 -2.989419944376988e-01 3.677994993504890e-02 9.941560534787508e-03 5.986076029026404e-01
            1.114449553983381e-01 3.440963623469948e-02 1.139276751315592e-01 3.264019934745226e-02 9.936328417080543e-03 5.986251326216648e-01 -2.988549704626921e-01 3.674336137606933e-02
            -2.988321094146988e-01 3.676159296109694e-02 9.925285017838195e-03 5.986346196536270e-01 1.140901056981612e-01 2.846509133649871e-02 1.129235844195097e-01 3.230892891756947e-02
            9.843508339879931e-03 5.986421105863644e-01 -2.988626201846440e-01 3.671999519553273e-02 1.129490274679372e-01 3.239962046127329e-02 1.140540631011008e-01 2.850929065756635e-02
171662500.0000000000 1.272894745317257e-01 7.255582493670553e-03 1.259631330441246e-01 7.990719839093814e-03 -2.676445468020572e-01 1.346366688837858e-01 2.132169324877869e-01 5.575346860841087e-01
            1.260084951784878e-01 7.876928471309661e-03 1.272368962396400e-01 7.230952115018706e-03 2.132485318572709e-01 5.575013272279520e-01 -2.676803269138512e-01 1.346073486748559e-01
            -2.677097181003509e-01 1.346466318345789e-01 2.132261091429939e-01 5.574470528557682e-01 1.266748416763437e-01 2.597448773624096e-03 1.267255806989987e-01 5.398717992347542e-03
            2.131500228103209e-01 5.575510582456731e-01 -2.677328781614186e-01 1.346259073405329e-01 1.267644616991729e-01 5.311575520867724e-03 1.266631175113349e-01 2.645596660712885e-03
172495000.0000000000 1.211236814026770e-01 -2.060029034183251e-02 1.202105008017615e-01 -2.140094832266591e-02 -2.052356339580233e-01 2.183101610544894e-01 3.902661135907976e-01 4.522357013585284e-01
            1.201476980077699e-01 -2.142848704543546e-02 1.211254486662270e-01 -2.060421135688960e-02 3.901638623069918e-01 4.522050298791308e-01 -2.052429969539232e-01 2.182237686252091e-01
            -2.052758043639450e-01 2.182437671400601e-01 3.901236129520785e-01 4.522216522031091e-01 1.199668458618292e-01 -2.519834831780217e-02 1.197859220080605e-01 -2.411879075705774e-02
            3.901136565579123e-01 4.522220757268010e-01 -2.052444117790425e-01 2.183365156531941e-01 1.197123958938519e-01 -2.411496300534215e-02 1.200268180468809e-01 -2.513428369839446e-02
173327500.0000000000 9.805596466212887e-02 -3.816942240197510e-02 9.661127198198168e-02 -4.021621719653106e-02 -1.154819373493875e-01 2.762053678500082e-01 5.233046036850838e-01 2.938255755161942e-01
            9.669542643060292e-02 -4.023520119280292e-02 9.804787014464576e-02 -3.814448935143988e-02 5.232575483552467e-01 2.938530991075979e-01 -1.155266274594379e-01 2.763377243962967e-01
            -1.155996604956060e-01 2.763172952038068e-01 5.233314609551442e-01 2.937868002705651e-01 9.676098143165358e-02 -4.212087993608568e-02 9.515342717210572e-02 -4.225319354156924e-02
            5.233038971389284e-01 2.938486381424008e-01 -1.155736033851421e-01 2.762217305868038e-01 9.511633644873506e-02 -4.222858145329698e-02 9.662431372323894e-02 -4.212030409180410e-02
174160000.0000000000 6.840143469708976e-02 -3.616985579577764e-02 6.610121333848004e-02 -3.891419037068241e-02 -9.144198119031034e-03 2.974283360949638e-01 5.968633254934708e-01 9.690621295759877e-02
            6.617857297436944e-02 -3.888975082539850e-02 6.848636692495756e-02 -3.617029928577142e-02 5.967758584412673e-01 9.693442396530372e-02 -9.217032015552492e-03 2.974618085285772e-01
            -9.148891046303570e-03 2.974078334510901e-01 5.968720728475061e-01 9.685448207674642e-02 6.756208971389063e-02 -3.973821449152713e-02 6.392334792604544e-02 -3.968228613768924e-02
            5.969166400953010e-01 9.686921814426741e-02 -9.248330563646445e-03 2.973505945926720e-01 6.400411075498341e-02 -3.973027348297373e-02 6.760510777488052e-02 -3.973133731273985e-02
174992500.0000000000 4.713594175983450e-02 -1.447492084482864e-02 4.370517622925615e-02 -1.717966620606469e-02 9.648346077514677e-02 2.766844022322896e-01 5.976891512648269e-01 -1.175428356228154e-01
            4.367639717166613e-02 -1.718562027316051e-02 4.717185456879994e-02 -1.449394786866686e-02 5.976626965697855e-01 -1.175332218210209e-01 9.640321755661325e-02 2.766829406080450e-01
            9.652303344367688e-02 2.767376457899798e-01 5.976722210659989e-01 -1.175817777614048e-01 4.708963406068737e-02 -1.800600680880121e-02 4.199993814417206e-02 -1.660284303208346e-02
            5.977197422319861e-01 -1.174691699920654e-01 9.641023939934164e-02 2.766685360522017e-01 4.198851584314418e-02 -1.659535717463818e-02 4.703447171932996e-02 -1.797816680516866e-02
175825000.0000000000 4.589320613948152e-02 1.636603059375150e-02 4.187692531698544e-02 1.429534963405225e-02 1.835982770446407e-01 2.195607375514156e-01 5.206898536337842e-01 -3.210165815500077e-01
            4.176020139954988e-02 1.444635461064772e-02 4.582375338783080e-02 1.647775636132709e-02 5.206564347237782e-01 -3.209794771016191e-01 1.835999978343913e-01 2.195683560835409e-01
            1.836597160548820e-01 2.195379014669591e-01 5.206005102523787e-01 -3.210444176941224e-01 4.663238858360312e-02 1.215847176852141e-02 4.112619666181934e-02 1.578611885103843e-02
            5.206350798135759e-01 -3.210273610535254e-01 1.836750086173230e-01 2.195133094934830e-01 4.113394099664239e-02 1.579870491933274e-02 4.660590867437885e-02 1.215811792988516e-02
176657500.0000000000 6.545276762223401e-02 4.027167018231079e-02 6.151776384800305e-02 3.904559651661026e-02 2.417025124790811e-01 1.391544874857841e-01 3.746604340575587e-01 -4.830836306040174e-01
            6.141087689576111e-02 3.907987726264612e-02 6.533511942115022e-02 4.027898221878875e-02 3.746298022362730e-01 -4.831214527189153e-01 2.416148460671599e-01 1.391584150204072e-01
            2.416541122582120e-01 1.392575982230428e-01 3.746176234951197e-01 -4.831149523206052e-01 6.658693032432962e-02 3.478715476176990e-02 6.228757802314142e-02 4.039504763103213e-02
            3.746184195157300e-01 -4.831513943767832e-01 2.416988895157862e-01 1.391880045458256e-01 6.222998710375006e-02 4.046718207983956e-02 6.667120806907886e-02 3.487045282596557e-02
177490000.0000000000 9.568977834269053e-02 4.534333653579445e-02 9.242475425226783e-02 4.455699050503929e-02 2.686501451180387e-01 4.881565108073287e-02 1.821867100100714e-01 -5.810330758076495e-01
            9.237782428529091e-02 4.457224343247855e-02 9.567436989706504e-02 4.528590423598128e-02 1.821982063867594e-01 -5.810873144076663e-01 2.686029822380294e-01 4.874359515618418e-02
            2.686180604727216e-01 4.875888919340025e-02 1.821611483609582e-01 -5.810910826340525e-01 9.638623039872414e-02 3.874778299314460e-02 9.410974236069632e-02 4.499694072819928e-02
            1.821171089124809e-01 -5.810158645496757e-01 2.685974201843128e-01 4.874227459598735e-02 9.418442210636618e-02 4.496208727449162e-02 9.640645575466915e-02 3.872383146710229e-02
178322500.0000000000 1.216333596742972e-01 3.003361129306265e-02 1.192841587673409e-01 2.888847206113336e-02 2.662550860516877e-01 -4.298500672633189e-02 -2.889774953252564e-02 -6.053246439387161e-01
            1.192901517456627e-01 2.889295594907194e-02 1.216141603680653e-01 2.996469932593674e-02 -2.882265385562408e-02 -6.052433270289800e-01 2.663008847520090e-01 -4.295518948553100e-02
            2.662510046687002e-01 -4.295228759986443e-02 -2.885097159126720e-02 -6.052983653189297e-01 1.211952238314834e-01 2.264920503001160e-02 1.211881257431555e-01 2.803058278745569e-02
            -2.883139182775085e-02 -6.053332069643603e-01 2.662458245210523e-01 -4.299323981408885e-02 1.211601231460572e-01 2.796333004444920e-02 1.211356381048193e-01 2.263845287819006e-02
179155000.0000000000 1.318164187325490e-01 2.033838392556102e-03 1.301250076194291e-01 -6.581552546602214e-05 2.355176042308654e-01 -1.296638741012746e-01 -2.327014979779742e-01 -5.577505009674675e-01
            1.301845412324415e-01 -3.118931127681419e-05 1.317613407634306e-01 2.135140113961918e-03 -2.326621891540205e-01 -5.577448447852187e-01 2.356127615442591e-01 -1.296455345731351e-01
            2.355899775583022e-01 -1.297024203315870e-01 -2.326733872323959e-01 -5.576959786509675e-01 1.302416695968206e-01 -5.145783294540995e-03 1.313635713159813e-01 -2.091449230969722e-03
            -2.327607185900910e-01 -5.577009336103458e-01 2.354878473655924e-01 -1.296194087364058e-01 1.313144986106236e-01 -2.061643782870483e-03 1.302495820814050e-01 -5.178516744528894e-03
179987500.0000000000 1.221779169917458e-01 -2.589846793048785e-02 1.205497149567278e-01 -2.963286254333063e-02 1.766591753212391e-01 -2.031398575786788e-01 -4.086483499070042e-01 -4.462253219083142e-01
            1.204625304604756e-01 -2.964814538901228e-02 1.222775897234540e-01 -2.590563684042517e-02 -4.085361151922445e-01 -4.462670187818609e-01 1.767311929339740e-01 -2.031748312653487e-01
            1.767228041088863e-01 -2.031403927530023e-01 -4.085436239908846e-01 -4.462942383966669e-01 1.198878588710984e-01 -3.236446300948836e-02 1.203188310373448e-01 -3.209835290045409e-02
            -4.085710895684963e-01 -4.461662182733852e-01 1.766531223298300e-01 -2.032086375532813e-01 1.203533826733941e-01 -3.208857856889041e-02 1.198577391090084e-01 -3.237291685412261e-02
180820000.0000000000 9.697959572115973e-02 -4.153673292672463e-02 9.414056580888670e-02 -4.688547356914721e-02 9.358992225550430e-02 -2.524294343617277e-01 -5.388748904190138e-01 -2.819776010741640e-01
            9.415373905503391e-02 -4.684926043456867e-02 9.699840311704470e-02 -4.159247574278427e-02 -5.388477769508274e-01 -2.819893313394790e-01 9.354648432371253e-02 -2.523863943473881e-01
            9.355443866738776e-02 -2.523928948735276e-01 -5.388843176909314e-01 -2.820334791566165e-01 9.461921262113311e-02 -4.698576978318848e-02 9.259955665871020e-02 -4.864278240752545e-02
            -5.387962421170510e-01 -2.820526573935591e-01 9.351719618148630e-02 -2.524054432512642e-01 9.260202114038636e-02 -4.878002074569562e-02 9.464338292080489e-02 -4.686191340174268e-02
181652500.0000000000 6.740912052810778e-02 -3.712279398798932e-02 6.250290554013889e-02 -4.331328280925719e-02 -3.441966863770107e-03 -2.671889991376606e-01 -6.075184333400959e-01 -8.023571681450042e-02
            6.255143683030305e-02 -4.343346797711819e-02 6.732227929033836e-02 -3.706610803112971e-02 -6.074991159019250e-01 -8.022457853955764e-02 -3.474878934490586e-03 -2.672311376122215e-01
            -3.377944128834726e-03 -2.671617879461611e-01 -6.075528358874747e-01 -8.022243096322289e-02 6.592752150855936e-02 -4.150863390072621e-02 6.042460003707436e-02 -4.396571729420871e-02
            -6.074778476856662e-01 -8.016162568400141e-02 -3.321085294690177e-03 -2.672452608966805e-01 6.045053048985684e-02 -4.397573030481190e-02 6.596497788977110e-02 -4.169019420298437e-02
182485000.0000000000 4.800074292332825e-02 -1.429845715360124e-02 4.063696109129281e-02 -2.028521683748136e-02 -9.766234570989707e-02 -2.438094103520630e-01 -6.017224274888530e-01 1.370649839128865e-01
            4.067634097184226e-02 -2.033378740069372e-02 4.804427251158985e-02 -1.428708190532805e-02 -6.016272875552996e-01 1.370763543348504e-01 -9.767497676921348e-02 -2.438877683200370e-01
            -9.771814683810374e-02 -2.437943997693010e-01 -6.017190476364772e-01 1.371161140370029e-01 4.798586639089373e-02 -1.880039737756897e-02 3.896754792760856e-02 -1.947853945146070e-02
            -6.016429428259977e-01 1.370054404670998e-01 -9.762709615485196e-02 -2.437435060193083e-01 3.898012655080658e-02 -1.956040784456748e-02 4.798720853301631e-02 -1.875591122190641e-02
183317500.0000000000 4.907862340846033e-02 1.538589147848554e-02 3.926721831055932e-02 1.079707515885558e-02 -1.732486912802090e-01 -1.884897972505967e-01 -5.174215278544174e-01 3.404256301434122e-01
            3.931071552604738e-02 1.075161218630017e-02 4.916367255297616e-02 1.545201653262547e-02 -5.174043384293517e-01 3.405210428627733e-01 -1.731818550164711e-01 -1.885107129393429e-01
            -1.732804299881611e-01 -1.884936590818809e-01 -5.173821471742038e-01 3.404858148564451e-01 5.034977551997664e-02 9.962804852811185e-03 3.892138607956946e-02 1.230076900808573e-02
            -5.174086277653750e-01 3.405421558296010e-01 -1.732706111068979e-01 -1.885230161870302e-01 3.887630628498291e-02 1.237811926626198e-02 5.031712771999002e-02 9.863782318559283e-03
184150000.0000000000 6.954251544844695e-02 3.611853194488460e-02 5.811182041291935e-02 3.399980518246871e-02 -2.215216359617100e-01 -1.139834969666210e-01 -3.651063847270027e-01 4.998836099894554e-01
            5.817986992334673e-02 3.401305772079524e-02 6.957108685852079e-02 3.612444882890142e-02 -3.651200562086674e-01 4.999162375954457e-01 -2.215009730703453e-01 -1.139676632598285e-01
            -2.215732080009058e-01 -1.139392239120770e-01 -3.651586740115926e-01 4.998882231741518e-01 7.129777988085721e-02 2.888758206378490e-02 5.914009274934469e-02 3.529852092269760e-02
            -3.651616581780901e-01 4.998864730420007e-01 -2.215051495186858e-01 -1.139785667162803e-01 5.913057295418257e-02 3.528839421083575e-02 7.125120210434154e-02 2.889141276886854e-02
184982500.0000000000 9.795574423555632e-02 3.750276486380402e-02 8.600717002221037e-02 3.870214967811578e-02 -2.415672955674936e-01 -3.191573060641913e-02 -1.680892441782027e-01 5.936235186636805e-01
            8.598925064425049e-02 3.879130839777026e-02 9.798631341718120e-02 3.753777903858848e-02 -1.680429773735236e-01 5.936528440915846e-01 -2.415472304811692e-01 -3.186873190866504e-02
            -2.415478999721267e-01 -3.185858543556806e-02 -1.681189553368610e-01 5.935889086571599e-01 9.891147947706197e-02 2.863721308672601e-02 8.800310849673321e-02 3.867600096407744e-02
            -1.680850245409816e-01 5.935091097024502e-01 -2.415756785015936e-01 -3.186318564808579e-02 8.804424641166939e-02 3.869188321337787e-02 9.885360093152443e-02 2.859132301596620e-02
185815000.0000000000 1.197695857456468e-01 2.009038971283875e-02 1.086379830113470e-01 2.452339197612636e-02 -2.352285072722624e-01 5.023671342231342e-02 4.634533032335952e-02 6.129629296605142e-01
            1.087364164137039e-01 2.444734985264894e-02 1.196810007988064e-01 2.005432644649419e-02 4.621118645328737e-02 6.130235179380128e-01 -2.352735964338942e-01 5.019063441292169e-02
            -2.351916308829332e-01 5.034080198017071e-02 4.626365043619766e-02 6.130089940859385e-01 1.190161574467194e-01 1.014800527416108e-02 1.107228309991642e-01 2.281854012844307e-02
            4.630206334435094e-02 6.129714540876913e-01 -2.352287134597167e-01 5.030103972386196e-02 1.107275606610036e-01 2.280565736445734e-02 1.190332621443901e-01 1.006111660388096e-02
186647500.0000000000 1.246690942030285e-01 -7.346851759487380e-03 1.158255092123328e-01 -2.875351860004066e-04 -2.033011635436293e-01 1.266493106367766e-01 2.522859669418618e-01 5.595912545705122e-01
            1.158289199372324e-01 -2.018955459778795e-04 1.246247442403875e-01 -7.344942665693627e-03 2.523469897502741e-01 5.595768044170001e-01 -2.032965696997160e-01 1.266374875093858e-01
            -2.033200540419960e-01 1.266343108214079e-01 2.523784641157346e-01 5.596123896915467e-01 1.221818712300676e-01 -1.723032441800484e-02 1.167282988773307e-01 -3.409092584389815e-03
            2.523303689713550e-01 5.596040462236680e-01 -2.032779557298217e-01 1.265731454273590e-01 1.167350941327348e-01 -3.339080655572546e-03 1.221352341485621e-01 -1.722392281996465e-02
187480000.0000000000 1.103629555520751e-01 -3.177506279444551e-02 1.045894541463559e-01 -2.301627431364021e-02 -1.462851965802883e-01 1.890527232811615e-01 4.289368189603578e-01 4.411130782717890e-01
            1.046855279725088e-01 -2.306863605139518e-02 1.103302110049999e-01 -3.174961570896610e-02 4.288846076000745e-01 4.411671689645728e-01 -1.461906001332779e-01 1.891306779585924e-01
            -1.462327460262242e-01 1.890865053649262e-01 4.288519821062955e-01 4.411367957399814e-01 1.065566397363137e-01 -4.044893041852896e-02 1.036352534167192e-01 -2.663222147839216e-02
            4.288566071369595e-01 4.410594962423656e-01 -1.463240802720620e-01 1.891017047074523e-01 1.036820080927240e-01 -2.657921765483763e-02 1.066329891992983e-01 -4.045509379962896e-02
188312500.0000000000 8.285061058271802e-02 -4.133576223984371e-02 8.060912764754344e-02 -3.230285297848159e-02 -6.890184914271211e-02 2.275897534533166e-01 5.569867123945401e-01 2.690176299737033e-01
            8.067021792213203e-02 -3.219961260360554e-02 8.285858134528576e-02 -4.138459667788096e-02 5.571038588663243e-01 2.690302649163966e-01 -6.891779240798368e-02 2.275554261573489e-01
            -6.890977713786434e-02 2.275491614113045e-01 5.570456422382484e-01 2.690819087668614e-01 7.882597972521106e-02 -4.845930593622828e-02 7.791408571179900e-02 -3.495204395174097e-02
            5.570073222867934e-01 2.690417993255036e-01 -6.898585019946891e-02 2.275828878922121e-01 7.792165140509552e-02 -3.497950722429879e-02 7.892295457704515e-02 -4.848038291054546e-02
189145000.0000000000 5.476177024644806e-02 -3.037550597398904e-02 5.610116749395715e-02 -2.226301492940751e-02 1.757954117292022e-02 2.337134054648711e-01 6.196890733075144e-01 6.004810805693579e-02
            5.602590538740591e-02 -2.222638276811296e-02 5.483151171483893e-02 -3.034097482780912e-02 6.196925389387766e-01 5.996884348872898e-02 1.758003260951448e-02 2.337207740415315e-01
            1.752232231083912e-02 2.337142737851555e-01 6.197527297420458e-01 5.999378744713076e-02 5.183611115011243e-02 -3.625704113179233e-02 5.241449897003983e-02 -2.312796524725841e-02
            6.197411734492609e-01 6.007748311947668e-02 1.759276669428335e-02 2.337072337890324e-01 5.233433830651347e-02 -2.319163780649054e-02 5.185210972502763e-02 -3.630151244926726e-02
189977500.0000000000 4.053054560825595e-02 -3.181334054375468e-03 4.461354510031623e-02 2.832019585742869e-03 9.771558590979573e-02 2.067851500101205e-01 6.044212297006581e-01 -1.610006014759891e-01
            4.455746574075480e-02 2.890588134897631e-03 4.054837121722314e-02 -3.188290430454116e-03 6.044492254767094e-01 -1.610346083567598e-01 9.773933135751707e-02 2.067308263569662e-01
            9.768962917078571e-02 2.068186755400653e-01 6.044277920471424e-01 -1.609273169806942e-01 3.932083180914456e-02 -8.931551939271323e-03 4.138858707644705e-02 3.831403764428584e-03
            6.044506923991204e-01 -1.609779852977677e-01 9.776879896869775e-02 2.067917724737337e-01 4.129463961716138e-02 3.834473695785492e-03 3.936192998505216e-02 -8.945803566962276e-03
190810000.0000000000 4.753613318336472e-02 2.669973060418240e-02 5.338374263456083e-02 2.994602982924004e-02 1.588993554956351e-01 1.545192354305276e-01 5.100385378205285e-01 -3.630351325690818e-01
            5.343154491247182e-02 2.987896240742997e-02 4.753241289108560e-02 2.667714886131404e-02 5.100025997597109e-01 -3.630132180186745e-01 1.589381451247019e-01 1.544453745597437e-01
            1.589332924155523e-01 1.544537891238391e-01 5.100706175947245e-01 -3.630697705035135e-01 4.796075216803099e-02 1.960770964951832e-02 5.188444253427101e-02 3.213598721431939e-02
            5.101098310982517e-01 -3.630438708634025e-01 1.589705799154411e-01 1.545517962463671e-01 5.186287037684717e-02 3.212367107617608e-02 4.805901738268088e-02 1.963401684453702e-02
191642500.0000000000 7.175486448246618e-02 4.435577017918409e-02 7.843252400961741e-02 4.442681302084898e-02 1.961076814120894e-01 8.873039627928467e-02 3.501513597295627e-01 -5.167136306943896e-01
            7.855927311063311e-02 4.440419760160572e-02 7.176236585649290e-02 4.439014768966545e-02 3.501437336088361e-01 -5.167794749850172e-01 1.960922822506271e-01 8.870349503640619e-02
            1.960735659256793e-01 8.873793255917216e-02 3.501224555785582e-01 -5.167793677785688e-01 7.276944159227348e-02 3.492504104302925e-02 7.897613399418954e-02 4.640126941506956e-02
            3.501376729002630e-01 -5.167480769519264e-01 1.960619112470965e-01 8.880041209714200e-02 7.891585675196983e-02 4.643698083639704e-02 7.280483086513419e-02 3.497312975023708e-02
192475000.0000000000 1.006106045546535e-01 4.230050067942077e-02 1.070341766229343e-01 3.920433569149671e-02 2.099575601838489e-01 1.795121775082233e-02 1.490597779063958e-01 -6.032005378689883e-01
            1.070828037962714e-01 3.922894323633745e-02 1.006856135840305e-01 4.226552878901348e-02 1.490809253064665e-01 -6.031661502670435e-01 2.099955017276925e-01 1.810592819394609e-02
            2.099683224628691e-01 1.799466956357284e-02 1.490569449208745e-01 -6.032200363476211e-01 1.005622724837611e-01 3.026612596307398e-02 1.089724824131759e-01 3.955255771516324e-02
            1.490288044768183e-01 -6.031490405998542e-01 2.099915545079888e-01 1.798687635386064e-02 1.089371179327996e-01 3.946776017635126e-02 1.006353322761114e-01 3.027056593509005e-02
193307500.0000000000 1.205573092835191e-01 2.287024050715390e-02 1.257054527828723e-01 1.699549241561541e-02 2.020576550425225e-01 -5.244782589048286e-02 -6.621831831238954e-02 -6.154377470374168e-01
            1.257179147193120e-01 1.703101343154887e-02 1.206067936551088e-01 2.286808630335511e-02 -6.613738147412107e-02 -6.154661578894006e-01 2.019920546261228e-01 -5.253768109293306e-02
            2.019947172166102e-01 -5.249574059119422e-02 -6.620901742230674e-02 -6.154526341518328e-01 1.181028316600442e-01 9.224671524093942e-03 1.277326638576450e-01 1.505352733118724e-02
            -6.617834521769379e-02 -6.153534303840503e-01 2.020188833339786e-01 -5.251516547757477e-02 1.277829867194613e-01 1.506444843143486e-02 1.180515583375933e-01 9.205146154737810e-03
194140000.0000000000 1.230453169387049e-01 -3.969297453111901e-03 1.263585738820468e-01 -1.180959557369877e-02 1.716571158905628e-01 -1.181214432630214e-01 -2.715062574261251e-01 -5.558310514640760e-01
            1.263598322467293e-01 -1.181189941551739e-02 1.230608885310123e-01 -3.959154047828792e-03 -2.714854561161764e-01 -5.558380970955779e-01 1.717574397387599e-01 -1.179594128643620e-01
            1.717747515186751e-01 -1.180670101068431e-01 -2.714556026976775e-01 -5.558702318245474e-01 1.175578967477938e-01 -1.779686396439454e-02 1.267899287685480e-01 -1.602002074246255e-02
            -2.714014805058145e-01 -5.558477399161292e-01 1.718211758910638e-01 -1.181946861840827e-01 1.268381020442844e-01 -1.599398069995920e-02 1.175517137389508e-01 -1.790006068634666e-02
194972500.0000000000 1.076945773531920e-01 -2.570412694589544e-02 1.086278199428809e-01 -3.470513886756784e-02 1.191873265697584e-01 -1.709047486688418e-01 -4.458888847198731e-01 -4.315510108607753e-01
            1.086496524427443e-01 -3.474197496731744e-02 1.076636724927751e-01 -2.563409954226039e-02 -4.458618283895733e-01 -4.315316250690348e-01 1.191696518668650e-01 -1.708166810235316e-01
            1.190919811110311e-01 -1.708808776802367e-01 -4.459307357401449e-01 -4.316755615555303e-01 9.935890693134478e-02 -3.820493784535726e-02 1.063286452076888e-01 -3.979414181047000e-02
            -4.459360644330814e-01 -4.315618564377388e-01 1.191486430096680e-01 -1.708534873002393e-01 1.063156196765484e-01 -3.984783232610468e-02 9.932728517900626e-02 -3.821003184805764e-02
195805000.0000000000 8.154788683775653e-02 -3.152784926432883e-02 8.035530909255227e-02 -4.097922960933623e-02 4.909871665813526e-02 -2.009209757685830e-01 -5.702725338746738e-01 -2.538905843256590e-01
            8.043619979911894e-02 -4.094811614475342e-02 8.146852453098079e-02 -3.160626686271251e-02 -5.702933389284256e-01 -2.539307171275865e-01 4.915931883428442e-02 -2.009009819672976e-01
            4.912726626906343e-02 -2.008918805775798e-01 -5.703251811095083e-01 -2.538882904093029e-01 7.178035900024189e-02 -4.161344908987669e-02 7.470195598285453e-02 -4.527873208203772e-02
            -5.703072915974724e-01 -2.538920891044513e-01 4.909990429746006e-02 -2.008754372283326e-01 7.477039243244547e-02 -4.521543618979970e-02 7.160750744248624e-02 -4.168103835102420e-02
196637500.0000000000 5.773065876550277e-02 -1.806310092906155e-02 5.468257202324685e-02 -2.721056512332067e-02 -2.692531412313225e-02 -2.012267570228886e-01 -6.268963052521936e-01 -4.066894992380776e-02
            5.474028238679896e-02 -2.711683303540940e-02 5.776144040793724e-02 -1.799262993130774e-02 -6.269393451872239e-01 -4.060344684116578e-02 -2.694036798871836e-02 -2.011614680593224e-01
            -2.697252069473323e-02 -2.012085186417433e-01 -6.269313794297490e-01 -4.073989655578188e-02 4.795848630899260e-02 -2.539918475512977e-02 4.669949613462827e-02 -2.846487682212684e-02
            -6.268768736902632e-01 -4.068123771005742e-02 -2.698169000677919e-02 -2.012095334249081e-01 4.666360977776882e-02 -2.851850147670087e-02 4.797659419293655e-02 -2.530308305840116e-02
197470000.0000000000 4.940035195623052e-02 8.798044134135929e-03 4.498274621619554e-02 3.471873030800741e-04 -9.460784724415956e-02 -1.725990178190722e-01 -6.037827897214854e-01 1.820211962248289e-01
            4.492345654845693e-02 3.310448379635501e-04 4.945213864345905e-02 8.639860073357465e-03 -6.038238661005739e-01 1.820421226408516e-01 -9.456578545352654e-02 -1.726232580644742e-01
            -9.462037671391756e-02 -1.726091535808473e-01 -6.037612025752060e-01 1.819626230554650e-01 4.099991357127804e-02 3.181303128587258e-03 3.645439690560067e-02 2.725244893819659e-03
            -6.037822795551138e-01 1.819599119638095e-01 -9.466414015634075e-02 -1.726076123201430e-01 3.646543567040990e-02 2.772837367956727e-03 4.108803830571584e-02 3.250818688939948e-03
198302500.0000000000 6.151250956417161e-02 3.441449093921427e-02 5.622860296835742e-02 2.674602480881872e-02 -1.436413204825016e-01 -1.241445648413786e-01 -5.014404580444344e-01 3.819450805641054e-01
            5.629807176171767e-02 2.679122266606698e-02 6.149757613021847e-02 3.434964099659634e-02 -5.015161433841153e-01 3.820368116415496e-01 -1.435959019518355e-01 -1.242063239526510e-01
            -1.435775418245872e-01 -1.241505897299051e-01 -5.015435970352913e-01 3.819983837690687e-01 5.507275569017880e-02 2.923148271418326e-02 4.931866966101368e-02 3.279838649490020e-02
            -5.014406677140727e-01 3.819868632077146e-01 -1.436263567414307e-01 -1.241263611502074e-01 4.933535776776771e-02 3.266876619702271e-02 5.506691568358128e-02 2.917517586636392e-02
199135000.0000000000 8.752635510517867e-02 4.563822401134882e-02 8.203260454854677e-02 3.852830534365903e-02 -1.713631186824483e-01 -6.621552176665425e-02 -3.356381153036043e-01 5.308735549359990e-01
            8.198597793209043e-02 3.858943905122407e-02 8.759369190239065e-02 4.559311362045791e-02 -3.356893098675144e-01 5.308364124867757e-01 -1.713779152706244e-01 -6.626501022829971e-02
            -1.713785551698073e-01 -6.624955239119049e-02 -3.356476495221128e-01 5.308062591674955e-01 8.260872910055653e-02 3.934835157714756e-02 7.818577311585716e-02 4.665641956642369e-02
            -3.356322744478513e-01 5.308081375706191e-01 -1.713285552763774e-01 -6.621247130170635e-02 7.820102381555769e-02 4.668859871691451e-02 8.255429013389555e-02 3.922790410900494e-02
199967500.0000000000 1.144586463843329e-01 3.720572761906630e-02 1.086527958548994e-01 3.028904907047966e-02 -1.796901719079710e-01 -5.793794196895068e-03 -1.312640418602214e-01 6.110299496547523e-01
            1.086147331418198e-01 3.033355064411949e-02 1.144143821660606e-01 3.722151288092946e-02 -1.312686623937625e-01 6.110573959460753e-01 -1.797514080975318e-01 -5.786120168876823e-03
            -1.797500174021436e-01 -5.724424493267370e-03 -1.312184072429123e-01 6.109783489780968e-01 1.093310561147323e-01 2.912356912112669e-02 1.082801613354702e-01 3.886018595299169e-02
            -1.312267935284858e-01 6.110818748037794e-01 -1.796640115420245e-01 -5.712673422851484e-03 1.083640372253988e-01 3.876772086346125e-02 1.092874201539027e-01 2.911119611957782e-02
200800000.0000000000 1.296073094312261e-01 1.392097922627480e-02 1.233304003681973e-01 6.861686256939923e-03 -1.698585322967487e-01 5.403565496898684e-02 8.509255493206901e-02 6.170688559272289e-01
            1.233043113562093e-01 6.884406574958587e-03 1.295205987644590e-01 1.398416108477206e-02 8.509294915244855e-02 6.168972926462531e-01 -1.699525369716952e-01 5.403511864848314e-02
            -1.699375181162851e-01 5.397842181705900e-02 8.508222408535353e-02 6.170922402862066e-01 1.229229195861516e-01 4.400953534563366e-03 1.261116449371594e-01 1.394562045292950e-02
            8.512381723477253e-02 6.171057888994201e-01 -1.699774873439293e-01 5.401236767238338e-02 1.261135337905782e-01 1.399448400558435e-02 1.228622939509989e-01 4.416540596980701e-03
201632500.0000000000 1.264840745791895e-01 -1.336874606032239e-02 1.194230384878805e-01 -2.063865318613224e-02 -1.408793376689027e-01 1.090712448972646e-01 2.899167225319813e-01 5.513595562980671e-01
            1.193892808743170e-01 -2.062224710983971e-02 1.265284472908702e-01 -1.346321969021156e-02 2.898395845389540e-01 5.513700868510195e-01 -1.409168898242552e-01 1.090799902939437e-01
            -1.408304137285953e-01 1.091034076158616e-01 2.899347018205709e-01 5.514054741463132e-01 1.174986128895548e-01 -2.291204042343633e-02 1.239043343535427e-01 -1.605924818972838e-02
            2.898907695165365e-01 5.513591285347330e-01 -1.408590656953546e-01 1.090309187639410e-01 1.239311092653909e-01 -1.601092965753688e-02 1.175111163175329e-01 -2.302446653499621e-02
202465000.0000000000 1.066327925119294e-01 -3.246494733472072e-02 9.834559341082452e-02 -3.954308508439523e-02 -9.269279894224090e-02 1.518896974475145e-01 4.623188506388282e-01 4.210537875070646e-01
            9.842178211885577e-02 -3.955588493340833e-02 1.066299138463944e-01 -3.243358278895677e-02 4.623043795618332e-01 4.210863973979162e-01 -9.266073315692251e-02 1.518702211680349e-01
            -9.265650358995663e-02 1.518506541576072e-01 4.623406901795398e-01 4.211342105883867e-01 9.547216217894472e-02 -4.057623007473636e-02 1.030266391588021e-01 -3.767021285910799e-02
            4.623513886896616e-01 4.210598686081347e-01 -9.274347795093016e-02 1.518735785177750e-01 1.030512950027384e-01 -3.765564105408590e-02 9.541533241072200e-02 -4.049995777532775e-02
203297500.0000000000 7.893451111802892e-02 -3.393279884106659e-02 6.939102856024879e-02 -4.042536569100399e-02 -3.039976185633962e-02 1.732715993135755e-01 5.824497890231632e-01 2.377441442309118e-01
            6.939143856918216e-02 -4.041407400716680e-02 7.900051827757713e-02 -3.389815645909543e-02 5.824298578836353e-01 2.377234565897061e-01 -3.044494379997727e-02 1.733661401377718e-01
            -3.037391651255818e-02 1.733529596397148e-01 5.824601590029218e-01 2.377327138409374e-01 6.657755950188349e-02 -3.942908883232485e-02 7.283874671763521e-02 -4.050576181111323e-02
            5.825625082850683e-01 2.377553308442875e-01 -3.039518692268009e-02 1.733073155171682e-01 7.283278687428145e-02 -4.053539994289878e-02 6.644088283658806e-02 -3.937086340982898e-02
204130000.0000000000 5.703218778468484e-02 -1.626446429453568e-02 4.644694217301118e-02 -2.168495424849557e-02 3.467017496579650e-02 1.680807737038275e-01 6.323026836889576e-01 2.045235242609707e-02
            4.659316543286753e-02 -2.163321209549960e-02 5.710112009940383e-02 -1.631980625756924e-02 6.323464249308859e-01 2.046608482083464e-02 3.463401800483647e-02 1.679917000220140e-01
            3.476273905678916e-02 1.679518249836924e-01 6.323236268286296e-01 2.045910485821141e-02 4.509709804968973e-02 -1.880159073368383e-02 4.831944362680556e-02 -2.248599707829778e-02
            6.323172189435620e-01 2.043190988659037e-02 3.467944543825997e-02 1.680870368988916e-01 4.824130742350068e-02 -2.241044649801810e-02 4.512252959717834e-02 -1.875121518458665e-02
204962500.0000000000 5.293413605325760e-02 1.165332102053548e-02 4.177161184749979e-02 7.960670605928689e-03 8.954204306547019e-02 1.388495721360077e-01 6.009010740348771e-01 -2.028489281824069e-01
            4.184730682445717e-02 7.855173671312131e-03 5.293683027893295e-02 1.161364816333561e-02 6.009782164738506e-01 -2.028910204492634e-01 8.959537776131071e-02 1.388686276139394e-01
            8.953665964475052e-02 1.387733531399215e-01 6.009052672412251e-01 -2.028757634489046e-01 4.275664751435518e-02 1.135741900248976e-02 4.209717660071339e-02 7.656993207649275e-03
            6.009286421728948e-01 -2.029413832962777e-01 8.956588548941187e-02 1.388673791158073e-01 4.207307357520002e-02 7.561203699147045e-03 4.272039220214639e-02 1.133960947691755e-02
205795000.0000000000 6.871230105226214e-02 3.496399423686419e-02 5.780165589763310e-02 3.311493825350723e-02 1.265479428749076e-01 9.491559087008887e-02 4.910102652398174e-01 -3.999574182027884e-01
            5.783609286358075e-02 3.299057058786243e-02 6.873036098893824e-02 3.504654558376319e-02 4.909594157552625e-01 -3.999231719379852e-01 1.265994559731910e-01 9.491367850551762e-02
            1.265458575852081e-01 9.491549775557330e-02 4.909866935678677e-01 -3.998614562324590e-01 6.117841425580414e-02 3.561066691691740e-02 5.761786751400783e-02 3.379401552947060e-02
            4.909991943322637e-01 -3.998513937576095e-01 1.265636610285616e-01 9.492746680018266e-02 5.764454125646358e-02 3.375123991570433e-02 6.117311307593436e-02 3.562787521484347e-02
206627500.0000000000 9.592017932692233e-02 4.172492098874096e-02 8.607203993330489e-02 4.110114238822526e-02 1.455149609573810e-01 4.555629310275244e-02 3.199126111394481e-01 -5.430642708590744e-01
            8.604120723282008e-02 4.102438477651787e-02 9.593696919954763e-02 4.173504029544182e-02 3.198574415632619e-01 -5.430744048948430e-01 1.455423183769013e-01 4.546733105631137e-02
            1.455790951210155e-01 4.544185139480861e-02 3.198472383478187e-01 -5.431181542162756e-01 9.066310381300950e-02 4.170005690574308e-02 8.610090333424596e-02 4.282343317950394e-02
            3.199122409859452e-01 -5.431618705105314e-01 1.455219191038488e-01 4.552388668831407e-02 8.605378387212620e-02 4.284896243281963e-02 9.065792295072708e-02 4.171368957462742e-02
207460000.0000000000 1.206791293269864e-01 2.900349748834476e-02 1.121713369193477e-01 2.900202677054785e-02 1.491665139463136e-01 -4.672253674536421e-03 1.129723154007212e-01 -6.169850517808330e-01
            1.121992966181161e-01 2.900150912830502e-02 1.206576667273757e-01 2.912787538437953e-02 1.129343653861766e-01 -6.169269324975895e-01 1.491844407249313e-01 -4.680456621913678e-03
            1.491022266895450e-01 -4.670000524830895e-03 1.130626669230954e-01 -6.168991435654876e-01 1.165694443388529e-01 2.761737589055850e-02 1.130711316889959e-01 3.139669504288077e-02
            1.129643686987717e-01 -6.169306376570184e-01 1.491431370574181e-01 -4.788513250118182e-03 1.131135948279717e-01 3.134801521060411e-02 1.165977203212442e-01 2.755090423825601e-02
208292500.0000000000 1.314010024922479e-01 3.620891416724318e-03 1.242050705325608e-01 3.250802749362658e-03 1.380257153774544e-01 -5.382581594195698e-02 -1.038857212120626e-01 -6.167444108719589e-01
            1.243315475785552e-01 3.295059537252204e-03 1.313458239102124e-01 3.670765932954814e-03 -1.038987797816122e-01 -6.167492160176660e-01 1.381043075701319e-01 -5.382847940341011e-02
            1.380040401882857e-01 -5.377832856509657e-02 -1.038348056922875e-01 -6.167735353562959e-01 1.273229872336248e-01 7.571414974264005e-04 1.262754893274806e-01 5.520906419890754e-03
            -1.039223709204713e-01 -6.167473111495299e-01 1.381310957531876e-01 -5.382191431058254e-02 1.263159672119191e-01 5.524273985181136e-03 1.273591387465470e-01 8.152843378551707e-04
209125000.0000000000 1.235149581162617e-01 -2.289928250364920e-02 1.171037845318878e-01 -2.427334849420321e-02 1.108485734961012e-01 -9.839332165634360e-02 -3.077229875499009e-01 -5.450903658454953e-01
            1.171658711409886e-01 -2.429817594373276e-02 1.234527622698228e-01 -2.287236655040854e-02 -3.076483565357965e-01 -5.451253482570646e-01 1.108965199186939e-01 -9.844628298901613e-02
            1.109240425183627e-01 -9.844900602933780e-02 -3.077222287950219e-01 -5.451152177294306e-01 1.186722242113767e-01 -2.651613065095478e-02 1.200192860278226e-01 -2.256996572545225e-02
            -3.076634636598478e-01 -5.451320677170061e-01 1.108513831119666e-01 -9.839431476963013e-02 1.201350482908086e-01 -2.264113867737286e-02 1.187030323820701e-01 -2.656432911047706e-02
209957500.0000000000 1.001949865079306e-01 -3.852691278532745e-02 9.373859041758176e-02 -4.116739505805226e-02 6.751376586002104e-02 -1.315021167595229e-01 -4.773810193549823e-01 -4.088987378286706e-01
            9.365252279213296e-02 -4.118959838407404e-02 1.001763467449602e-01 -3.858578662987601e-02 -4.773864397607978e-01 -4.090147164890031e-01 6.752653393701372e-02 -1.314300246782995e-01
            6.754749794008091e-02 -1.314982147173285e-01 -4.774170334721380e-01 -4.090071124015413e-01 9.450938045209994e-02 -4.183104936107646e-02 9.718630510058145e-02 -4.036901037628269e-02
            -4.774087442016992e-01 -4.090198952818427e-01 6.753771099530341e-02 -1.314976464963077e-01 9.718567468611362e-02 -4.028726542208802e-02 9.459788481014302e-02 -4.190263730185029e-02
210790000.0000000000 7.168673549063852e-02 -3.525352507110299e-02 6.437063346189140e-02 -3.889504619684197e-02 1.355293902612307e-02 -1.449508818764910e-01 -5.927069699866985e-01 -2.205468598597438e-01
            6.435992056650897e-02 -3.895374768551782e-02 7.174346183779515e-02 -3.519235227508587e-02 -5.926172070726389e-01 -2.206109532355599e-01 1.362443099771027e-02 -1.450326901876058e-01
            1.357600659480041e-02 -1.449300640517484e-01 -5.926786015606512e-01 -2.205104738618804e-01 6.592113923790002e-02 -3.760340409962109e-02 6.804523567615202e-02 -3.893197115042285e-02
            -5.926571321519126e-01 -2.205609280359703e-01 1.365008523871811e-02 -1.449675442580333e-01 6.797593089894946e-02 -3.892164712903359e-02 6.592876231952982e-02 -3.761512258971918e-02
211622500.0000000000 5.213628552970503e-02 -1.366518299234878e-02 4.324193276574609e-02 -1.750632719685921e-02 -4.019120088858028e-02 -1.351639132770591e-01 -6.354277668483089e-01 -2.220633543750997e-04
            4.326231813615922e-02 -1.751859185679730e-02 5.220047340691486e-02 -1.365800421234107e-02 -6.354705149096719e-01 -2.415173682330872e-04 -4.025603705593012e-02 -1.351168206961620e-01
            -4.024028679858475e-02 -1.351361616590964e-01 -6.354859660617348e-01 -2.115154274261100e-04 4.737317816116082e-02 -1.511043242092585e-02 4.702198108795986e-02 -1.852734905587627e-02
            -6.355377623481642e-01 -2.521026925214264e-04 -4.018000310279415e-02 -1.351860063766004e-01 4.701163385302119e-02 -1.849730670594994e-02 4.735017708383819e-02 -1.508376689962928e-02
212455000.0000000000 5.196642969904788e-02 1.548706819377202e-02 4.155495491424800e-02 1.248051617182527e-02 -8.266264290534885e-02 -1.061396534738218e-01 -5.961531981424940e-01 2.227714362390438e-01
            4.152939521240848e-02 1.244028654062457e-02 5.193033911879463e-02 1.549539742861107e-02 -5.960974015685174e-01 2.227883996581711e-01 -8.265516089598422e-02 -1.061966012190285e-01
            -8.266230147281747e-02 -1.061753842879523e-01 -5.960922558878846e-01 2.227385017824544e-01 4.886590511953695e-02 1.421455203919660e-02 4.529807769589921e-02 1.053948475407024e-02
            -5.961528058773964e-01 2.227733522707814e-01 -8.264928407216442e-02 -1.061982467644391e-01 4.537316155215281e-02 1.049842262779086e-02 4.879054572067235e-02 1.427249923543720e-02
213287500.0000000000 7.109633126021132e-02 3.728974481037030e-02 5.982764708389989e-02 3.578141451109502e-02 -1.086631216580332e-01 -6.734617369253248e-02 -4.793384924307433e-01 4.161734447936911e-01
            5.984236639190892e-02 3.581387467007683e-02 7.114970915042633e-02 3.723848992831586e-02 -4.793975567456923e-01 4.161772307077000e-01 -1.086007851093523e-01 -6.733044930481737e-02
            -1.086375495395880e-01 -6.726332100158255e-02 -4.793812310467134e-01 4.160769656999222e-01 6.978063574653434e-02 3.489166035938711e-02 6.328556672601518e-02 3.262819410047452e-02
            -4.793276334940478e-01 4.161337912112870e-01 -1.086588445656812e-01 -6.740111011884370e-02 6.333801964097058e-02 3.269156113484385e-02 6.977446062503559e-02 3.476452073577663e-02
214120000.0000000000 9.935255971913315e-02 4.089248627149493e-02 8.811113829061547e-02 4.134157840349856e-02 -1.196390207542828e-01 -2.631456993985886e-02 -3.037513664907127e-01 5.537913609702817e-01
            8.803810811107003e-02 4.135134661960948e-02 9.933634593404592e-02 4.076665042589370e-02 -3.037085525586942e-01 5.537721101393070e-01 -1.197557298209962e-01 -2.629597266255321e-02
            -1.196270489700546e-01 -2.631087745704899e-02 -3.036558842058590e-01 5.538023230595972e-01 9.883677918916373e-02 3.627751021873616e-02 9.083599813216438e-02 3.678129495633071e-02
            -3.036490097352214e-01 5.538579449943871e-01 -1.196277222516085e-01 -2.629156030252587e-02 9.094446439507670e-02 3.670444175038712e-02 9.884441228517185e-02 3.616517833386779e-02
214952500.0000000000 1.225511347659911e-01 2.553594879356976e-02 1.122171357799214e-01 2.778457281131266e-02 -1.188121726351766e-01 1.392211900855634e-02 -9.467841237284146e-02 6.215479757500537e-01
            1.122677032366374e-01 2.771167997802784e-02 1.225124572288644e-01 2.554021676266042e-02 -9.466588245759669e-02 6.215341967069102e-01 -1.188450273318344e-01 1.394621950199425e-02
            -1.187593876018489e-01 1.387242413194775e-02 -9.472081379996486e-02 6.215351137652108e-01 1.215050427268795e-01 1.835051241283155e-02 1.137788234818158e-01 2.175096575263362e-02
            -9.468278823187344e-02 6.215340884645968e-01 -1.187935373749208e-01 1.391133130512720e-02 1.137074654366841e-01 2.179479807687718e-02 1.214626229097058e-01 1.837294116196726e-02
215785000.0000000000 1.303767883433789e-01 -7.277651051721050e-04 1.218615053731020e-01 2.490349865278192e-03 -1.064958726900524e-01 5.266023263648792e-02 1.226101446489987e-01 6.153336149648732e-01
            1.218443076083760e-01 2.501237807558079e-03 1.304202778670100e-01 -6.825905857468145e-04 1.225488079072482e-01 6.152794366931897e-01 -1.065213287613861e-01 5.260365989559684e-02
            -1.065529874567831e-01 5.262479306547055e-02 1.225333134709574e-01 6.153460865066560e-01 1.273644243390147e-01 -9.772680306861332e-03 1.213245872865943e-01 -4.471815396202439e-03
            1.226241097839333e-01 6.153357720311432e-01 -1.064729871292508e-01 5.263781329768448e-02 1.213356186170372e-01 -4.488431667143669e-03 1.273750881430750e-01 -9.736055128426067e-03
216617500.0000000000 1.196738101672169e-01 -2.567935973883654e-02 1.131125079714958e-01 -2.248415580083829e-02 -8.111716172784174e-02 8.674944141826377e-02 3.252867924788355e-01 5.376655535431171e-01
            1.131201637444828e-01 -2.242069648271006e-02 1.196706095687638e-01 -2.564244544510998e-02 3.252821065031347e-01 5.376781295261033e-01 -8.109153408159211e-02 8.672992660521495e-02
            -8.110386956145167e-02 8.677564528458623e-02 3.252838943398235e-01 5.376682924965572e-01 1.139423338202482e-01 -3.537474803470220e-02 1.098296370898824e-01 -2.970479223203721e-02
            3.253208602754160e-01 5.377051192715462e-01 -8.110352920746765e-02 8.674832726303795e-02 1.097719384385282e-01 -2.969249881331838e-02 1.138799133128562e-01 -3.538137934942003e-02
217450000.0000000000 9.505785410608510e-02 -3.796852595096443e-02 9.027272073709217e-02 -3.560408860089321e-02 -4.297468722005388e-02 1.099638187545504e-01 4.920466529368880e-01 3.954698926318718e-01
            9.026890669695775e-02 -3.568975867710801e-02 9.506300975091853e-02 -3.782835222004961e-02 4.919605890080261e-01 3.955461573433984e-01 -4.300823455297902e-02 1.098928399746237e-01
            -4.299947521942901e-02 1.099216909888283e-01 4.920093261384288e-01 3.954896500396738e-01 8.677730678773099e-02 -4.674198838998714e-02 8.394203901059490e-02 -4.182760946792225e-02
            4.919787203753917e-01 3.955272671991206e-01 -4.293321293744343e-02 1.099636460187169e-01 8.398254851966762e-02 -4.189595008804883e-02 8.671947411003637e-02 -4.675010453579823e-02
218282500.0000000000 6.821076052337220e-02 -3.088887636462363e-02 6.440141069177120e-02 -3.037584036021580e-02 2.050437971277640e-03 1.154815865115861e-01 6.017114149807424e-01 2.019289014031371e-01
            6.438047669711845e-02 -3.032421274200421e-02 6.817697707653599e-02 -3.096609763074517e-02 6.017030357886564e-01 2.019128106822978e-01 2.031451461900969e-03 1.153092613770821e-01
            2.104371308327579e-03 1.153747899517851e-01 6.016626282716119e-01 2.019670558699821e-01 5.812628270655320e-02 -3.750102327865275e-02 5.549368817612867e-02 -3.397738403319683e-02
            6.017166133007708e-01 2.020215319215366e-01 2.113685273495276e-03 1.153975855293928e-01 5.552440393599082e-02 -3.401903309634983e-02 5.812546771658656e-02 -3.751828572650125e-02
219115000.0000000000 5.262669105661454e-02 -7.447880294153722e-03 4.891771060712077e-02 -8.596581626617956e-03 4.384505959263388e-02 1.014180240696451e-01 6.366767168930427e-01 -2.088501561552435e-02
            4.897143849541596e-02 -8.626483342699930e-03 5.264640802878313e-02 -7.428790884070567e-03 6.366589614249243e-01 -2.079722973558549e-02 4.385750432824805e-02 1.014071480656077e-01
            4.392271781873630e-02 1.014937955963593e-01 6.366038295605533e-01 -2.091548337701083e-02 4.255331029233815e-02 -1.153098916033360e-02 3.866404010470473e-02 -8.611745183555276e-03
            6.366068238736016e-01 -2.087180704663710e-02 4.395147806073470e-02 1.014998368696876e-01 3.867220630585971e-02 -8.623752250781888e-03 4.255367112805100e-02 -1.149744548111158e-02
219947500.0000000000 5.685263294395163e-02 2.051924912594597e-02 5.250850145565029e-02 1.775295527642078e-02 7.358052119244324e-02 7.367025525973270e-02 5.889191424868502e-01 -2.427259813516289e-01
            5.253965539267366e-02 1.775697654955612e-02 5.690098129114862e-02 2.042066453989934e-02 5.889269333331690e-01 -2.426596618457994e-01 7.356682675005410e-02 7.369582448107284e-02
            7.355258442099975e-02 7.368145378342232e-02 5.889295030494096e-01 -2.426160930465471e-01 4.818215265491237e-02 1.826340688769523e-02 4.272017821934877e-02 2.171599349149510e-02
            5.889460061174642e-01 -2.426641354765640e-01 7.344870003774245e-02 7.363820605927127e-02 4.274662079260846e-02 2.171971920175106e-02 4.817069926506851e-02 1.827003769403061e-02
220780000.0000000000 7.856131152422506e-02 3.817815203301315e-02 7.302353059903847e-02 3.442584143982363e-02 8.867795717846660e-02 4.094255701194888e-02 4.654959701749820e-01 -4.313286621619652e-01
            7.298677551160576e-02 3.444105141023639e-02 7.851509739990120e-02 3.822011034186794e-02 4.654332495807393e-01 -4.313315864693834e-01 8.876790358994095e-02 4.087945773264787e-02
            8.870389050269055e-02 4.091357179757570e-02 4.654702389781406e-01 -4.313033113048353e-01 7.179748514429600e-02 3.643766358547054e-02 6.538867389143280e-02 4.196078776547178e-02
            4.655033000251523e-01 -4.313021980424206e-01 8.866075856468054e-02 4.082013419018289e-02 6.538775475189530e-02 4.194367706665506e-02 7.185915039654819e-02 3.639527821350777e-02
221612500.0000000000 1.061444299367721e-01 3.732502328896538e-02 9.928043250625215e-02 3.297710121653714e-02 9.258753818613093e-02 8.984454493309747e-03 2.860913494521997e-01 -5.627053119879709e-01
            9.924333873321969e-02 3.298711366551870e-02 1.060954395779598e-01 3.731866021059640e-02 2.861284701508673e-01 -5.626562883445274e-01 9.250925541850974e-02 8.982430118543534e-03
            9.252870721600796e-02 8.971244641822633e-03 2.861180881113231e-01 -5.627734522298247e-01 1.009060228132604e-01 3.433854870346516e-02 9.491895942556698e-02 4.264548701639489e-02
            2.860972143655358e-01 -5.627162692980614e-01 9.251600369563368e-02 8.951822019758457e-03 9.492814137206269e-02 4.256175755769680e-02 1.009058562564373e-01 3.436074157867947e-02
222445000.0000000000 1.261513839216155e-01 1.900446658501176e-02 1.180268187246871e-01 1.467895470865681e-02 8.805941042299395e-02 -2.106499460100981e-02 7.578316790471375e-02 -6.239559688258230e-01
            1.179804439383764e-01 1.479688964935610e-02 1.261945548581661e-01 1.890247274790655e-02 7.575985671311632e-02 -6.239368555706438e-01 8.807392374178837e-02 -2.110250204698931e-02
            8.806353934926515e-02 -2.112949076299027e-02 7.581097315481773e-02 -6.239128396869870e-01 1.211479383762660e-01 1.426648684625835e-02 1.173969960675344e-01 2.483132423848523e-02
            7.578566928917710e-02 -6.240106448011521e-01 8.816986454889782e-02 -2.109927830250656e-02 1.173922415392601e-01 2.476229285402243e-02 1.210494617306793e-01 1.434260612000011e-02
223277500.0000000000 1.296903606263552e-01 -7.685600035477865e-03 1.203938943194180e-01 -1.157156575441564e-02 7.526371428771604e-02 -4.942320970710037e-02 -1.411150615578131e-01 -6.115923678400480e-01
            1.204474582255500e-01 -1.149030753658422e-02 1.296908064087191e-01 -7.708762859634468e-03 -1.410591150534979e-01 -6.116084841183989e-01 7.525548665093293e-02 -4.931413458733566e-02
            7.529927442069437e-02 -4.943167656840265e-02 -1.410522605474440e-01 -6.116354991741265e-01 1.234326961596688e-01 -1.384222462679078e-02 1.232924948748932e-01 -2.425663714595714e-03
            -1.411006807503282e-01 -6.116671208154123e-01 7.525918274430317e-02 -4.938156415545340e-02 1.231691480564752e-01 -2.411633595730194e-03 1.235074194641008e-01 -1.376250217397429e-02
224110000.0000000000 1.154607535128105e-01 -3.035275419801416e-02 1.051578223338216e-01 -3.371612562360698e-02 5.223299557578404e-02 -7.325976389492386e-02 -3.418817946659398e-01 -5.280805936442856e-01
            1.052303679190088e-01 -3.366429349752491e-02 1.153903266157091e-01 -3.037251840909849e-02 -3.418936047581648e-01 -5.280267276250362e-01 5.236243473081815e-02 -7.336210774833705e-02
            5.232930538172219e-02 -7.335727749088697e-02 -3.419572372575738e-01 -5.281433566889294e-01 1.070034882727319e-01 -3.687874089279325e-02 1.103863362636994e-01 -2.680724071878882e-02
            -3.418905871788599e-01 -5.281021595206089e-01 5.225970142257137e-02 -7.332650473852100e-02 1.104314359052939e-01 -2.675974069435572e-02 1.070139015314187e-01 -3.682593851373831e-02
224942500.0000000000 8.946136836727818e-02 -3.854156821726630e-02 7.837474513701659e-02 -4.105767723311531e-02 2.002917630738426e-02 -8.695397887615071e-02 -5.048261660082336e-01 -3.802835593622739e-01
            7.844720596784049e-02 -4.111732312694829e-02 8.963497669811567e-02 -3.848036640925809e-02 -5.048686404970948e-01 -3.803451941602483e-01 1.996152425711335e-02 -8.693924176892427e-02
            2.000915026543561e-02 -8.698808177124941e-02 -5.049042583641238e-01 -3.803570894585876e-01 7.889185848536082e-02 -4.389335528522782e-02 8.497865165204740e-02 -3.677762990688306e-02
            -5.049144032973988e-01 -3.804043856046019e-01 1.997174034427118e-02 -8.688731587601770e-02 8.500803875628327e-02 -3.678209527125536e-02 7.896008672401818e-02 -4.383043788039556e-02
225775000.0000000000 6.434741894347272e-02 -2.729227257512516e-02 5.258955480799670e-02 -2.893921606708976e-02 -1.555248298660821e-02 -8.503859572613640e-02 -6.085059372524667e-01 -1.823702687727022e-01
            5.251387541686747e-02 -2.900893515811504e-02 6.435605605799347e-02 -2.732769979417420e-02 -6.084020819120166e-01 -1.824016297684336e-01 -1.561472523824392e-02 -8.502904388374855e-02
            -1.558008951371115e-02 -8.506580754581675e-02 -6.084899104022552e-01 -1.823698754043248e-01 5.265386091266627e-02 -3.028712998900469e-02 5.926057777277597e-02 -2.714972287902576e-02
            -6.085046114417664e-01 -1.823988853195836e-01 -1.558228287209809e-02 -8.503955791853629e-02 5.917060691005013e-02 -2.719436189594246e-02 5.266941651187399e-02 -3.022333269826985e-02
226607500.0000000000 5.308924923911996e-02 -1.811999444976390e-03 4.085448951378540e-02 -2.244412262206169e-03 -4.523306003179657e-02 -6.784305624937036e-02 -6.353146730947827e-01 4.207465698720016e-02
            4.089452079484942e-02 -2.280835320172891e-03 5.309137544330889e-02 -1.821290822131056e-03 -6.352701079470819e-01 4.202127690883824e-02 -4.530848803353141e-02 -6.785533290147097e-02
            -4.522586882121539e-02 -6.789309585590840e-02 -6.352755668627542e-01 4.207380462756943e-02 4.170059228493927e-02 -2.025486251775486e-03 4.684521697088508e-02 -2.428639637026501e-03
            -6.353101225070619e-01 4.206592864246073e-02 -4.531730906380265e-02 -6.792036267066866e-02 4.677069143240929e-02 -2.420325561269871e-03 4.176481472941226e-02 -2.080888712196416e-03
227440000.0000000000 6.204557081018227e-02 2.459355855863725e-02 4.972239483596596e-02 2.564669493537385e-02 -6.234741542676330e-02 -4.214727282519633e-02 -5.794254133315561e-01 2.615005862078875e-01
            4.970786957282219e-02 2.566609931059783e-02 6.205249775940282e-02 2.460127029925170e-02 -5.794391128028025e-01 2.614779789778034e-01 -6.234578072730212e-02 -4.219726097418187e-02
            -6.242627779492213e-02 -4.220802284831571e-02 -5.794651411884193e-01 2.615429382029607e-01 5.242963159302399e-02 2.642242886285480e-02 5.450221328496399e-02 2.408740538736583e-02
            -5.794182247436918e-01 2.615433330886720e-01 -6.240161052258656e-02 -4.215811289701223e-02 5.456041812572743e-02 2.408515829794959e-02 5.237454482065820e-02 2.642864761665803e-02
228272500.0000000000 8.621975424221026e-02 3.817172095634475e-02 7.444462289589909e-02 4.065760165521815e-02 -6.739527472547001e-02 -1.614996798298963e-02 -4.499649597730272e-01 4.447507302818357e-01
            7.444136583863513e-02 4.064511900647049e-02 8.623178661450587e-02 3.810966984870637e-02 -4.500814847099281e-01 4.448609397170846e-01 -6.739601174182099e-02 -1.613794725754567e-02
            -6.733713095628970e-02 -1.616845796889946e-02 -4.499632353279450e-01 4.447921663349241e-01 7.902219490790441e-02 4.073134640086776e-02 7.805730677494979e-02 3.825481724126269e-02
            -4.499955358294769e-01 4.448048360383726e-01 -6.741183298539220e-02 -1.615064140551387e-02 7.804983781666631e-02 3.826447580272528e-02 7.904731700601400e-02 4.074045952092008e-02
229105000.0000000000 1.129759687898721e-01 3.240190638471342e-02 1.024203178287504e-01 3.620311701372887e-02 -6.465297598046840e-02 6.369338002582482e-03 -2.676222577698986e-01 5.694507983191462e-01
            1.022940095232321e-01 3.615245514288248e-02 1.131110542604747e-01 3.239564053702865e-02 -2.675271350303005e-01 5.694507626855090e-01 -6.460158418878377e-02 6.297147863713179e-03
            -6.465602138652407e-02 6.349902359463123e-03 -2.675508830851390e-01 5.694106294576963e-01 1.081563194637338e-01 3.430801409407208e-02 1.048604936560156e-01 3.325332994807035e-02
            -2.676234213349348e-01 5.694725525683405e-01 -6.459464776227322e-02 6.338435412589044e-03 1.048702440508098e-01 3.334425649226404e-02 1.081180214441219e-01 3.427855986441789e-02
229937500.0000000000 1.296141350773345e-01 1.092864331744285e-02 1.205601611335240e-01 1.523116944986753e-02 -5.736089697512540e-02 2.609199450666752e-02 -5.671374147461625e-02 6.240856359810372e-01
            1.205531453382990e-01 1.525250460396371e-02 1.297051878703047e-01 1.099830974460521e-02 -5.674207325092545e-02 6.240572099829251e-01 -5.732067250636568e-02 2.608484438397172e-02
            -5.725594929637005e-02 2.604387678197078e-02 -5.677031821526225e-02 6.241722418184645e-01 1.260887606641118e-01 1.114703518772756e-02 1.219791924994349e-01 1.232859005622282e-02
            -5.667948067033139e-02 6.240733369050480e-01 -5.730853458447361e-02 2.603555276672729e-02 1.220226250015041e-01 1.238925712934831e-02 1.259158908242966e-01 1.123955218658290e-02
230770000.0000000000 1.287284491715126e-01 -1.619122883648736e-02 1.212770858556164e-01 -1.211139393594890e-02 -4.479262779930644e-02 4.410397334948549e-02 1.589132769767048e-01 6.057632423956970e-01
            1.213660133082281e-01 -1.207146295877719e-02 1.288230896237253e-01 -1.619174056670486e-02 1.589604397490131e-01 6.058244078210809e-01 -4.476456868126733e-02 4.403647540182026e-02
            -4.475522791042522e-02 4.410796832687532e-02 1.589301627453026e-01 6.058317494200834e-01 1.252371168086413e-01 -1.768254556007166e-02 1.219103545628267e-01 -1.480447623629788e-02
            1.589417507773558e-01 6.057753747209156e-01 -4.473157076846220e-02 4.409219948440810e-02 1.218695976910228e-01 -1.481910474440304e-02 1.251572683015041e-01 -1.770382404732360e-02
231602500.0000000000 1.106265566472654e-01 -3.674276745276253e-02 1.045431077302750e-01 -3.376919300518506e-02 -2.516531920361549e-02 5.807965575074068e-02 3.571465971281770e-01 5.166362796937369e-01
            1.045818036120933e-01 -3.372517147511482e-02 1.106594472805212e-01 -3.677012667966934e-02 3.571285548881379e-01 5.166055122287144e-01 -2.512373678288274e-02 5.802399234587616e-02
            -2.515656442925247e-02 5.807800012802661e-02 3.570661005422522e-01 5.166443037035764e-01 1.061181384846955e-01 -3.937574993541668e-02 1.043816090322219e-01 -3.619327255544150e-02
            3.570784012074001e-01 5.166401240325604e-01 -2.514075685909686e-02 5.809516517402044e-02 1.043616501328017e-01 -3.615912605784271e-02 1.061366818412382e-01 -3.935036574420628e-02
232435000.0000000000 8.318540488883822e-02 -4.093160328751395e-02 7.769964831041488e-02 -3.951577863007114e-02 7.453224569200504e-04 6.296332095864923e-02 5.155489965957550e-01 3.639855127770176e-01
            7.767224470645062e-02 -3.953068424939170e-02 8.325431196808709e-02 -4.082506572245681e-02 5.155264524381363e-01 3.639453765175611e-01 6.092426642692939e-04 6.301072671020747e-02
            7.119460205344088e-04 6.297188814611261e-02 5.155432164921440e-01 3.639777234686841e-01 7.743761168384962e-02 -4.355377661820894e-02 7.683573284622434e-02 -4.131413012270253e-02
            5.155165450297925e-01 3.639397089333944e-01 6.976382136197836e-04 6.301559292250303e-02 7.678434137957797e-02 -4.135919733204325e-02 7.747157984301485e-02 -4.362909259454181e-02
233267500.0000000000 5.933307040018373e-02 -2.578473752571426e-02 5.338353584812847e-02 -2.614699969659519e-02 2.667095958321393e-02 5.484839105511990e-02 6.126413995265564e-01 1.627631184906667e-01
            5.348393714374524e-02 -2.610691187720699e-02 5.928897986959088e-02 -2.579964748451786e-02 6.125630307813528e-01 1.627691301920653e-01 2.655540107716443e-02 5.496733707459486e-02
            2.666296150309030e-02 5.492655573828121e-02 6.126160053342101e-01 1.627900773034985e-01 5.285400750258035e-02 -2.782622107299421e-02 5.219968424359624e-02 -2.738310788880297e-02
            6.126112717883129e-01 1.628008428384728e-01 2.653925976632875e-02 5.488927175898901e-02 5.225911116247092e-02 -2.740122007904786e-02 5.286978175682540e-02 -2.778183071011050e-02
234100000.0000000000 5.125278653293769e-02 1.429008663106458e-03 4.418436410879916e-02 -7.912160453463806e-05 4.458414882222217e-02 3.574458280773664e-02 6.318595222427017e-01 -6.206220652590438e-02
            4.414607254092465e-02 -8.579143415314480e-05 5.124811433097617e-02 1.426104735490161e-03 6.318631716150157e-01 -6.203803380206827e-02 4.453813712138784e-02 3.573003955334613e-02
            4.468483971436525e-02 3.569012840211631e-02 6.317815097471582e-01 -6.200085830733958e-02 4.505405938555716e-02 5.704987795882426e-04 4.309412819535604e-02 -6.730050994504006e-04
            6.318028804597954e-01 -6.202700921896475e-02 4.463623528814787e-02 3.568308724347886e-02 4.302751675561477e-02 -6.550318476479950e-04 4.519163436527864e-02 5.180121140281745e-04
234932500.0000000000 6.348390401961200e-02 2.695235357245545e-02 5.453939901875062e-02 2.513289046884504e-02 5.043255665689975e-02 1.272342876529248e-02 5.688874592649732e-01 -2.785700450438010e-01
            5.458154880804244e-02 2.511452881893566e-02 6.340742684119606e-02 2.688821696983780e-02 5.689157721079118e-01 -2.786066328395194e-01 5.036926046058254e-02 1.271468276872776e-02
            5.034876430469731e-02 1.267910263426441e-02 5.689169456737316e-01 -2.785544662809593e-01 5.847469926141976e-02 2.657232244285328e-02 5.393779350837580e-02 2.496078801724221e-02
            5.688528373925900e-01 -2.785780154962811e-01 5.033680785037667e-02 1.264509211985857e-02 5.387256008430336e-02 2.486776653038324e-02 5.846734836488627e-02 2.655406549817211e-02
235765000.0000000000 8.901065571756221e-02 3.772943600015662e-02 7.844588197453556e-02 3.655224674346653e-02 4.615250378283191e-02 -6.798802482918653e-03 4.345268211307505e-01 -4.566316125200545e-01
            7.841517280120960e-02 3.659267665907481e-02 8.903402131981897e-02 3.777490376643683e-02 4.344363471547617e-01 -4.566635917277027e-01 4.623830084307810e-02 -6.878162236941513e-03
            4.622767685876304e-02 -6.867860990805138e-03 4.344713095871903e-01 -4.565661190312883e-01 8.545973443185308e-02 3.678906488172023e-02 7.823788823715014e-02 3.617003212908313e-02
            4.344135772369827e-01 -4.565991233765314e-01 4.621054459619495e-02 -6.803573979818491e-03 7.827225966395999e-02 3.623299592147528e-02 8.537128953589873e-02 3.669076702297367e-02
236597500.0000000000 1.148538524495345e-01 2.945452605314076e-02 1.030608180759100e-01 2.958508021148826e-02 3.734665293438816e-02 -2.068269604083203e-02 2.494246636184935e-01 -5.751567821500001e-01
            1.031149836191132e-01 2.959968341819228e-02 1.148477980422016e-01 2.943070319819685e-02 2.494071051010142e-01 -5.752634449913691e-01 3.736186617229732e-02 -2.069569555208387e-02
            3.739540144974174e-02 -2.066933395931590e-02 2.494217236456816e-01 -5.751204952431843e-01 1.119629914294859e-01 2.656842798540101e-02 1.032315784239443e-01 2.864950399673203e-02
            2.494153568717480e-01 -5.752293970305689e-01 3.740804924567898e-02 -2.069218979138059e-02 1.031072243843401e-01 2.865050806572124e-02 1.119748351983315e-01 2.659461874018160e-02
237430000.0000000000 1.289107269052109e-01 6.847513211357830e-03 1.168264575500705e-01 8.875273593543653e-03 2.687961142385237e-02 -3.072452474455703e-02 3.789592810242329e-02 -6.238268917073758e-01
            1.168256257653738e-01 8.855772016074558e-03 1.289185928844158e-01 6.887787868996096e-03 3.781331889362472e-02 -6.237930260882375e-01 2.692918882189409e-02 -3.069905516775138e-02
            2.695470857879402e-02 -3.072353213350876e-02 3.788160080172914e-02 -6.237867081484514e-01 1.254424643464292e-01 1.705185461568517e-03 1.164990725232556e-01 6.968769448513382e-03
            3.788300787676857e-02 -6.237972018286376e-01 2.696305936954323e-02 -3.074414247840698e-02 1.164560843248107e-01 6.966218883490705e-03 1.254667118242221e-01 1.742538182420972e-03
238262500.0000000000 1.252590506008751e-01 -1.915732383610272e-02 1.136606868656503e-01 -1.548759943266535e-02 1.426614959468811e-02 -3.848715985020167e-02 -1.770280110481063e-01 -5.993551026579048e-01
            1.135389352688226e-01 -1.551053708931751e-02 1.252050058533911e-01 -1.919615321733667e-02 -1.769827788088154e-01 -5.993362932964840e-01 1.421295904372293e-02 -3.845903650876192e-02
            1.425049121164330e-02 -3.848330853020031e-02 -1.770018257687521e-01 -5.993410672774446e-01 1.196231536049703e-01 -2.597619555422978e-02 1.123308728130333e-01 -1.805758458040427e-02
            -1.770227897692809e-01 -5.993381002148727e-01 1.416577712103952e-02 -3.849074367495695e-02 1.123527816789222e-01 -1.812959413306212e-02 1.196165916641046e-01 -2.605668500606480e-02
239095000.0000000000 1.056527255222190e-01 -3.659995015578018e-02 9.525542571435501e-02 -3.172267337355562e-02 -2.476321672644405e-03 -4.205802795651282e-02 -3.727166237836451e-01 -5.042031143599197e-01
            9.525289981378718e-02 -3.173961328818157e-02 1.056436978764588e-01 -3.657795646523462e-02 -3.726321050885470e-01 -5.041157021056111e-01 -2.439130035365535e-03 -4.204034443132799e-02
            -2.425726885710211e-03 -4.204923150984845e-02 -3.726730440790444e-01 -5.041053871450667e-01 9.702809956755948e-02 -4.380544314900833e-02 9.220058324549107e-02 -3.460833290738788e-02
            -3.727542742406447e-01 -5.041204673515688e-01 -2.426430527008641e-03 -4.205311991155923e-02 9.223203576220877e-02 -3.462142200179839e-02 9.696569500262713e-02 -4.395159267081399e-02
239927500.0000000000 7.933905927876134e-02 -3.691886893286818e-02 7.031208634805505e-02 -3.153837817324195e-02 -2.134687353155551e-02 -3.747419382714867e-02 -5.261328416348648e-01 -3.458143005501825e-01
            7.036024583990298e-02 -3.154537813225040e-02 7.925619805534390e-02 -3.691829338859892e-02 -5.261562318562647e-01 -3.458201959148258e-01 -2.135049923481709e-02 -3.741990133481018e-02
            -2.140314864864393e-02 -3.743707110907837e-02 -5.262209467621983e-01 -3.458686128579151e-01 6.745037406682623e-02 -4.285820905778646e-02 6.534905355364555e-02 -3.373576785524648e-02
            -5.262154088358805e-01 -3.459064622683415e-01 -2.132534307235477e-02 -3.740373686723473e-02 6.534796034501097e-02 -3.373791137929120e-02 6.744997414769618e-02 -4.277373682116366e-02
240760000.0000000000 5.937358881020470e-02 -1.939448197482379e-02 5.187907777777446e-02 -1.419905765720741e-02 -3.652172542684163e-02 -2.291183858308181e-02 -6.156253661032459e-01 -1.411818962799973e-01
            5.186734552094638e-02 -1.421111469213625e-02 5.927158425246849e-02 -1.938781020972294e-02 -6.156798570119079e-01 -1.411784091491728e-01 -3.648730768284805e-02 -2.287324289730405e-02
            -3.647459823351562e-02 -2.291831735920358e-02 -6.155918953912771e-01 -1.411370211608675e-01 4.527355728186912e-02 -2.228703106901035e-02 4.489970814574033e-02 -1.451356003778086e-02
            -6.156712127949759e-01 -1.411487489669571e-01 -3.654340252692789e-02 -2.287635461372864e-02 4.502724116758718e-02 -1.454557098473428e-02 4.524986492717795e-02 -2.232781643642291e-02
241592500.0000000000 5.652410753090514e-02 7.142648617208491e-03 5.010452193944250e-02 1.151072620992814e-02 -4.154796837217997e-02 -2.214848184701580e-03 -6.259592980244156e-01 8.327473470588297e-02
            5.020055149118258e-02 1.166722755972881e-02 5.651778204876960e-02 7.125021386336267e-03 -6.259890922193688e-01 8.340057520988624e-02 -4.159693072047085e-02 -2.268454965468021e-03
            -4.157730632616833e-02 -2.318259152313022e-03 -6.258623764653664e-01 8.331698098507009e-02 4.213853277445175e-02 8.135326242019769e-03 4.232892828056568e-02 1.421174820163398e-02
            -6.258960952474770e-01 8.338134004228041e-02 -4.159553877315037e-02 -2.240088930549401e-03 4.231694142866371e-02 1.425240777324638e-02 4.218785315830593e-02 8.109208332199174e-03
242425000.0000000000 7.238130726100694e-02 2.851618851563134e-02 6.669648371003291e-02 3.196137016783555e-02 -3.527042598676289e-02 1.660253814957758e-02 -5.552168614350477e-01 2.955593696409841e-01
            6.674682170520245e-02 3.200085516692304e-02 7.243856830546445e-02 2.842486194960006e-02 -5.551865876844998e-01 2.955420301180078e-01 -3.529317417387531e-02 1.665784066168891e-02
            -3.526967229532391e-02 1.657640554471482e-02 -5.550975870561417e-01 2.956063869092742e-01 5.969661967361151e-02 3.284579863720637e-02 5.931967599394927e-02 3.781713228221765e-02
            -5.551541407482147e-01 2.956018673361394e-01 -3.528671499146845e-02 1.661334685178180e-02 5.937664236133932e-02 3.781998196586397e-02 5.970560775736887e-02 3.293393391537498e-02
243257500.0000000000 9.839649003742001e-02 3.355866388790320e-02 9.284785500281073e-02 3.600170851122201e-02 -2.222551316843193e-02 2.803008307246202e-02 -4.160128403807828e-01 4.667013175644568e-01
            9.284486510770178e-02 3.599806340523955e-02 9.841121653470851e-02 3.361389245025791e-02 -4.160186280273961e-01 4.667382120982960e-01 -2.219302866524980e-02 2.803512403707764e-02
            -2.225307947794553e-02 2.807484338680945e-02 -4.159866631692822e-01 4.668110617192419e-01 8.856726380262211e-02 3.993255827649244e-02 8.738935106651084e-02 4.484810725587594e-02
            -4.159601127225936e-01 4.667238225119038e-01 -2.222170580311966e-02 2.805910280755218e-02 8.732223794666952e-02 4.487525795930435e-02 8.865370987684543e-02 3.996085050739483e-02
244090000.0000000000 1.211308497632540e-01 2.044560449608853e-02 1.155148808304732e-01 2.182785169297829e-02 -8.484831180728432e-03 3.194307157585893e-02 -2.294187945417744e-01 5.779622651128148e-01
            1.154144308164141e-01 2.186638035144428e-02 1.211708969799939e-01 2.049715306501487e-02 -2.294768232938130e-01 5.780275017786833e-01 -8.472457384161457e-03 3.195145870634804e-02
            -8.522820854454126e-03 3.194136774407441e-02 -2.294298836422066e-01 5.778943402800061e-01 1.145432837677834e-01 2.696886862674899e-02 1.129634965369505e-01 3.277289532712631e-02
            -2.294057753752249e-01 5.779598704038621e-01 -8.448962220543536e-03 3.194269109241224e-02 1.129835484151804e-01 3.275011683973025e-02 1.145840491237486e-01 2.693800429949636e-02
244922500.0000000000 1.302578785968602e-01 -4.244468443233765e-03 1.240269546130034e-01 -3.857315818682274e-03 3.267465732548905e-03 3.188018719372859e-02 -1.880535908470991e-02 6.198574141160061e-01
            1.239862595828368e-01 -3.805151443338387e-03 1.302547302290637e-01 -4.253585949425149e-03 -1.890515872332542e-02 6.197796940773233e-01 3.227672915393027e-03 3.177838127251306e-02
            3.293862304150669e-03 3.170719237828452e-02 -1.877392808393658e-02 6.197917392087412e-01 1.258843539311073e-01 8.697629860843829e-04 1.251297385942957e-01 8.053890450065821e-03
            -1.876103961585968e-02 6.197560984026024e-01 3.370280450917642e-03 3.180404582913516e-02 1.251997401239321e-01 8.117450763126251e-03 1.259220102683787e-01 8.686108999430630e-04
245755000.0000000000 1.215559273793012e-01 -2.926513093304173e-02 1.143956875807176e-01 -2.969520455452551e-02 1.454464990946625e-02 2.966560984636436e-02 1.935844007097523e-01 5.895618206873924e-01
            1.144723358346508e-01 -2.971500242216981e-02 1.215359529430497e-01 -2.916292360858157e-02 1.934865105253135e-01 5.896056201902836e-01 1.462209298259395e-02 2.964571369772093e-02
            1.465558478812070e-02 2.966062077519676e-02 1.935908063718866e-01 5.896160010722953e-01 1.180722631029961e-01 -2.613371732034438e-02 1.193099892646376e-01 -1.835713517670213e-02
            1.935185784458860e-01 5.896359122696332e-01 1.463912847267989e-02 2.960058625876663e-02 1.193325426495353e-01 -1.835841838211499e-02 1.180739641492970e-01 -2.612029846742804e-02
246587500.0000000000 9.857829809085383e-02 -4.313754659632708e-02 9.018146507261486e-02 -4.435015628246280e-02 2.685399017533320e-02 2.408806143351280e-02 3.852174799802518e-01 4.893577824656296e-01
            9.020031134066094e-02 -4.426862789896815e-02 9.856463002140507e-02 -4.322927076105032e-02 3.852030069405013e-01 4.894288931374340e-01 2.677109026828663e-02 2.404687492277714e-02
            2.684451862166156e-02 2.400967455978009e-02 3.852836975270086e-01 4.894288227634137e-01 9.465840504625211e-02 -4.180007717696971e-02 9.857651477870569e-02 -3.492919806245555e-02
            3.852182859551415e-01 4.894408200208644e-01 2.681005786705281e-02 2.403495206955831e-02 9.850351250447766e-02 -3.484639931578092e-02 9.459084882993687e-02 -4.198821525287429e-02
247420000.0000000000 7.171779870042672e-02 -3.909352758308297e-02 6.163612860089578e-02 -4.037071962816271e-02 3.825471406527494e-02 1.197101431156283e-02 5.331114518123438e-01 3.275013545163078e-01
            6.153240518548494e-02 -4.037137501093567e-02 7.169847776823192e-02 -3.901050406721519e-02 5.331250055981371e-01 3.273992122861796e-01 3.824934863136217e-02 1.192875189119737e-02
            3.833015437099741e-02 1.196859401480984e-02 5.330769771933825e-01 3.274075797907245e-01 6.625514390092176e-02 -3.861921172524134e-02 7.245641932588186e-02 -3.390061751418185e-02
            5.330333018155964e-01 3.274533509012603e-01 3.829990519021218e-02 1.195063703683515e-02 7.238139950727340e-02 -3.396347933055718e-02 6.630246702553863e-02 -3.857016603132653e-02
248252500.0000000000 5.402044905145309e-02 -1.810001615408921e-02 4.195430328994879e-02 -1.880174493930627e-02 4.343749988911361e-02 -7.185272585531386e-03 6.155648743390594e-01 1.211267429659616e-01
            4.193771881441775e-02 -1.892253722226799e-02 5.398443332911766e-02 -1.798825467289726e-02 6.154651888169937e-01 1.211587852337415e-01 4.345498677637269e-02 -7.239984028976314e-03
            4.334721712573947e-02 -7.191891830620645e-03 6.154498259796675e-01 1.210687868463368e-01 4.683868519515806e-02 -1.713201694702678e-02 5.382672751350785e-02 -1.608847418143501e-02
            6.154869613016332e-01 1.211408744896924e-01 4.338760425555480e-02 -7.242759267471215e-03 5.378269164211334e-02 -1.616499451873690e-02 4.695154138224852e-02 -1.712752901111657e-02
249085000.0000000000 5.494447462759437e-02 9.213670155525775e-03 4.092674993214240e-02 9.786448338846274e-03 3.734498186661919e-02 -2.819562716202821e-02 6.184445407010872e-01 -1.020494481250565e-01
            4.086090624743630e-02 9.833164181143526e-03 5.485921229689474e-02 9.195610022436847e-03 6.184788551098686e-01 -1.019512978144181e-01 3.737732570249146e-02 -2.815020139586205e-02
            3.742219666107115e-02 -2.822285429066883e-02 6.184712008193268e-01 -1.019921823189918e-01 4.659203260070108e-02 1.184400088307683e-02 5.252174616696122e-02 8.900172821294235e-03
            6.184949461707574e-01 -1.019678155456380e-01 3.731612260970930e-02 -2.822809310721380e-02 5.245735963409450e-02 8.832131506300626e-03 4.665115101529619e-02 1.175149031931634e-02
249917500.0000000000 7.364124822680441e-02 2.841255037929375e-02 5.828141567386034e-02 3.131518446727950e-02 2.080396138869758e-02 -4.333570833955353e-02 5.418341843254645e-01 -3.099671435606876e-01
            5.835932847654025e-02 3.131258817066428e-02 7.359036149629238e-02 2.839228501393456e-02 5.417518430048923e-01 -3.099903295699770e-01 2.087081454955275e-02 -4.333751461134391e-02
            2.085446441259627e-02 -4.340737570110115e-02 5.417903187693831e-01 -3.100514069708358e-01 6.537246524675623e-02 3.340911369236108e-02 6.819097483634839e-02 2.753698981750965e-02
            5.417771321339554e-01 -3.100427634750199e-01 2.088200118445259e-02 -4.329427142487105e-02 6.830030090498704e-02 2.745553650278124e-02 6.551883017422508e-02 3.337048704061044e-02
250750000.0000000000 9.996721033062413e-02 3.002676813384086e-02 8.414629175377927e-02 3.588727873161578e-02 -3.711771461810092e-05 -4.803934749874662e-02 3.989313648809716e-01 -4.756227964741397e-01
            8.411158392043856e-02 3.584103140447581e-02 1.000917334951677e-01 3.009523324510048e-02 3.987924817654296e-01 -4.755463107869498e-01 -4.653326475620827e-06 -4.801660338177929e-02
            -8.456984753407788e-05 -4.808633627883505e-02 3.988133565080400e-01 -4.755211988741597e-01 9.314883345475525e-02 3.719233594675021e-02 9.174760746911884e-02 2.994186315813494e-02
            3.988641526500212e-01 -4.755238344863340e-01 -5.410167965299280e-05 -4.808210053788479e-02 9.173256362044897e-02 2.992783513714800e-02 9.316505562813775e-02 3.729559108103375e-02
251582500.0000000000 1.205921474574801e-01 1.400041902721653e-02 1.053685668312781e-01 2.290992962082874e-02 -1.898615200985778e-02 -4.354177992183099e-02 2.105640415972149e-01 -5.807584507477809e-01
            1.053428869343331e-01 2.287891691658996e-02 1.206145027945590e-01 1.394281014755749e-02 2.106482030616691e-01 -5.808548579336837e-01 -1.896375752362634e-02 -4.357521575189244e-02
            -1.890566220376826e-02 -4.356283728766579e-02 2.106396861596337e-01 -5.807413041773868e-01 1.160284829844020e-01 2.254609895052042e-02 1.104124648961550e-01 1.606045944860724e-02
            2.106537221570895e-01 -5.807621738226164e-01 -1.891121249823943e-02 -4.357402131855662e-02 1.103701597629570e-01 1.613192994715158e-02 1.160324067992298e-01 2.254295907698468e-02
252415000.0000000000 1.256965028316177e-01 -1.169760440148719e-02 1.123707457224427e-01 -5.957793920659087e-05 -3.342605878165450e-02 -3.388201502502647e-02 -1.230630551144525e-04 -6.165779257206975e-01
            1.124450230656865e-01 -5.536144911401067e-05 1.256983916812017e-01 -1.171903956302531e-02 -1.588353211316626e-04 -6.165900263501279e-01 -3.341155400333916e-02 -3.389509889098813e-02
            -3.337677276246740e-02 -3.377943479482678e-02 -1.345890230532637e-04 -6.165638516484661e-01 1.239098037673704e-01 -2.915048564821285e-03 1.150355375847608e-01 -6.707139126355554e-03
            -1.126307892198668e-04 -6.165692847922702e-01 -3.344350237431518e-02 -3.384462083235779e-02 1.149470837162525e-01 -6.635799928916945e-03 1.238296100182874e-01 -2.922614669003447e-03
253247500.0000000000 1.128368536532982e-01 -3.498883953170667e-02 1.023823134184309e-01 -2.146212080948614e-02 -4.443371864665905e-02 -2.129028722658875e-02 -2.110858301508738e-01 -5.801896578364892e-01
            1.023267166971106e-01 -2.142301365345907e-02 1.128213053237657e-01 -3.487628349748028e-02 -2.110573968353958e-01 -5.802276891835335e-01 -4.446453244849323e-02 -2.125407790398959e-02
            -4.435417086502385e-02 -2.132896047415925e-02 -2.111611781204517e-01 -5.801836706071790e-01 1.135258731666280e-01 -2.695513776055867e-02 1.031070001780419e-01 -2.708878868654875e-02
            -2.110953926509591e-01 -5.801734179471396e-01 -4.441154279023321e-02 -2.130797196877263e-02 1.030695931989978e-01 -2.712678646972461e-02 1.134955266070447e-01 -2.691857836712992e-02
254080000.0000000000 8.751957198942241e-02 -4.475206927438253e-02 8.017436066798542e-02 -3.057810909806464e-02 -5.260049080412640e-02 -5.123280390329509e-03 -3.991259716721702e-01 -4.736809606717661e-01
            8.016115406571123e-02 -3.059770991766300e-02 8.747511415650251e-02 -4.470662876736799e-02 -3.991765692214569e-01 -4.736643497916654e-01 -5.263394308467282e-02 -5.159687643555832e-03
            -5.270159425658186e-02 -5.140547145892933e-03 -3.991818572666256e-01 -4.736521998852924e-01 8.993909642108970e-02 -3.835192783576841e-02 7.988765170706595e-02 -3.492987220348055e-02
            -3.990429909364367e-01 -4.736902827147194e-01 -5.270138278326134e-02 -5.156340966797581e-03 7.979818066011475e-02 -3.487277444666353e-02 8.993455354989983e-02 -3.838103018220559e-02
254912500.0000000000 6.119701093154355e-02 -3.553920727135400e-02 5.680628882894530e-02 -2.188646757643588e-02 -5.584034929477358e-02 1.599941884511632e-02 -5.405160344364752e-01 -3.065082074307485e-01
            5.681693830347981e-02 -2.201118440705694e-02 6.112697025151183e-02 -3.554531325653492e-02 -5.405266857441164e-01 -3.064944736465135e-01 -5.586142777227568e-02 1.601699517597186e-02
            -5.582656146616387e-02 1.604238355714263e-02 -5.404708772658851e-01 -3.065084537605106e-01 6.456357576748691e-02 -3.116774073008128e-02 5.634764510542126e-02 -2.509381130492674e-02
            -5.406187195764928e-01 -3.064772367445424e-01 -5.581306148488070e-02 1.612177709792238e-02 5.619996187418546e-02 -2.507366440383353e-02 6.464065222683871e-02 -3.125226351142285e-02
255745000.0000000000 4.705205256088576e-02 -1.100586447166775e-02 4.505609091545156e-02 1.119165789356407e-03 -4.905212943459793e-02 4.017755272303827e-02 -6.139854912650693e-01 -9.825481135151272e-02
            4.512011768540768e-02 1.177666093772610e-03 4.701967993577411e-02 -1.110927772311203e-02 -6.141155029487391e-01 -9.823475379564453e-02 -4.902493009041732e-02 4.012689732175568e-02
            -4.907463370755034e-02 4.010849556437655e-02 -6.139680452365199e-01 -9.821482443962636e-02 5.079899808344642e-02 -8.721593022486297e-03 4.482358748704901e-02 -1.114336396440123e-03
            -6.141149201672570e-01 -9.814895227570290e-02 -4.904683622343090e-02 4.015631205682264e-02 4.483820777132200e-02 -1.193223689658688e-03 5.070534448081120e-02 -8.688359033937366e-03
256577500.0000000000 5.262873466077718e-02 1.648241232803271e-02 5.210698892246932e-02 2.688542693764980e-02 -2.989992353677342e-02 6.053257016196014e-02 -6.078658720808241e-01 1.224283280611413e-01
            5.210238421300085e-02 2.693408068651185e-02 5.254750914459761e-02 1.646197187074017e-02 -6.078692487948401e-01 1.224710476529620e-01 -2.997237143619278e-02 6.051168685530584e-02
            -2.990935150871927e-02 6.050632965440448e-02 -6.079207687748301e-01 1.224413182561563e-01 5.583781892357823e-02 1.730697765330229e-02 5.229643025466267e-02 2.505572774896003e-02
            -6.078383475262716e-01 1.224054178006140e-01 -2.999839971640351e-02 6.052825229760525e-02 5.220549113759647e-02 2.501699391414430e-02 5.581053709067485e-02 1.730360149592667e-02
257410000.0000000000 7.449366578012184e-02 3.314025359050209e-02 7.475056136717244e-02 4.200698885389521e-02 -2.399021860720263e-03 6.973123582310083e-02 -5.244279821814852e-01 3.242807946770907e-01
            7.472513670958167e-02 4.195832652596117e-02 7.444635353516790e-02 3.315691958309092e-02 -5.244085429964643e-01 3.243022410432839e-01 -2.396188587025163e-03 6.974157425568760e-02
            -2.404838216752307e-03 6.982324133047824e-02 -5.244228512098179e-01 3.243872624447486e-01 7.693119111280154e-02 3.280214630474599e-02 7.523692653764849e-02 4.000234402183243e-02
            -5.244258374333181e-01 3.243296935817142e-01 -2.284675534137093e-03 6.980430563520632e-02 7.512729688200119e-02 3.997479282924055e-02 7.691376140109596e-02 3.293905304040597e-02
258242500.0000000000 1.011733853290299e-01 3.138146487280084e-02 1.017530393333130e-01 3.881499575107468e-02 2.571256132276729e-02 6.560543761012520e-02 -3.782584105390788e-01 4.821051224949323e-01
            1.018182210379144e-01 3.880727609243950e-02 1.011958164082393e-01 3.140912791006133e-02 -3.782356458998791e-01 4.820884753915912e-01 2.576214795063056e-02 6.557188972282571e-02
            2.575570823416916e-02 6.553443622886768e-02 -3.782178013010287e-01 4.820365587921500e-01 1.027009335036966e-01 3.066724314512129e-02 1.022705121559351e-01 3.653971608444004e-02
            -3.782003368082725e-01 4.820234762333372e-01 2.573318520461990e-02 6.551080989600494e-02 1.022745021785365e-01 3.645458230262272e-02 1.026933482848250e-01 3.070119908921148e-02
259075000.0000000000 1.196550171247728e-01 1.304017888311618e-02 1.206084612307886e-01 1.943438519174206e-02 4.809219262830674e-02 5.108900021371091e-02 -1.900079568893284e-01 5.797611407845619e-01
            1.205175664585519e-01 1.941303726080535e-02 1.197059872102757e-01 1.316527022491218e-02 -1.899701183804213e-01 5.796641629326007e-01 4.819531185958779e-02 5.116440239193825e-02
            4.819571420514827e-02 5.119260488084496e-02 -1.899286475105768e-01 5.796792288196136e-01 1.205410815961678e-01 1.230280913241592e-02 1.207889870719629e-01 1.686800487162136e-02
            -1.900026605698462e-01 5.796673289724085e-01 4.809151268675488e-02 5.104310218776075e-02 1.207972778538258e-01 1.686027001250442e-02 1.204888883525373e-01 1.230786053131548e-02
259907500.0000000000 1.218522688440653e-01 -1.258147912836954e-02 1.231057655541341e-01 -7.230913609109876e-03 6.297206159155885e-02 3.145223348057868e-02 1.885599824526928e-02 6.090995089293771e-01
            1.230501743561985e-01 -7.232862258394317e-03 1.218240113157771e-01 -1.254916316057397e-02 1.882757997896101e-02 6.090230962034484e-01 6.304686440422085e-02 3.159546300144297e-02
            6.292526205865501e-02 3.150474743007858e-02 1.881216863623507e-02 6.090332587435422e-01 1.222192575536187e-01 -1.317583972972014e-02 1.227675154116958e-01 -9.711052920691547e-03
            1.882167773189165e-02 6.090925096531179e-01 6.291806462208079e-02 3.151263601191738e-02 1.227143997229649e-01 -9.752800404133065e-03 1.222832028175850e-01 -1.307352220934336e-02
260740000.0000000000 1.066960923970289e-01 -3.352774676516698e-02 1.083140816028306e-01 -2.943037728949659e-02 7.161021633764886e-02 9.392404874396944e-03 2.263467916879145e-01 5.671349875018058e-01
            1.083746454971435e-01 -2.936978841393600e-02 1.065964172675410e-01 -3.356521905232384e-02 2.262882013311663e-01 5.671091652117954e-01 7.167359460254516e-02 9.380546507239865e-03
            7.159258587285652e-02 9.455382884394617e-03 2.262920393623761e-01 5.671192514784849e-01 1.070405114070107e-01 -3.380999077451876e-02 1.075503639015759e-01 -3.171561376621346e-02
            2.263185658091638e-01 5.670074629572848e-01 7.162206013380495e-02 9.420053404163707e-03 1.075059711238424e-01 -3.176800404800656e-02 1.070514792145680e-01 -3.383918043178564e-02
261572500.0000000000 8.098183714356243e-02 -3.960549482531764e-02 8.288982890858626e-02 -3.701501170227087e-02 7.460235898193181e-02 -1.544381137362908e-02 4.093949715565344e-01 4.560170082319875e-01
            8.289272291498402e-02 -3.704603483543972e-02 8.090220376425852e-02 -3.963786993866922e-02 4.094037930885287e-01 4.559668536619222e-01 7.460027054713157e-02 -1.542788640086021e-02
            7.451653624577827e-02 -1.542593078679633e-02 4.094297496837345e-01 4.560360647706936e-01 8.151737751785082e-02 -3.961751988505106e-02 8.169491409642399e-02 -3.887901273289094e-02
            4.093846895713818e-01 4.560363013503438e-01 7.458963738714536e-02 -1.542236059503969e-02 8.171921083043851e-02 -3.889391530366977e-02 8.159753205918595e-02 -3.970058712573765e-02
262405000.0000000000 5.688667719513937e-02 -2.693008742799772e-02 5.862058224684455e-02 -2.611819275257900e-02 6.935372396160470e-02 -4.341490277318154e-02 5.440678130917432e-01 2.858406275103004e-01
            5.860805267226554e-02 -2.611207648644140e-02 5.693772260108036e-02 -2.687777645229103e-02 5.441164471461365e-01 2.859070427997636e-01 6.935883358281315e-02 -4.343548322018171e-02
            6.928667152762391e-02 -4.342038240168348e-02 5.440951853789547e-01 2.858939937885430e-01 5.807579648636726e-02 -2.700276350747202e-02 5.745906198280594e-02 -2.750706825433432e-02
            5.440886322356125e-01 2.858070341730067e-01 6.932739177399413e-02 -4.332776269130625e-02 5.744702129157608e-02 -2.751041683881322e-02 5.804939983157228e-02 -2.701546734440910e-02
263237500.0000000000 4.723188950193771e-02 -9.193060756686229e-04 4.795908043117279e-02 -1.980883443663199e-03 5.175715721745733e-02 -7.080156418316592e-02 6.096982360190392e-01 7.738365273802703e-02
            4.793546054374085e-02 -2.007633974292628e-03 4.727049527269750e-02 -9.115812056511710e-04 6.096982928358420e-01 7.733598254667221e-02 5.174797551117607e-02 -7.072703255010994e-02
            5.179068099232893e-02 -7.072839324600713e-02 6.096956720448713e-01 7.729203464180198e-02 4.888892076672295e-02 -1.334656129881636e-03 4.681802741586723e-02 -2.918578540680908e-03
            6.097071766710841e-01 7.733936306832613e-02 5.181224776889064e-02 -7.069396425250357e-02 4.683971247579385e-02 -2.849221060345391e-03 4.894138268353845e-02 -1.367879505330461e-03
264070000.0000000000 5.722449688876059e-02 2.517949968840837e-02 5.627026184207511e-02 2.284524209340888e-02 2.144160137697467e-02 -8.972225560776423e-02 5.959763911094861e-01 -1.402072668109876e-01
            5.621147331265072e-02 2.285685890733278e-02 5.721380655371653e-02 2.519761464576794e-02 5.960084900528047e-01 -1.401853767277096e-01 2.149439398484951e-02 -8.978558111365846e-02
            2.147055699141935e-02 -8.984994594841139e-02 5.959891718138768e-01 -1.401256046957380e-01 5.939156443653767e-02 2.417590105328141e-02 5.536287240949439e-02 2.205188655894051e-02
            5.960427668965180e-01 -1.401735612010376e-01 2.152536938738581e-02 -8.979922010054953e-02 5.537348575462110e-02 2.222479159692261e-02 5.937030439445845e-02 2.411530411706408e-02
264902500.0000000000 8.191944607964678e-02 3.818708480939394e-02 7.873621828324809e-02 3.523488280077991e-02 -1.558820179077877e-02 -9.369939824432176e-02 5.071975189646639e-01 -3.362574009231016e-01
            7.866869800615871e-02 3.532461154970108e-02 8.184721967256027e-02 3.814110093253065e-02 5.071449193913593e-01 -3.362019820773500e-01 -1.556488361402117e-02 -9.371613283512834e-02
            -1.559519306070527e-02 -9.377829199369386e-02 5.072199980397551e-01 -3.360956387907105e-01 8.395425310646487e-02 3.621399656312321e-02 7.799244200641522e-02 3.468619764826767e-02
            5.071224183784615e-01 -3.362712144327037e-01 -1.561092106369659e-02 -9.368258315558811e-02 7.798500806820621e-02 3.474408211791716e-02 8.404603220114534e-02 3.616266251289244e-02
265735000.0000000000 1.086348645566721e-01 3.220887823196675e-02 1.032031223865871e-01 2.968091277787357e-02 -5.030832205887318e-02 -8.153375368761002e-02 3.584383051828350e-01 -4.870534268811365e-01
            1.031597055392055e-01 2.966721809903210e-02 1.085881791466160e-01 3.218801014052202e-02 3.584924975974562e-01 -4.870477931421043e-01 -5.035649420391935e-02 -8.163753573902258e-02
            -5.035071839820197e-02 -8.161532364746037e-02 3.584593140179285e-01 -4.869769375042855e-01 1.104119889654109e-01 2.939006612591785e-02 1.026811435222799e-01 2.929802034093462e-02
            3.584760331083041e-01 -4.870685746789236e-01 -5.027833554844105e-02 -8.157988362637954e-02 1.027472367012057e-01 2.925168340317640e-02 1.103975850326789e-01 2.935443820897824e-02
266567500.0000000000 1.249300738262142e-01 1.080232688365335e-02 1.179354712270862e-01 9.659947052337988e-03 -7.634991788047124e-02 -5.796895998488016e-02 1.700717999836629e-01 -5.778569183973670e-01
            1.180242144587557e-01 9.698799953527501e-03 1.250009642111468e-01 1.069679486758405e-02 1.700952244012824e-01 -5.778450479242700e-01 -7.619060878516183e-02 -5.799840869153785e-02
            -7.635546587183377e-02 -5.796887797188018e-02 1.701116634460895e-01 -5.777665793815430e-01 1.260868850229133e-01 7.483503525993972e-03 1.175092825621143e-01 9.311307864817769e-03
            1.700450440807445e-01 -5.778302289694758e-01 -7.632055175715248e-02 -5.797708883509664e-02 1.176095064281136e-01 9.315010067614472e-03 1.261042072418189e-01 7.459152842958310e-03
267400000.0000000000 1.239971409506242e-01 -1.597609022705599e-02 1.162765844716043e-01 -1.520606629636386e-02 -9.185611756618178e-02 -2.872561306996704e-02 -3.699111892946635e-02 -6.008970635904616e-01
            1.163655308320458e-01 -1.522809878434076e-02 1.239067723399688e-01 -1.603861053678107e-02 -3.698610594581977e-02 -6.008705423537032e-01 -9.190987451450629e-02 -2.873599263362211e-02
            -9.192327483281643e-02 -2.876323425590974e-02 -3.700733609407221e-02 -6.008184653647292e-01 1.243809748992863e-01 -1.914547606037694e-02 1.160341893042894e-01 -1.530943909844123e-02
            -3.704036933960105e-02 -6.009473530860130e-01 -9.188456053807201e-02 -2.875420860614045e-02 1.159712564390117e-01 -1.530994362740928e-02 1.243341280119306e-01 -1.917137060299703e-02
268232500.0000000000 1.059582792051281e-01 -3.593401302420663e-02 9.874283307966408e-02 -3.340878318552917e-02 -9.826756560649155e-02 3.053426649849830e-03 -2.410401517325983e-01 -5.532109850401927e-01
            9.883065358337854e-02 -3.341947461114996e-02 1.060063544505645e-01 -3.590065259891503e-02 -2.411458092826782e-01 -5.532258283816451e-01 -9.833542656617754e-02 3.108719015438033e-03
            -9.833835543401401e-02 3.013339407225783e-03 -2.411535913159473e-01 -5.532084058694006e-01 1.060860646449330e-01 -3.872875506590295e-02 9.879543492963816e-02 -3.328637849533866e-02
            -2.411194451380188e-01 -5.531145387905978e-01 -9.829209184206017e-02 3.111597090083905e-03 9.887758776673494e-02 -3.328695347021468e-02 1.060979241118470e-01 -3.875729401785087e-02
269065000.0000000000 7.918095596904895e-02 -3.959870747389692e-02 7.329309136696013e-02 -3.595987241889836e-02 -9.573561781166974e-02 3.681718023795492e-02 -4.189398471219370e-01 -4.373205001434816e-01
            7.320314022302141e-02 -3.598086382184201e-02 7.910117652736866e-02 -3.959168654147670e-02 -4.188562849970090e-01 -4.373123694791882e-01 -9.573554556131114e-02 3.688584303128876e-02
            -9.566917074916170e-02 3.681832522055459e-02 -4.187998623060119e-01 -4.373164589010047e-01 7.942395109012393e-02 -4.178780848394145e-02 7.374413950914484e-02 -3.579549012413659e-02
            -4.188253898278060e-01 -4.372868755124790e-01 -9.576764925762772e-02 3.695674596680233e-02 7.372098384014529e-02 -3.583197549995641e-02 7.949358966900646e-02 -4.185250746825126e-02
269897500.0000000000 5.623783353266338e-02 -2.458177248278063e-02 5.171880441130739e-02 -2.090558288124566e-02 -8.136762068029792e-02 7.146605373356052e-02 -5.461927247822609e-01 -2.643682514140731e-01
            5.178695592848082e-02 -2.095461819615721e-02 5.622664448351958e-02 -2.452171786980731e-02 -5.462111833922275e-01 -2.642949487931582e-01 -8.140886915204881e-02 7.135956402276235e-02
            -8.143461277262737e-02 7.150236628306184e-02 -5.461749866596166e-01 -2.644128760027472e-01 5.724860970593676e-02 -2.653238512751413e-02 5.297362939547786e-02 -2.089804025323687e-02
            -5.461022222303241e-01 -2.644019563728006e-01 -8.150855291831748e-02 7.135053174072377e-02 5.291619674704744e-02 -2.093535632701884e-02 5.729012671861539e-02 -2.646416440979592e-02
270730000.0000000000 4.907158882670933e-02 2.019538207690400e-03 4.557732516748467e-02 4.949125478776681e-03 -5.275803954230032e-02 1.012254864003474e-01 -6.033992199813453e-01 -5.647852047731079e-02
            4.556993058976045e-02 4.821007131883605e-03 4.909498547361749e-02 2.033025856047051e-03 -6.034395139069312e-01 -5.640509768213260e-02 -5.265600435056792e-02 1.013224778873320e-01
            -5.276568958257143e-02 1.013240967576367e-01 -6.034410478122650e-01 -5.635669530391001e-02 5.101264411828990e-02 -2.898189050254210e-04 4.732590326797317e-02 4.143549847629482e-03
            -6.033972500824779e-01 -5.633919651924157e-02 -5.270171635081852e-02 1.012699738647793e-01 4.736899820386096e-02 4.100640977143058e-03 5.107431292190954e-02 -2.774868546701693e-04
271562500.0000000000 6.132571386951659e-02 2.645926907556965e-02 5.807644462717949e-02 2.810615478365160e-02 -1.137689732786199e-02 1.181612219652395e-01 -5.823727228071834e-01 1.571230876732463e-01
            5.803162856657148e-02 2.823309382092304e-02 6.138296568830318e-02 2.647048302972521e-02 -5.824334264658949e-01 1.572194330975440e-01 -1.132940605652716e-02 1.181712879964127e-01
            -1.132792457218230e-02 1.182126249727376e-01 -5.823929966456107e-01 1.571853934749082e-01 6.404749052887267e-02 2.312049634919172e-02 6.002385133912066e-02 2.636641229443963e-02
            -5.824156496968198e-01 1.571220553288111e-01 -1.134716850201136e-02 1.181360096726967e-01 6.004611791009641e-02 2.640218009690575e-02 6.400080041896086e-02 2.315998338892255e-02
272395000.0000000000 8.632722612896318e-02 3.652314768052834e-02 8.235739958304403e-02 3.716441154778844e-02 3.459743496159434e-02 1.162205953841522e-01 -4.887592179348360e-01 3.467772968165446e-01
            8.231245684073327e-02 3.713314972277549e-02 8.628104389760445e-02 3.650478325037106e-02 -4.887346810242115e-01 3.468222155715115e-01 3.461811145240299e-02 1.161845224514187e-01
            3.453287904145918e-02 1.162455065028945e-01 -4.887085929250230e-01 3.468542546663047e-01 8.909925388557724e-02 3.159318171865787e-02 8.405731338782253e-02 3.435024973491243e-02
            -4.887458463727081e-01 3.468246126530397e-01 3.460494083661943e-02 1.160976432303221e-01 8.400932002784986e-02 3.431537486377425e-02 8.903236268380280e-02 3.172274037023349e-02
273227500.0000000000 1.113229187960794e-01 2.809035030608166e-02 1.060286147382702e-01 2.825641503505607e-02 7.534689638869474e-02 9.605899590143877e-02 -3.380509682826799e-01 4.904169371278067e-01
            1.060337171815096e-01 2.823969699521212e-02 1.112304545905297e-01 2.813876798956137e-02 -3.381317236538816e-01 4.904203038231577e-01 7.534341819010854e-02 9.600615318701161e-02
            7.530733346331964e-02 9.603732926588078e-02 -3.380639534718026e-01 4.904790683202430e-01 1.133507615488956e-01 2.167879454948611e-02 1.068522795971277e-01 2.466004839101701e-02
            -3.379756576564584e-01 4.904939050997330e-01 7.537912705004929e-02 9.599612015917341e-02 1.068767955206121e-01 2.461680152208216e-02 1.133235052978059e-01 2.164836081646910e-02
274060000.0000000000 1.245275746963643e-01 5.815249608299922e-03 1.181890854506931e-01 6.446735607847027e-03 1.044775906736908e-01 6.337066428003288e-02 -1.500181015778906e-01 5.744386205069422e-01
            1.181050538341423e-01 6.465475123885333e-03 1.245087740955282e-01 5.852612201472910e-03 -1.499638696472370e-01 5.744129573945014e-01 1.044216134776225e-01 6.337434603041715e-02
            1.044217618810655e-01 6.335499594116477e-02 -1.500235869599368e-01 5.744618193700379e-01 1.252369199486199e-01 -1.329156998694324e-03 1.177161981426522e-01 2.581163247877886e-03
            -1.500293823769254e-01 5.743987737477688e-01 1.043915965029714e-01 6.341960690357830e-02 1.177059748044377e-01 2.559601922851628e-03 1.253135863004965e-01 -1.399394711740806e-03
274892500.0000000000 1.206768883990478e-01 -1.959169212978750e-02 1.132871228404144e-01 -1.769632159831924e-02 1.203906935259511e-01 2.457213341294571e-02 5.492347585411123e-02 5.912860786814489e-01
            1.133387933165338e-01 -1.770161303683116e-02 1.206098279162153e-01 -1.955034402352510e-02 5.481679952021667e-02 5.911543534295836e-01 1.204232596853378e-01 2.452835570874913e-02
            1.203141439049852e-01 2.455259652234378e-02 5.495401763275234e-02 5.912832869795643e-01 1.196287260929402e-01 -2.680782470714656e-02 1.117773216677242e-01 -2.134547895378174e-02
            5.494403657354173e-02 5.912009737666624e-01 1.203469933493127e-01 2.455890967392308e-02 1.118760430726495e-01 -2.137629377912117e-02 1.195779080753210e-01 -2.684640961237213e-02
275725000.0000000000 1.010288678352691e-01 -3.660188831142635e-02 9.401143223865456e-02 -3.305510650502921e-02 1.241657970832080e-01 -1.691927986181794e-02 2.552262687135320e-01 5.377639212324032e-01
            9.401189658869243e-02 -3.309883934419886e-02 1.010464596008713e-01 -3.661458328892275e-02 2.551507096310055e-01 5.377151728557222e-01 1.241341512948053e-01 -1.688508469702148e-02
            1.241506225264737e-01 -1.693559478590305e-02 2.551936284417254e-01 5.377456130983170e-01 9.891991630619303e-02 -4.289934035592269e-02 9.154744365611410e-02 -3.600664403797800e-02
            2.551989570351342e-01 5.377774116292438e-01 1.241276959201255e-01 -1.693242719652216e-02 9.157118256499161e-02 -3.606572252304591e-02 9.894600880687152e-02 -4.294050190295846e-02
276557500.0000000000 7.492394637456340e-02 -3.687421807405142e-02 6.897884940388455e-02 -3.212456369672900e-02 1.154069939942376e-01 -5.932844514310021e-02 4.270259578672563e-01 4.173551133292727e-01
            6.892661341530666e-02 -3.206104479349808e-02 7.493044382477761e-02 -3.683442256524627e-02 4.269080935778366e-01 4.172912040294508e-01 1.154196345325550e-01 -5.932135121274181e-02
            1.154417997698468e-01 -5.939075947282976e-02 4.268940423735169e-01 4.173325987194884e-01 7.239022814038705e-02 -4.175609866763282e-02 6.606932648269183e-02 -3.403666029951109e-02
            4.269535597871987e-01 4.172922766934824e-01 1.154142544236833e-01 -5.934484859243649e-02 6.608253371159888e-02 -3.402157145239077e-02 7.244654965444665e-02 -4.179216766952225e-02
277390000.0000000000 5.490426615752762e-02 -1.969495782026299e-02 5.055724135544130e-02 -1.441628019018225e-02 9.164709443953774e-02 -9.986780438506625e-02 5.463059717912417e-01 2.421746832059072e-01
            5.052206026860240e-02 -1.450314005393881e-02 5.497597023094526e-02 -1.966613591236334e-02 5.463581910757480e-01 2.422235169902932e-01 9.167878797372019e-02 -9.985196578051303e-02
            9.170083628407659e-02 -9.988151853182632e-02 5.463110347285924e-01 2.422192827883739e-01 5.323117782907261e-02 -2.333248137897428e-02 4.787917040559742e-02 -1.556561920180587e-02
            5.463056386408255e-01 2.422427302081298e-01 9.168658491838459e-02 -9.984002800139991e-02 4.790439919784068e-02 -1.559185296264041e-02 5.324429721462338e-02 -2.331499809798973e-02
278222500.0000000000 5.138827070947477e-02 6.495889356615896e-03 4.865410351935219e-02 1.124645664343304e-02 5.172335480929634e-02 -1.314328378641189e-01 5.951810036069167e-01 3.552722359385226e-02
            4.874493332904626e-02 1.117035515192408e-02 5.133906359455817e-02 6.536920193111308e-03 5.951543185578231e-01 3.550226210794349e-02 5.165938529037478e-02 -1.314493198670312e-01
            5.169804148761810e-02 -1.315089481926900e-01 5.952042929121517e-01 3.548366626753929e-02 5.128704264511382e-02 3.168996363609022e-03 4.656747758434625e-02 1.052616493080593e-02
            5.950556576882656e-01 3.557703134078356e-02 5.166300004411192e-02 -1.315186713295675e-01 4.656787054309532e-02 1.059443600602223e-02 5.126496340912556e-02 3.223808700062228e-03
279055000.0000000000 6.604778206165743e-02 2.815532478021349e-02 6.445996288877118e-02 3.153582715904090e-02 -3.574088707612372e-04 -1.454295035210575e-01 5.670521347178394e-01 -1.731655331671178e-01
            6.438088228742775e-02 3.144762705083757e-02 6.596805235252527e-02 2.823009191614928e-02 5.670669700924773e-01 -1.731922998897977e-01 -3.582013905473101e-04 -1.454601834527528e-01
            -3.339370469895956e-04 -1.454810796306535e-01 5.670484821792937e-01 -1.730791981266258e-01 6.754176688375493e-02 2.398084047484565e-02 6.281041505272809e-02 3.076452068275394e-02
            5.670464964918432e-01 -1.731255536000570e-01 -3.713316526964052e-04 -1.454363236807974e-01 6.285215875263704e-02 3.084543514195001e-02 6.755542436004210e-02 2.391775974918352e-02
279887500.0000000000 9.073414871672603e-02 3.458055627422948e-02 8.940716674935588e-02 3.610952703874774e-02 -5.463971389574325e-02 -1.370697268911715e-01 4.691317643386275e-01 -3.558646916456567e-01
            8.928791021858457e-02 3.600815278058223e-02 9.077457520246884e-02 3.458929605645276e-02 4.690271536242980e-01 -3.558243261979336e-01 -5.468027524286777e-02 -1.371516764018078e-01
            -5.470282832642064e-02 -1.370611206065290e-01 4.690634301308817e-01 -3.558505410488410e-01 9.313048135854531e-02 2.843503246832187e-02 8.786164778059374e-02 3.504776542674689e-02
            4.691646868303611e-01 -3.558127596484126e-01 -5.460570651354640e-02 -1.371507367568007e-01 8.784148917523131e-02 3.509296644181519e-02 9.313011035592263e-02 2.839091811870401e-02
280720000.0000000000 1.131050669443407e-01 2.346668710670053e-02 1.109195107658610e-01 2.349296886677770e-02 -1.006995751389427e-01 -1.087528572922154e-01 3.170164672381722e-01 -4.922343920526917e-01
            1.109819017420907e-01 2.342073048695171e-02 1.131608506668597e-01 2.343695928294019e-02 3.170978966291808e-01 -4.921409065610525e-01 -1.006524727914879e-01 -1.086539608093043e-01
            -1.006832019472900e-01 -1.086970920420856e-01 3.170457262413144e-01 -4.922299140503860e-01 1.150659280531990e-01 1.503830531679070e-02 1.092313777905783e-01 2.232286515189379e-02
            3.170393020646958e-01 -4.922201339289101e-01 -1.007134598690909e-01 -1.086768591656250e-01 1.091604722253864e-01 2.232438547739002e-02 1.151366927608801e-01 1.500461116007017e-02
281552500.0000000000 1.228295109554702e-01 1.083080760857136e-03 1.191910616661717e-01 1.260685875491959e-04 -1.323636154287942e-01 -6.704393490767045e-02 1.298749651811674e-01 -5.692642483294824e-01
            1.192029056376524e-01 1.548963620706695e-04 1.228409300309411e-01 9.813368800271150e-04 1.298879685314835e-01 -5.692862415217030e-01 -1.323169520463776e-01 -6.708429616252837e-02
            -1.322998035242632e-01 -6.697440356706803e-02 1.299913104838429e-01 -5.693444054418786e-01 1.232434144220979e-01 -9.249277170409473e-03 1.170437710243594e-01 -9.257586188670305e-04
            1.299589721690413e-01 -5.692880641603377e-01 -1.323786279664726e-01 -6.701599471424828e-02 1.170305477551938e-01 -9.533009725119244e-04 1.232156544837437e-01 -9.322891160314565e-03
282385000.0000000000 1.157268422704888e-01 -2.242504696175942e-02 1.105775429415751e-01 -2.314776866449126e-02 -1.481710000985849e-01 -1.870606983346934e-02 -7.241166483733509e-02 -5.797624452844018e-01
            1.106023452623100e-01 -2.301612397917235e-02 1.157558102588530e-01 -2.244760930231072e-02 -7.236433196400015e-02 -5.797490087547525e-01 -1.481666072744754e-01 -1.870088292003377e-02
            -1.482286015300101e-01 -1.865420337095020e-02 -7.240155676710391e-02 -5.797847589529148e-01 1.138027816302907e-01 -3.343880145018378e-02 1.080373993272566e-01 -2.365447040415282e-02
            -7.245912213264538e-02 -5.797358755845944e-01 -1.482534462636327e-01 -1.876922388108058e-02 1.080946763353961e-01 -2.376003766059438e-02 1.137564203848280e-01 -3.335832733191801e-02
283217500.0000000000 9.510992510615442e-02 -3.578217792467044e-02 8.884112059689173e-02 -3.544029403533778e-02 -1.487579882376106e-01 3.218215372798911e-02 -2.681487312382450e-01 -5.208401309264674e-01
            8.872480915644544e-02 -3.550401274717252e-02 9.502450372424857e-02 -3.579215628524883e-02 -2.681257309713928e-01 -5.207934086911810e-01 -1.487473576875682e-01 3.215439582649059e-02
            -1.487918592307978e-01 3.210719565480798e-02 -2.681903323264541e-01 -5.207964780367701e-01 9.096010112329556e-02 -4.604306592579278e-02 8.634893798127356e-02 -3.538872425165245e-02
            -2.681206662801460e-01 -5.208157836009129e-01 -1.487904837852274e-01 3.208317446055986e-02 8.640921653203787e-02 -3.535838666359967e-02 9.092509129146574e-02 -4.603204681709228e-02
284050000.0000000000 7.031175063053460e-02 -3.231729521446701e-02 6.358075685462430e-02 -3.063312633522835e-02 -1.333312183686797e-01 8.283350418845722e-02 -4.334141260106076e-01 -3.962293666339921e-01
            6.372372794484894e-02 -3.067403025025049e-02 7.036957249013308e-02 -3.237091461732450e-02 -4.333586052423015e-01 -3.961842507528306e-01 -1.334155880708260e-01 8.290332483166098e-02
            -1.333140986369029e-01 8.280831715548843e-02 -4.333351736728405e-01 -3.962254475154089e-01 6.513405259409173e-02 -4.088920360169964e-02 6.202404114178346e-02 -2.993603262456012e-02
            -4.333484509412836e-01 -3.961791467499037e-01 -1.333266036738014e-01 8.286544824816655e-02 6.206673398568636e-02 -2.992109041464909e-02 6.511438871210097e-02 -4.087693575276924e-02
284882500.0000000000 5.386414311950675e-02 -1.329501865376868e-02 4.772753823415089e-02 -1.027787536276626e-02 -9.982905117490684e-02 1.284894145231633e-01 -5.444518275042969e-01 -2.197137712545424e-01
            4.774806713189816e-02 -1.033848508393389e-02 5.386818868241110e-02 -1.324783107003751e-02 -5.445139697846501e-01 -2.197155697730171e-01 -9.987401762813773e-02 1.284805530200894e-01
            -9.982636399473818e-02 1.285621130650231e-01 -5.445425688664902e-01 -2.196439183695515e-01 4.892045193567340e-02 -2.002021941790898e-02 4.731583144184355e-02 -9.519405032672897e-03
            -5.445274225149677e-01 -2.196990932236099e-01 -9.986695848670502e-02 1.284920366296151e-01 4.733099133424760e-02 -9.373890380950579e-03 4.895583544253085e-02 -1.993675618670164e-02
285715000.0000000000 5.421100932970880e-02 1.206046729967255e-02 4.921288710551671e-02 1.562050222420559e-02 -4.876233115075372e-02 1.608655659005544e-01 -5.849051153707387e-01 -1.520583415607205e-02
            4.922409941528560e-02 1.568031323598041e-02 5.420192055790664e-02 1.210081753614078e-02 -5.848949790217643e-01 -1.528005077542605e-02 -4.879690239118111e-02 1.607730221062385e-01
            -4.875874616763878e-02 1.608484084087547e-01 -5.847988306146487e-01 -1.524766481912315e-02 5.097540055995471e-02 6.124080457555967e-03 5.013773780605093e-02 1.545743889237231e-02
            -5.848900567928003e-01 -1.531428226875308e-02 -4.879027328202020e-02 1.608621079719416e-01 5.014968119799521e-02 1.546242055145397e-02 5.098751442940731e-02 6.110889288344253e-03
286547500.0000000000 7.091805177213362e-02 3.054823970821118e-02 6.726566507506530e-02 3.383291348223487e-02 1.340375454650237e-02 1.713035283316156e-01 -5.501470942889800e-01 1.879012124193873e-01
            6.726678539303117e-02 3.381878284171734e-02 7.095706204079213e-02 3.055203892931454e-02 -5.502218903176369e-01 1.879430656183745e-01 1.345969224072237e-02 1.712848127527224e-01
            1.349181245541799e-02 1.712853909192513e-01 -5.501790983475131e-01 1.879127223108276e-01 6.964084317541196e-02 2.362256997940628e-02 6.876569298062221e-02 3.192291659881061e-02
            -5.501672104416302e-01 1.879223887987518e-01 1.333729843495348e-02 1.713335605647963e-01 6.875303593493724e-02 3.191923447662987e-02 6.966657899703564e-02 2.361890506453862e-02
287380000.0000000000 9.507568626002753e-02 3.342057464815645e-02 9.230038134230573e-02 3.588803686169570e-02 7.531236209911002e-02 1.564577809749285e-01 -4.485644514891281e-01 3.635667675424530e-01
            9.222971139030439e-02 3.598249052224465e-02 9.509735227675745e-02 3.348620247466146e-02 -4.486348237913184e-01 3.634890569863516e-01 7.530770288973636e-02 1.564151711205691e-01
            7.536145697275826e-02 1.563575651881885e-01 -4.485896401669372e-01 3.636173191100117e-01 9.488542339031970e-02 2.393782743528136e-02 9.326194327143099e-02 3.160470217897311e-02
            -4.486739862418753e-01 3.635404997459087e-01 7.527954748969085e-02 1.565180472546751e-01 9.316683291829830e-02 3.156247675957503e-02 9.482917508152672e-02 2.388360957678280e-02
288212500.0000000000 1.147890154219274e-01 2.051520324731139e-02 1.119742857767069e-01 2.169368800146100e-02 1.261752344493811e-01 1.199197091544037e-01 -2.957688025460137e-01 4.924881353126668e-01
            1.119591627598511e-01 2.174015346399186e-02 1.147491190436037e-01 2.047404981334914e-02 -2.957210273818108e-01 4.924818932681098e-01 1.262605954689259e-01 1.199441127093856e-01
            1.262185589892180e-01 1.199596332452403e-01 -2.957227747259122e-01 4.925363334983101e-01 1.136651000982375e-01 7.369879412045163e-03 1.110472336321590e-01 1.523538300519515e-02
            -2.957672503523384e-01 4.923934125708201e-01 1.262260452828951e-01 1.199318942464125e-01 1.110732958804363e-01 1.531286087990746e-02 1.136163090599854e-01 7.372046599005371e-03
289045000.0000000000 1.212389062501796e-01 -1.424799591711663e-03 1.178579236001518e-01 -1.310404983764900e-03 1.600935623880586e-01 6.924695982444663e-02 -1.097677270111672e-01 5.627305918518293e-01
            1.178591768597667e-01 -1.302120039872003e-03 1.212076947509422e-01 -1.506179456811672e-03 -1.097472545608403e-01 5.627082793838362e-01 1.601397890012333e-01 6.934232843752293e-02
            1.601781561743601e-01 6.922827288244016e-02 -1.097989352192025e-01 5.627177090106847e-01 1.170404075174003e-01 -1.757460624075553e-02 1.139272016646953e-01 -8.903629177718170e-03
            -1.097929243653537e-01 5.627090616344990e-01 1.601129529361389e-01 6.921986045730510e-02 1.138195605636156e-01 -8.876518336433792e-03 1.169666221560163e-01 -1.763916809452354e-02
289877500.0000000000 1.121911051032106e-01 -2.198021836991815e-02 1.077374486044037e-01 -2.227581003369321e-02 1.755554887573039e-01 1.139412152822257e-02 8.961309707045073e-02 5.668385584359085e-01
            1.076867213926775e-01 -2.220597980474716e-02 1.121871436910080e-01 -2.202503745325033e-02 8.962939551841088e-02 5.668662020143088e-01 1.756228123523278e-01 1.143979701767678e-02
            1.756399827307764e-01 1.140365011973803e-02 8.965314584186858e-02 5.668093510937579e-01 1.030704987419314e-01 -3.945533088886706e-02 9.993372897463436e-02 -2.954104782782005e-02
            8.956743904485283e-02 5.668536801177905e-01 1.755533793370311e-01 1.142635435265815e-02 9.999361330421741e-02 -2.943371537339682e-02 1.030408832458243e-01 -3.946739942218916e-02
290710000.0000000000 9.221770922432927e-02 -3.142907668025313e-02 8.655137253042237e-02 -3.139087984753454e-02 1.723689528810846e-01 -4.875096869815876e-02 2.802984159590471e-01 5.021832252621239e-01
            8.658373547673799e-02 -3.132010790834993e-02 9.218579587303329e-02 -3.148624099305197e-02 2.803084463700823e-01 5.021846994710730e-01 1.725060675075415e-01 -4.890783270177913e-02
            1.724797147195314e-01 -4.881321500434344e-02 2.804036932801778e-01 5.022714208045785e-01 7.731386246752575e-02 -4.766101463879036e-02 7.524416122246906e-02 -3.652354396801794e-02
            2.803443958029982e-01 5.022454405634829e-01 1.724741423265934e-01 -4.881837871302146e-02 7.522364796758747e-02 -3.645753942124445e-02 7.738442788768614e-02 -4.765193896777773e-02
291542500.0000000000 7.105258072032025e-02 -2.512462861156007e-02 6.481152331166237e-02 -2.399694373849131e-02 1.495961897162015e-01 -1.074763104720307e-01 4.382883901826552e-01 3.737351382314054e-01
            6.484031978892625e-02 -2.399002675201749e-02 7.102753487846275e-02 -2.514619171662653e-02 4.383134326829075e-01 3.736598718369027e-01 1.496766193536679e-01 -1.073814898655430e-01
            1.496802086244723e-01 -1.074673898247515e-01 4.382884850982678e-01 3.736802389582132e-01 5.173262901160883e-02 -3.704341390831655e-02 5.086485677411454e-02 -2.558326343024941e-02
            4.382323484796393e-01 3.737544586408457e-01 1.497283905691908e-01 -1.073404084140536e-01 5.086048083788897e-02 -2.549307289873037e-02 5.181157323049476e-02 -3.710323711960269e-02
292375000.0000000000 6.000104689557244e-02 -6.346894714808418e-03 5.405414125463726e-02 -3.869353276483454e-03 1.059011573429684e-01 -1.575714338034359e-01 5.405231792265996e-01 1.964837835540354e-01
            5.404048251200638e-02 -3.895123607286883e-03 6.000975866611607e-02 -6.284477982610575e-03 5.405357503058918e-01 1.965325983675888e-01 1.059420020510896e-01 -1.575801531782840e-01
            1.059096203079149e-01 -1.575950153102286e-01 5.405642599923132e-01 1.964931334438167e-01 3.863392674723434e-02 -1.213399219179510e-02 3.901914368306423e-02 -7.512285127637404e-04
            5.405283225475194e-01 1.964619325383530e-01 1.059372456104550e-01 -1.574984849434638e-01 3.897678649069273e-02 -7.051196556109871e-04 3.866394739465732e-02 -1.211639357472245e-02
293207500.0000000000 6.484906609297382e-02 1.475324899711202e-02 5.999863556218547e-02 1.811894732331720e-02 4.373275929203957e-02 -1.897206420695757e-01 5.724478343946399e-01 -4.709895431968944e-03
            6.001029833117782e-02 1.820972810169135e-02 6.480014414783164e-02 1.479683528269063e-02 5.723799023872225e-01 -4.606225631488297e-03 4.364457371271791e-02 -1.897271565085927e-01
            4.373577977653469e-02 -1.896843254500610e-01 5.723813378649021e-01 -4.675284137919798e-03 4.484268403762453e-02 1.519451102051136e-02 4.590534624804856e-02 2.600775937561790e-02
            5.723637622370080e-01 -4.722164276797946e-03 4.370859998002570e-02 -1.897030861861684e-01 4.590356214859694e-02 2.601664873273299e-02 4.480216535193135e-02 1.520103370678799e-02
294040000.0000000000 8.266019370307168e-02 2.656614690297975e-02 7.944194363283609e-02 2.999745803889224e-02 -2.808336580299511e-02 -1.957116068302431e-01 5.314729358326612e-01 -2.014054272680309e-01
            7.952697970842126e-02 2.992033675063253e-02 8.261748703864023e-02 2.667656003168219e-02 5.315400990538665e-01 -2.014247268255997e-01 -2.806940106939021e-02 -1.957023171660555e-01
            -2.814256274240108e-02 -1.957857987600891e-01 5.315884943940389e-01 -2.014028412456519e-01 6.669696772098413e-02 3.150957046958602e-02 6.792656288671280e-02 4.185552343967205e-02
            5.316110027329357e-01 -2.014478112543429e-01 -2.808570564939281e-02 -1.957716138203264e-01 6.781618839807294e-02 4.186245284779884e-02 6.677765358059039e-02 3.153282729638044e-02
294872500.0000000000 1.034382824889694e-01 2.312445676967824e-02 1.019138318103128e-01 2.553651210324299e-02 -9.692898285749026e-02 -1.740038986029495e-01 4.270346125736605e-01 -3.693976544498805e-01
            1.019049327933586e-01 2.549857155008199e-02 1.034278752913672e-01 2.314594568925656e-02 4.270866426112744e-01 -3.694025797406794e-01 -9.690038187390372e-02 -1.738915315425383e-01
            -9.687369423327143e-02 -1.739045903917402e-01 4.270537532122734e-01 -3.694934145359007e-01 9.296432620321275e-02 2.968319444431989e-02 9.379281992125384e-02 4.008584073759609e-02
            4.270455225400346e-01 -3.695178764389644e-01 -9.687559328530224e-02 -1.738856075179759e-01 9.385331977882902e-02 4.003594881787641e-02 9.291647418738258e-02 2.965970226970475e-02
295705000.0000000000 1.164789040409918e-01 6.628142880249372e-03 1.158934438149414e-01 7.018801308846231e-03 -1.519616062346691e-01 -1.291748065331490e-01 2.738899407318754e-01 -4.909849261722469e-01
            1.159818728979523e-01 6.933558265507739e-03 1.165315632986924e-01 6.721514421014902e-03 2.739171643177219e-01 -4.909865867306450e-01 -1.519440054943225e-01 -1.291556390313760e-01
            -1.519908759704658e-01 -1.291661826124874e-01 2.739494687404290e-01 -4.909332611701607e-01 1.110501062364845e-01 1.195407606674318e-02 1.116235723143384e-01 2.320652341720371e-02
            2.739202189279506e-01 -4.909421639381100e-01 -1.520136004273286e-01 -1.292614460143596e-01 1.116721201421040e-01 2.319869770845680e-02 1.110154804308953e-01 1.189044258636176e-02
296537500.0000000000 1.152532135497282e-01 -1.456107680542132e-02 1.145648316322899e-01 -1.686629840922687e-02 -1.876750341407192e-01 -6.966199752295281e-02 8.970129542062756e-02 -5.543132874122663e-01
            1.145327860036352e-01 -1.684176518968180e-02 1.152120887895869e-01 -1.453102782509771e-02 8.962765485965582e-02 -5.542808888193684e-01 -1.876492969732539e-01 -6.976451200709134e-02
            -1.875899325196437e-01 -6.972955670220558e-02 8.972646162188799e-02 -5.543198374281602e-01 1.129467206833135e-01 -1.269920375610353e-02 1.143037106500890e-01 6.389686632642066e-05
            8.968719117168832e-02 -5.543028736506961e-01 -1.876446153993803e-01 -6.968774282577020e-02 1.143056870626253e-01 -2.798116102304830e-05 1.129502619516776e-01 -1.281292562195763e-02
297370000.0000000000 9.991446328553669e-02 -3.011090540192123e-02 9.752926275878641e-02 -3.486737160800584e-02 -2.021617609303444e-01 -2.553659898019723e-03 -1.062153335789352e-01 -5.520950213689764e-01
            9.755978458307532e-02 -3.498373760545281e-02 9.992277681056179e-02 -3.001209554414835e-02 -1.062484264352206e-01 -5.520512515378869e-01 -2.021280546541929e-01 -2.558585495168195e-03
            -2.021633235204674e-01 -2.533363323364527e-03 -1.062034530083381e-01 -5.520737656096113e-01 9.819725590481436e-02 -3.259172824334917e-02 1.013924303175933e-01 -1.818795538781924e-02
            -1.062366215589299e-01 -5.520401072452614e-01 -2.021784918179437e-01 -2.543311341577108e-03 1.014022914162936e-01 -1.817970285146650e-02 9.817162824078232e-02 -3.259224189277474e-02
298202500.0000000000 7.732817757040761e-02 -3.168671831332463e-02 7.195503000202401e-02 -3.806833201939986e-02 -1.949422058379351e-01 6.698718938678025e-02 -2.914129088451987e-01 -4.819711897120337e-01
            7.204158033542808e-02 -3.801674802011133e-02 7.732238688738553e-02 -3.154843240886516e-02 -2.914499286310384e-01 -4.820076802275884e-01 -1.948798096741672e-01 6.700244009611456e-02
            -1.948347474466730e-01 6.703037802234772e-02 -2.914391525062207e-01 -4.819732749817768e-01 7.380059154013839e-02 -3.781303251234570e-02 7.995569808247679e-02 -2.271055029863445e-02
            -2.913647119117161e-01 -4.820178838105186e-01 -1.948804150614115e-01 6.697347831393152e-02 8.000352002673207e-02 -2.267498191519071e-02 7.381006962874660e-02 -3.791863607357640e-02
299035000.0000000000 5.851056699345129e-02 -1.727601694720347e-02 4.949178477265724e-02 -2.362759103006872e-02 -1.641590611748249e-01 1.330819947744994e-01 -4.413100340336920e-01 -3.498618047364485e-01
            4.948362589028771e-02 -2.359115742442199e-02 5.857370711997802e-02 -1.725383241864809e-02 -4.414440587698685e-01 -3.498491694447923e-01 -1.642888189897976e-01 1.330630585477983e-01
            -1.642127824085295e-01 1.331512569664811e-01 -4.413627897977737e-01 -3.498974591793954e-01 5.168637456500194e-02 -2.516509903889125e-02 6.141279339052166e-02 -1.080222020167552e-02
            -4.414089574678516e-01 -3.499425999949364e-01 -1.641570994758179e-01 1.331631473523779e-01 6.132441378879092e-02 -1.068123809275748e-02 5.167511986884047e-02 -2.522800788386165e-02
299867500.0000000000 5.396980988581920e-02 7.003293099079208e-03 4.140151342968115e-02 2.227249110279350e-03 -1.096500490608595e-01 1.870533939603531e-01 -5.340842671287058e-01 -1.726819861514921e-01
            4.133717030667972e-02 2.244601048477918e-03 5.393960153154984e-02 6.949237038547836e-03 -5.342055974141829e-01 -1.726941045986061e-01 -1.096322491391244e-01 1.869116049438050e-01
            -1.096241109987805e-01 1.870267795953775e-01 -5.341443263312520e-01 -1.726524333660371e-01 4.338862350233369e-02 -7.502504170601341e-04 5.659267466572610e-02 1.139167090009618e-02
            -5.341335975082844e-01 -1.726816637263643e-01 -1.096795512896299e-01 1.870623995342650e-01 5.653119015909121e-02 1.140346086962129e-02 4.340536712628241e-02 -8.404244332806545e-04
300700000.0000000000 6.684883377261966e-02 2.847797992176438e-02 5.191478039777356e-02 2.723783382291567e-02 -3.603009191848036e-02 2.180139783714684e-01 -5.572781314868481e-01 2.421987321395296e-02
            5.196397824004499e-02 2.721978866914002e-02 6.689382297968349e-02 2.845715225372499e-02 -5.571388116088901e-01 2.418078472947124e-02 -3.603117326821487e-02 2.179273518815711e-01
            -3.603825601848341e-02 2.179889066902996e-01 -5.571227480239895e-01 2.424765911461831e-02 5.335539730749643e-02 2.293959747988384e-02 6.895773320103279e-02 3.148244323740560e-02
            -5.571806615191179e-01 2.418352407777888e-02 -3.607793615554330e-02 2.179416085345983e-01 6.896880281075239e-02 3.146327934072701e-02 5.338696896662779e-02 2.302492849025349e-02
301532500.0000000000 9.097962630232340e-02 3.642540734345370e-02 7.523113114696092e-02 3.933112815204208e-02 4.501868282302149e-02 2.185372533959548e-01 -5.104523131782658e-01 2.134982281732332e-01
            7.521910128610446e-02 3.937195579971477e-02 9.095942942284282e-02 3.640001906763123e-02 -5.104157825609453e-01 2.133873611726712e-01 4.508527077214457e-02 2.186211122934108e-01
            4.503255425138047e-02 2.186532163991851e-01 -5.104720066173066e-01 2.134697190662805e-01 7.605763577041433e-02 3.394208496201343e-02 9.250829597349423e-02 3.818792064826503e-02
            -5.104390702983482e-01 2.133556188837484e-01 4.503643204022422e-02 2.185045806171791e-01 9.250561283474006e-02 3.810983130920350e-02 7.617486230337765e-02 3.404290725644039e-02
302365000.0000000000 1.145445918871730e-01 2.695696192336797e-02 1.000084886009373e-01 3.413847794202148e-02 1.200020640254399e-01 1.888376685495815e-01 -4.037451379623831e-01 3.728026328234230e-01
            1.001168616495568e-01 3.417485011723390e-02 1.145257399635678e-01 2.698372352743169e-02 -4.038149925684468e-01 3.727992756112954e-01 1.199328487289025e-01 1.888429054528599e-01
            1.199336284811812e-01 1.887901189049465e-01 -4.038295366382936e-01 3.728153065298724e-01 9.996334781262022e-02 2.755671476888842e-02 1.154320726379017e-01 2.754994848578217e-02
            -4.038791538104963e-01 3.727457150173607e-01 1.199602404868150e-01 1.888152510602572e-01 1.154544388820414e-01 2.756004432537485e-02 9.994565148163993e-02 2.754572181502574e-02
303197500.0000000000 1.266191154029488e-01 4.737830762592619e-03 1.151194827658211e-01 1.524697652958001e-02 1.780435947784570e-01 1.354601513766482e-01 -2.516797353745332e-01 4.862161014406842e-01
            1.151981603789544e-01 1.527369808740778e-02 1.266531553999078e-01 4.687953273604317e-03 -2.516494744381361e-01 4.861899850045602e-01 1.779927237238126e-01 1.354972238183531e-01
            1.779705677107787e-01 1.354543760664525e-01 -2.517042570341803e-01 4.862783939086198e-01 1.134324168952269e-01 7.759520284446890e-03 1.268961527377242e-01 4.409000559802567e-03
            -2.517078217846556e-01 4.861901737721194e-01 1.780006423813934e-01 1.355600212169780e-01 1.268597865651618e-01 4.404482818421094e-03 1.134617754017577e-01 7.712114275019308e-03
304030000.0000000000 1.219746075607081e-01 -2.022685233297297e-02 1.148128301039425e-01 -8.041960971043932e-03 2.139638765739815e-01 6.716520998844598e-02 -7.067160862724060e-02 5.427406625242326e-01
            1.148705166362246e-01 -8.042452528490921e-03 1.220756652132840e-01 -2.022626274244027e-02 -7.065050936516545e-02 5.427402530767299e-01 2.139368608211326e-01 6.721083005114364e-02
            2.139811777568873e-01 6.723431862517362e-02 -7.050757673861609e-02 5.427992730916857e-01 1.107961168486872e-01 -1.586960277614219e-02 1.214332299862607e-01 -2.144121848534148e-02
            -7.062517229402640e-02 5.427744784502063e-01 2.139378708278247e-01 6.719864768143539e-02 1.214600279117027e-01 -2.142121285519398e-02 1.107531432026024e-01 -1.588149186840069e-02
304862500.0000000000 1.025497264970845e-01 -3.678658341443811e-02 9.982169335307357e-02 -2.496316886952136e-02 2.263680162572193e-01 -8.547927872724870e-03 1.204908995777096e-01 5.350000119969492e-01
            9.981532961375850e-02 -2.494316732577214e-02 1.025438759983819e-01 -3.686379758208379e-02 1.204850468992566e-01 5.350567950490630e-01 2.263543977156900e-01 -8.625341961489110e-03
            2.263875154605493e-01 -8.617361799499025e-03 1.204322158240247e-01 5.349739851501246e-01 9.310404157434944e-02 -3.202902760906514e-02 1.009396324947995e-01 -3.858708319803182e-02
            1.204540902937263e-01 5.350125678944594e-01 2.263428898969388e-01 -8.593206782324697e-03 1.009516717245831e-01 -3.859428424861228e-02 9.299463725679200e-02 -3.203651903299734e-02
305695000.0000000000 7.666461947934938e-02 -3.707432263041198e-02 7.763378061460204e-02 -2.748644070600305e-02 2.140892946770862e-01 -8.589805474304690e-02 2.991956204354218e-01 4.607933664739809e-01
            7.775480319479590e-02 -2.749597075479611e-02 7.665662989529400e-02 -3.714752238521956e-02 2.993044734813780e-01 4.608000729559842e-01 2.140634130927399e-01 -8.594281817001585e-02
            2.140882195896193e-01 -8.595553815631961e-02 2.992733359185768e-01 4.607547705355992e-01 6.851206849718994e-02 -3.225459845946103e-02 7.405867451312444e-02 -3.928245801732264e-02
            2.992679726067620e-01 4.608670182007808e-01 2.141100762434641e-01 -8.590604872758710e-02 7.396849098550981e-02 -3.932207074695310e-02 6.857983872041626e-02 -3.230662749052982e-02
306527500.0000000000 5.646649464953808e-02 -2.024853909185422e-02 5.983415294783910e-02 -1.419140286271050e-02 1.755244223522164e-01 -1.579444096764016e-01 4.412596267333423e-01 3.269311716735801e-01
            5.988888156897221e-02 -1.421750037479302e-02 5.648411004841997e-02 -2.023784513881585e-02 4.412917186077114e-01 3.268917549927619e-01 1.755148259155774e-01 -1.579021192199270e-01
            1.754580462828710e-01 -1.578734853169848e-01 4.412725738196596e-01 3.269019928715823e-01 4.950699799146969e-02 -1.555717763057639e-02 5.282106803912246e-02 -2.253236602510940e-02
            4.412210656050954e-01 3.269436613980684e-01 1.755156270302528e-01 -1.579418952035813e-01 5.291760696030013e-02 -2.264364792385557e-02 4.947951010547448e-02 -1.555059432260329e-02
307360000.0000000000 5.228341776272425e-02 5.686501724798923e-03 5.628284228977251e-02 7.798397824796315e-03 1.111829524529511e-01 -2.142347993165835e-01 5.256841823833794e-01 1.510932554024080e-01
            5.628750983100371e-02 7.678874405214475e-03 5.227799288537126e-02 5.709958246190252e-03 5.255987676206922e-01 1.510787894488637e-01 1.111763512373951e-01 -2.142396573856438e-01
            1.111688530441263e-01 -2.143423797762944e-01 5.256264759270648e-01 1.510260850298303e-01 4.638079622878866e-02 1.043816978010234e-02 4.792654772282558e-02 3.427786288624908e-03
            5.256392630123260e-01 1.509829625416557e-01 1.112206223497749e-01 -2.142256180732377e-01 4.791233290485245e-02 3.392097650807905e-03 4.635078742606963e-02 1.044110265276241e-02
308192500.0000000000 6.612190804724591e-02 2.772150667112827e-02 6.899376584758220e-02 2.617812164660041e-02 2.792368705598807e-02 -2.436542524958628e-01 5.414526561697391e-01 -4.124046587027638e-02
            6.898646965786252e-02 2.621769511549798e-02 6.609931296233966e-02 2.779519116614702e-02 5.413918702794106e-01 -4.125572468059983e-02 2.776962694526405e-02 -2.436149447486759e-01
            2.782522241629910e-02 -2.436724130187132e-01 5.413938324079758e-01 -4.115137118865141e-02 6.154787142283268e-02 3.230569392112481e-02 6.111357054152057e-02 2.538401182421861e-02
            5.414133197788753e-01 -4.122156250803022e-02 2.786155220753663e-02 -2.436975483001130e-01 6.117853661045829e-02 2.545133322448763e-02 6.153926767201139e-02 3.225991304952652e-02
309025000.0000000000 9.044216810483600e-02 3.526548286726062e-02 9.104707163071155e-02 3.108962274432980e-02 -6.136975131421476e-02 -2.393538235456983e-01 4.900385161130336e-01 -2.236058934169496e-01
            9.096291123026867e-02 3.109187253319367e-02 9.039510199004049e-02 3.524024904726289e-02 4.900335181329695e-01 -2.235705128992889e-01 -6.136289897968594e-02 -2.393878353865464e-01
            -6.141145924512186e-02 -2.393302514551145e-01 4.898792366041154e-01 -2.235258966515518e-01 8.743926623389527e-02 3.893667567316985e-02 8.472223957572977e-02 3.268951335554972e-02
            4.900198576215675e-01 -2.235403136411145e-01 -6.148570382672369e-02 -2.393215009718946e-01 8.466593350787251e-02 3.263596879611698e-02 8.732814393300713e-02 3.895102548316418e-02
309857500.0000000000 1.132474477720171e-01 2.549351256495528e-02 1.109652247585116e-01 2.003920159721755e-02 -1.419832026345458e-01 -2.026955510112829e-01 3.814719507918223e-01 -3.751928614276511e-01
            1.108583545963779e-01 2.010569622494319e-02 1.132566064233803e-01 2.546972803020543e-02 3.814751053476260e-01 -3.751785275157876e-01 -1.419948409825844e-01 -2.026811760094235e-01
            -1.420038455875023e-01 -2.027041306158931e-01 3.814753340494407e-01 -3.751923375560519e-01 1.112548311092086e-01 2.771236946402301e-02 1.062758965174144e-01 2.271170555122369e-02
            3.815664545198069e-01 -3.752271903293923e-01 -1.419628740580658e-01 -2.026698858410082e-01 1.063166565456770e-01 2.276267512841873e-02 1.113696013743523e-01 2.765557496887295e-02
310690000.0000000000 1.241513357613008e-01 3.928243158763209e-03 1.191230230236184e-01 -1.425193048818507e-03 -2.031962092536291e-01 -1.412185753078348e-01 2.300925691451569e-01 -4.811935717517554e-01
            1.190527500593897e-01 -1.461714637589801e-03 1.241285728727330e-01 3.999539530111235e-03 2.301650385105952e-01 -4.811188071368566e-01 -2.032379650002851e-01 -1.412709995143890e-01
            -2.032055897306320e-01 -1.411868726182940e-01 2.300902272567238e-01 -4.811980264163667e-01 1.225704976155032e-01 4.016883887742310e-03 1.158310971985363e-01 1.384334500820580e-03
            2.300792881610788e-01 -4.811674599876958e-01 -2.031913667749615e-01 -1.413003204756305e-01 1.158023589265202e-01 1.415795507257900e-03 1.225901775173430e-01 4.029653022020636e-03
311522500.0000000000 1.187716051137969e-01 -1.919867349676034e-02 1.116035664431116e-01 -2.349847821334634e-02 -2.398914538180991e-01 -6.425373556709083e-02 5.181914072849115e-02 -5.308269465691512e-01
            1.116468792952453e-01 -2.356209703143732e-02 1.188040303631726e-01 -1.917448582878629e-02 5.184244987222395e-02 -5.308608252531615e-01 -2.398771006950627e-01 -6.425026448593611e-02
            -2.399021707837836e-01 -6.428489693475370e-02 5.182073280099479e-02 -5.308136532562362e-01 1.163993365978427e-01 -2.127075436657909e-02 1.089260113603838e-01 -2.099745341597295e-02
            5.180843324249410e-02 -5.308754078543908e-01 -2.398803399139961e-01 -6.422967187154842e-02 1.089072902540164e-01 -2.103260159850161e-02 1.164377246515391e-01 -2.127800422784631e-02
312355000.0000000000 9.982180360399219e-02 -3.305160428662959e-02 9.137821680438216e-02 -3.614949690508836e-02 -2.501593840684877e-01 2.046803994946388e-02 -1.345751951202759e-01 -5.172169012724280e-01
            9.143913364731726e-02 -3.617032849780126e-02 9.976089404431988e-02 -3.304690371744042e-02 -1.345507734726384e-01 -5.171662076948673e-01 -2.502111348152313e-01 2.048385776101818e-02
            -2.501321900611850e-01 2.048349723324177e-02 -1.345967768008070e-01 -5.171516249967097e-01 9.544743835788738e-02 -3.700598920863304e-02 8.875487496267616e-02 -3.362473297934288e-02
            -1.346429424119366e-01 -5.170897184253732e-01 -2.501868691016110e-01 2.044907830299835e-02 8.866602413957493e-02 -3.357980565680990e-02 9.549453142569117e-02 -3.693338109154034e-02
313187500.0000000000 7.635002728424777e-02 -3.087078820286158e-02 6.741576744084909e-02 -3.277998825335413e-02 -2.324150688505202e-01 1.058945969208806e-01 -3.064413493642479e-01 -4.386046473390594e-01
            6.744753427426763e-02 -3.278871554381006e-02 7.637685505998240e-02 -3.091128925683941e-02 -3.065088125277587e-01 -4.385759198441743e-01 -2.324498236106698e-01 1.058693681886055e-01
            -2.324620749717151e-01 1.059028286551359e-01 -3.065157530886576e-01 -4.385701495599789e-01 6.917293069345870e-02 -3.540079942457738e-02 6.446839264017618e-02 -2.963879611852823e-02
            -3.064807224198234e-01 -4.385516725527825e-01 -2.324666675964835e-01 1.059499778429054e-01 6.458460228447450e-02 -2.958281543495793e-02 6.913153018726124e-02 -3.537022316590192e-02
314020000.0000000000 6.043461890752083e-02 -1.344415339596810e-02 5.128872961441052e-02 -1.446890374485306e-02 -1.853572078999748e-01 1.834956828834900e-01 -4.398759068526087e-01 -3.030068903843441e-01
            5.130239650546988e-02 -1.437373792870874e-02 6.050155913517780e-02 -1.343065790775715e-02 -4.399085654781504e-01 -3.030007577969889e-01 -1.853796727335075e-01 1.834436741720351e-01
            -1.853834841692088e-01 1.835620843047219e-01 -4.399627212090394e-01 -3.028891828739606e-01 5.038877878376154e-02 -1.682821868543372e-02 4.843351879165521e-02 -1.005232640846309e-02
            -4.399848613203287e-01 -3.029439307221583e-01 -1.853663526874327e-01 1.834199288807729e-01 4.848119917698298e-02 -1.001404952143334e-02 5.041219560998104e-02 -1.677654552778566e-02
314852500.0000000000 6.077098312347239e-02 1.027034579054371e-02 5.159517895328586e-02 9.864283082388946e-03 -1.108416336080815e-01 2.415349714478099e-01 -5.153884870037801e-01 -1.290989263328313e-01
            5.165070916314780e-02 9.892254833728423e-03 6.083490204731313e-02 1.029106587638439e-02 -5.154484734910763e-01 -1.291845435708728e-01 -1.108746475505405e-01 2.415148403466869e-01
            -1.108711496326953e-01 2.415436182589840e-01 -5.152854026992316e-01 -1.291951145084905e-01 4.862352649708407e-02 9.477268397330457e-03 4.939763632869261e-02 1.563661393991841e-02
            -5.154115760475877e-01 -1.291292026181353e-01 -1.109451219447343e-01 2.415199197809925e-01 4.951417291525642e-02 1.568492982271174e-02 4.858711498480904e-02 9.520744973469884e-03
315685000.0000000000 7.722510904190813e-02 2.759601753398960e-02 6.787072371422626e-02 2.766740104492127e-02 -1.779540522450610e-02 2.683849911795549e-01 -5.238761687821896e-01 5.754287411810417e-02
            6.785843792712547e-02 2.755341798917951e-02 7.732237811418476e-02 2.751863390227045e-02 -5.237855390287793e-01 5.760884692651627e-02 -1.776939326669957e-02 2.683873256416676e-01
            -1.777212773543333e-02 2.683303854406005e-01 -5.237792788666538e-01 5.759786095389334e-02 6.449450226304439e-02 3.031075806770030e-02 6.736481864373665e-02 3.436283336280150e-02
            -5.237805744091317e-01 5.754925772611662e-02 -1.782412024255377e-02 2.684218309082517e-01 6.726411114271932e-02 3.439911241373404e-02 6.454162968782398e-02 3.023678237109800e-02
316517500.0000000000 1.010946796326782e-01 2.934462388987608e-02 9.132641594042927e-02 2.983759928680609e-02 7.904613253681968e-02 2.584792966437059e-01 -4.680903487507017e-01 2.322912564831925e-01
            9.128145680892279e-02 2.979138211101994e-02 1.011247725787677e-01 2.936260989825907e-02 -4.681260616971498e-01 2.322962208467976e-01 7.896389694963415e-02 2.585538843694971e-01
            7.895778630911757e-02 2.585222434744613e-01 -4.681473827170887e-01 2.322958390110832e-01 8.951396590885043e-02 3.538858606507737e-02 9.274837657923392e-02 3.700311968117261e-02
            -4.681191417653177e-01 2.322621419448416e-01 7.905568495950972e-02 2.585218365117328e-01 9.266395435755856e-02 3.698908391961449e-02 8.949837225950236e-02 3.538117955547235e-02
317350000.0000000000 1.204202086051954e-01 1.492765996248059e-02 1.101750809316724e-01 1.614984584638811e-02 1.645210024400400e-01 2.145562494597260e-01 -3.585070274432013e-01 3.757631759259207e-01
            1.101459789301392e-01 1.613607718250943e-02 1.204525093635353e-01 1.500845410665016e-02 -3.585193795434068e-01 3.757900486451985e-01 1.645458831084575e-01 2.146651155007924e-01
            1.645305521762151e-01 2.146420604882969e-01 -3.584791585785693e-01 3.757804873032055e-01 1.113780755064396e-01 2.348709685150569e-02 1.133553852359600e-01 2.292786164959450e-02
            -3.585801595970614e-01 3.757471303938878e-01 1.644218946793815e-01 2.146531763094864e-01 1.134148774202670e-01 2.293027210470793e-02 1.113065068517408e-01 2.344651494276871e-02
318182500.0000000000 1.259793544896166e-01 -8.586620329204821e-03 1.155225546814173e-01 -6.488165119585122e-03 2.282389044559824e-01 1.451108228680551e-01 -2.084744047369511e-01 4.741713870301605e-01
            1.155489671295515e-01 -6.593378684679819e-03 1.259216050682341e-01 -8.548779464700479e-03 -2.085275408919017e-01 4.742232992281115e-01 2.282082921228543e-01 1.451858762418597e-01
            2.282462478931467e-01 1.451079384904402e-01 -2.085096562088136e-01 4.742878478265063e-01 1.202580740489540e-01 8.578819256456743e-04 1.202936306138957e-01 -6.790181114708578e-04
            -2.086197103389709e-01 4.742114614669263e-01 2.282205419059417e-01 1.450675394984460e-01 1.203661408424684e-01 -6.297893492782022e-04 1.202037410891903e-01 8.664242503958573e-04
319015000.0000000000 1.151899323600424e-01 -3.068508527094571e-02 1.049023690986398e-01 -2.773618436193071e-02 2.649837591094337e-01 5.955622986705207e-02 -3.354046698940219e-02 5.171825811515229e-01
            1.049100752517223e-01 -2.768570281494998e-02 1.151967461710411e-01 -3.072020649922526e-02 -3.357009039556452e-02 5.172180077919019e-01 2.650450959444082e-01 5.950339907648738e-02
            2.650287939727426e-01 5.958869250827851e-02 -3.362602567636614e-02 5.172353960147286e-01 1.127851659576488e-01 -2.176098139475942e-02 1.108393021071588e-01 -2.301825974690997e-02
            -3.358527499556820e-02 5.171678618258519e-01 2.649852578069638e-01 5.957488929914004e-02 1.108313656148265e-01 -2.298588230758708e-02 1.127823264944381e-01 -2.182406962453065e-02
319847500.0000000000 9.246753011950166e-02 -4.111517970427774e-02 8.254436821083995e-02 -3.735747954737990e-02 2.724282791223768e-01 -3.375246805090035e-02 1.473940224727546e-01 4.978292054038336e-01
            8.258726450482952e-02 -3.735637701870330e-02 9.244126750972630e-02 -4.106187647947946e-02 1.474190163192256e-01 4.978597548005002e-01 2.725534920054788e-01 -3.367752597061740e-02
            2.724364568349250e-01 -3.368450248477119e-02 1.474525114470444e-01 4.978390245342186e-01 9.250618280465492e-02 -3.417570027128793e-02 8.922363972194104e-02 -3.380335279262536e-02
            1.474492560666845e-01 4.978874602903733e-01 2.725211533429431e-01 -3.366985349504820e-02 8.916824473643807e-02 -3.385102512470958e-02 9.251364696632888e-02 -3.420858416421971e-02
320680000.0000000000 6.792153310235834e-02 -3.426983731760866e-02 5.864965554546131e-02 -3.011257464320369e-02 2.487635125279260e-01 -1.264925553215482e-01 3.119578453219005e-01 4.154262020070535e-01
            5.860387017519970e-02 -3.006535318405182e-02 6.791496500743752e-02 -3.431335081264618e-02 3.118877929883478e-01 4.154137209611659e-01 2.488863221238688e-01 -1.265963625398563e-01
            2.488738275399448e-01 -1.265832583917455e-01 3.120468954094354e-01 4.154471320004618e-01 6.924779281183875e-02 -3.009808106172196e-02 6.583895373781158e-02 -2.770491783954510e-02
            3.119735466934797e-01 4.154577977746467e-01 2.488115957594514e-01 -1.264956704583216e-01 6.589350998959601e-02 -2.766358197390796e-02 6.926607400227189e-02 -3.008615228296361e-02
321512500.0000000000 5.363232787484366e-02 -1.292402483462580e-02 4.492227019452587e-02 -8.718051002560595e-03 1.930955814779949e-01 -2.087942124398372e-01 4.365698327071655e-01 2.790497042260064e-01
            4.496664596349042e-02 -8.690097828334319e-03 5.359862308914521e-02 -1.291339351389246e-02 4.365820753358843e-01 2.790199543781797e-01 1.931254319240581e-01 -2.087902192800231e-01
            1.932311660427878e-01 -2.088285922547353e-01 4.364664299818070e-01 2.789743728290127e-01 5.472975064930839e-02 -1.125096224200125e-02 5.265512182619544e-02 -7.517733166144055e-03
            4.365058357622074e-01 2.790139799983165e-01 1.931401413663700e-01 -2.087824798351565e-01 5.261813452827251e-02 -7.484317827590825e-03 5.473439899360906e-02 -1.133422203664244e-02
322345000.0000000000 5.705119927429226e-02 1.252731189080445e-02 4.852862925551455e-02 1.643526511106709e-02 1.088183474385565e-01 -2.677002959406272e-01 5.032709580534954e-01 1.080208883187976e-01
            4.853831111115332e-02 1.645733904969510e-02 5.711739755508211e-02 1.256276944668030e-02 5.032916277329903e-01 1.080778412287706e-01 1.088531643191244e-01 -2.677415329008307e-01
            1.088570067210805e-01 -2.677465742519725e-01 5.032311185616499e-01 1.079651598351139e-01 5.673446750300915e-02 1.215230807554764e-02 5.671407774560844e-02 1.632323984297447e-02
            5.031981139451995e-01 1.079527210467743e-01 1.088049725926155e-01 -2.676867572899582e-01 5.666031301760979e-02 1.620975663859714e-02 5.677105706708160e-02 1.215554544272225e-02
323177500.0000000000 7.624882298845999e-02 2.909653540536801e-02 6.751854233104344e-02 3.277246827961471e-02 6.721920560709536e-03 -2.916133930468936e-01 5.051234039717482e-01 -7.258783756825218e-02
            6.738935499218378e-02 3.284858484421103e-02 7.619490381788119e-02 2.917744483623887e-02 5.050640861490272e-01 -7.259272589049058e-02 6.776886910974916e-03 -2.916523157236323e-01
            6.862860670022601e-03 -2.916628752593630e-01 5.050940097582559e-01 -7.265719325178895e-02 7.399221901270887e-02 2.789427825857491e-02 7.573939062120959e-02 3.099332192711936e-02
            5.050782292129566e-01 -7.258328638881742e-02 6.739770054432756e-03 -2.917013329241677e-01 7.568909392296361e-02 3.095833405617483e-02 7.400706997251043e-02 2.787485979871934e-02
324010000.0000000000 1.011665613665542e-01 2.901715383041347e-02 9.161881475194021e-02 3.287285802636860e-02 -9.698399827253355e-02 -2.761417880815799e-01 4.456500231045156e-01 -2.396306656313715e-01
            9.173841340718443e-02 3.290147361182411e-02 1.011134233907676e-01 2.895192184287298e-02 4.457455881657191e-01 -2.395395687855843e-01 -9.696784768564091e-02 -2.761842924147315e-01
            -9.690407870206458e-02 -2.760951940789054e-01 4.457943620893140e-01 -2.396041585847798e-01 9.698829454503423e-02 2.812351715275083e-02 9.971562156273125e-02 2.911810603931335e-02
            4.457299631291372e-01 -2.395676804054004e-01 -9.701937612676213e-02 -2.761537964143660e-01 9.975058812511250e-02 2.912304019681579e-02 9.703589718537661e-02 2.811846936004256e-02
324842500.0000000000 1.198629723235782e-01 1.302555555655900e-02 1.095695331485991e-01 1.772494228482082e-02 -1.869523982462805e-01 -2.250522091023055e-01 3.353660422665823e-01 -3.751700849179477e-01
            1.095500310024978e-01 1.764937900541985e-02 1.197905008085055e-01 1.309628213608080e-02 3.354855398126708e-01 -3.751530264195633e-01 -1.870157624628416e-01 -2.251268055170680e-01
            -1.869223166683654e-01 -2.251447786870950e-01 3.353691515977625e-01 -3.751974649123443e-01 1.143631712592687e-01 1.343520114980320e-02 1.166486659702975e-01 1.193908628706730e-02
            3.353554574602845e-01 -3.750991589061418e-01 -1.869617855997581e-01 -2.250523533905558e-01 1.165118561847122e-01 1.195865825934609e-02 1.143639732577837e-01 1.346801955825536e-02
325675000.0000000000 1.240301416206610e-01 -1.095276631286178e-02 1.131757609451501e-01 -4.847563451349976e-03 -2.529111156149019e-01 -1.475900808357944e-01 1.869771591303316e-01 -4.660602619004929e-01
            1.130811286357906e-01 -4.909743860700810e-03 1.239184985978224e-01 -1.099173667839351e-02 1.870248103550722e-01 -4.660226477496605e-01 -2.528051082481126e-01 -1.475717696420635e-01
            -2.528482293539041e-01 -1.475667051072010e-01 1.870093568577759e-01 -4.660362845277070e-01 1.180561751782905e-01 -8.878718997043386e-03 1.185921475373791e-01 -1.247533947525867e-02
            1.870821373625214e-01 -4.660151057648630e-01 -2.528853284502821e-01 -1.476486571001033e-01 1.185741156853242e-01 -1.241800169292014e-02 1.180751671710582e-01 -8.907553774637483e-03
326507500.0000000000 1.119752455910709e-01 -3.209685009684763e-02 1.013830173666768e-01 -2.419749636939478e-02 -2.894364029133101e-01 -5.360568087216815e-02 1.573035624199339e-02 -5.022308958749773e-01
            1.013705141913216e-01 -2.419761228862907e-02 1.119848927176804e-01 -3.210930052072028e-02 1.588025924573067e-02 -5.021785958470349e-01 -2.893638549363839e-01 -5.366515299266151e-02
            -2.894279443720132e-01 -5.356709194404170e-02 1.578408167445525e-02 -5.022268786712943e-01 1.063882448192973e-01 -2.839403963567618e-02 1.043664478258012e-01 -3.292016246537660e-02
            1.584602501477158e-02 -5.022760165899043e-01 -2.893743764081368e-01 -5.352768093080126e-02 1.044626946598950e-01 -3.288161642894909e-02 1.064427649835911e-01 -2.846461017865905e-02
327340000.0000000000 8.911951538660244e-02 -4.075572238239534e-02 7.967600545871988e-02 -3.109490229349217e-02 -2.936922504689409e-01 4.800078997051133e-02 -1.593491012026338e-01 -4.772830300040663e-01
            7.967493871973011e-02 -3.100277983936202e-02 8.915279701789131e-02 -4.074172344022267e-02 -1.593777978993863e-01 -4.771839258458646e-01 -2.937093139825783e-01 4.802068599921445e-02
            -2.936934296325386e-01 4.800436851367645e-02 -1.593698416225441e-01 -4.772845972899278e-01 8.466192930658642e-02 -3.580004977738688e-02 7.994855465300993e-02 -3.985794443010253e-02
            -1.593407685749050e-01 -4.772945815992974e-01 -2.937406643433709e-01 4.802232469523290e-02 7.989432292968432e-02 -3.975197908976489e-02 8.461553039114830e-02 -3.582038664372104e-02
328172500.0000000000 6.605209536678500e-02 -3.253458110492540e-02 5.863581357332377e-02 -2.151275047624043e-02 -2.638163151219101e-01 1.479198146613143e-01 -3.159363933199784e-01 -3.913760062498942e-01
            5.863000701325254e-02 -2.154442344364179e-02 6.608197024650934e-02 -3.260120665116703e-02 -3.159554524361854e-01 -3.913331969636357e-01 -2.636844008617443e-01 1.478912359809599e-01
            -2.637054079581158e-01 1.478700509571076e-01 -3.159693850878695e-01 -3.913877437691008e-01 6.321803598239212e-02 -2.695809179605824e-02 5.637143495340644e-02 -2.941595875244456e-02
            -3.159610038978606e-01 -3.913935307073534e-01 -2.637659223934716e-01 1.479082817855451e-01 5.627718688488513e-02 -2.938720492832103e-02 6.319213718998881e-02 -2.699273729805195e-02
329005000.0000000000 5.429142944101070e-02 -1.152975281350972e-02 4.928843583113154e-02 7.403811601325827e-05 -1.991368572896318e-01 2.342104423859762e-01 -4.313207815274731e-01 -2.547223018969425e-01
            4.930119435992292e-02 -1.951767514247397e-05 5.429784020226108e-02 -1.150798172689902e-02 -4.313517634570039e-01 -2.547310631055906e-01 -1.990782510873577e-01 2.341702919245817e-01
            -1.991537553244407e-01 2.343100989579746e-01 -4.313720244248248e-01 -2.547485271150520e-01 5.298948054424624e-02 -5.735468021575062e-03 4.499972178615309e-02 -6.128355266253090e-03
            -4.313311680309921e-01 -2.548140186854891e-01 -1.990516744911640e-01 2.342839096693250e-01 4.498489636722018e-02 -6.071866713581967e-03 5.301992093730960e-02 -5.747770970379179e-03
329837500.0000000000 5.952100458396058e-02 1.158668279531288e-02 5.699178951330632e-02 2.242914210509736e-02 -1.050928093439509e-01 2.931351880847690e-01 -4.894963282923319e-01 -8.749405487699223e-02
            5.697882629177578e-02 2.235045626553710e-02 5.952554268277375e-02 1.150231346936607e-02 -4.895144744133594e-01 -8.742297988554371e-02 -1.051189022555954e-01 2.931587666759862e-01
            -1.050668653200819e-01 2.931556939523423e-01 -4.894737321254145e-01 -8.741376749051298e-02 5.974988025097903e-02 1.689724527016816e-02 5.162075296215345e-02 1.861128587078698e-02
            -4.894642458101472e-01 -8.739082110741403e-02 -1.051476172447380e-01 2.931398208182219e-01 5.161262177028324e-02 1.856637082281512e-02 5.972797200119515e-02 1.681894537231914e-02
330670000.0000000000 7.830272888213285e-02 2.464219011818810e-02 7.769726836920214e-02 3.389104429708153e-02 5.476375339811825e-03 3.136493632990201e-01 -4.850477878183710e-01 8.650228034697360e-02
            7.762655796823008e-02 3.392293287730502e-02 7.822726364518937e-02 2.469912406383168e-02 -4.850658926422952e-01 8.650201374702965e-02 5.535403120282811e-03 3.136257931617987e-01
            5.486698312565881e-03 3.135472706113406e-01 -4.850150788545106e-01 8.651195783579926e-02 7.973339805114324e-02 2.915691164726413e-02 7.213000961994714e-02 3.248468622647892e-02
            -4.850268879827619e-01 8.649184350557915e-02 5.512824509190540e-03 3.135629580590912e-01 7.212701300125168e-02 3.239639469814510e-02 7.972341463958951e-02 2.908975107362236e-02
331502500.0000000000 1.003777190980586e-01 2.195248411442188e-02 1.007247824705873e-01 2.891725451751954e-02 1.154952827625194e-01 2.922461272540139e-01 -4.226179466960988e-01 2.455334113634215e-01
            1.006751841723848e-01 2.886281526627283e-02 1.003480924314266e-01 2.178170756927921e-02 -4.225767422907364e-01 2.455541826113968e-01 1.154215064721825e-01 2.922689265064998e-01
            1.154965645616519e-01 2.922520162573978e-01 -4.226609172151461e-01 2.455809124791259e-01 1.026621912473848e-01 2.519194821422015e-02 9.579146809397210e-02 2.954832870797264e-02
            -4.226574310159793e-01 2.455329742046786e-01 1.155150430010091e-01 2.923251534173364e-01 9.575869244361898e-02 2.944125721505699e-02 1.026420701099290e-01 2.525477935149476e-02
332335000.0000000000 1.146175894145488e-01 5.425962282214483e-03 1.148920935467215e-01 1.010649031404486e-02 2.095868697789948e-01 2.341328486186093e-01 -3.120050339542292e-01 3.730225260921376e-01
            1.149731223085353e-01 1.016274558365072e-02 1.146645718424516e-01 5.320370372367599e-03 -3.120147759502261e-01 3.730599911145839e-01 2.096127968171399e-01 2.341487607157711e-01
            2.095818977329881e-01 2.341309004017894e-01 -3.119570732431714e-01 3.730721580889905e-01 1.175487618813503e-01 7.650983093952830e-03 1.113081211671718e-01 1.238963336513187e-02
            -3.119528267895593e-01 3.730974287149043e-01 2.096174008849515e-01 2.341757256105145e-01 1.112165335207329e-01 1.234151654028782e-02 1.175545140817483e-01 7.570512773252381e-03
333167500.0000000000 1.146219680649289e-01 -1.656009712933078e-02 1.137856792821934e-01 -1.345753251443027e-02 2.773996101456236e-01 1.486927305637750e-01 -1.655595320812601e-01 4.564565622929624e-01
            1.137764553795717e-01 -1.343160817303857e-02 1.146082144511190e-01 -1.656102182193647e-02 -1.656129532818550e-01 4.564520544764437e-01 2.772914702714145e-01 1.487415057744784e-01
            2.773432113014084e-01 1.487820555853489e-01 -1.656545503280269e-01 4.564151427663681e-01 1.177352034731639e-01 -1.540852023831677e-02 1.116900956749285e-01 -1.024445581453334e-02
            -1.655031534459502e-01 4.564712622123204e-01 2.773577372751410e-01 1.487552069215481e-01 1.116857293897266e-01 -1.020079669743269e-02 1.176720743972488e-01 -1.541222408543105e-02
334000000.0000000000 1.000142692902406e-01 -3.324989478032261e-02 9.763188631839695e-02 -3.122138469855863e-02 3.132331493029543e-01 4.614868438871338e-02 1.528992997835063e-03 4.858362685161038e-01
            9.760228487590861e-02 -3.118717333929610e-02 1.000136994197686e-01 -3.327624735955646e-02 1.609110634599600e-03 4.858754288083160e-01 3.131905909806867e-01 4.622933773598827e-02
            3.132181078259432e-01 4.618733408255227e-02 1.607408037337758e-03 4.858378658392757e-01 1.032628908686973e-01 -3.310721197697641e-02 9.733636705967258e-02 -2.745156840239529e-02
            1.534788683901635e-03 4.857865648733789e-01 3.132627370353142e-01 4.628647663918025e-02 9.721187831552502e-02 -2.742035462162699e-02 1.031947636722868e-01 -3.317365114447386e-02
334832500.0000000000 7.738485718888394e-02 -3.658852597337772e-02 7.342436193796095e-02 -3.451877222905386e-02 3.138494505608108e-01 -6.368020934603179e-02 1.703215245387361e-01 4.553376538111180e-01
            7.345771924669471e-02 -3.448704381640851e-02 7.741918672065945e-02 -3.666845735925377e-02 1.703710826141696e-01 4.554059001162687e-01 3.138430667596475e-01 -6.368203685725260e-02
            3.138315092141268e-01 -6.370362541911867e-02 1.703010127497275e-01 4.553919236892366e-01 8.061607135361668e-02 -3.745731872000288e-02 7.493861543882516e-02 -3.081257021780376e-02
            1.704004122510917e-01 4.554194369590732e-01 3.138852363773394e-01 -6.373249675629139e-02 7.500855147092840e-02 -3.084951058760302e-02 8.057965372246766e-02 -3.747994330039672e-02
335665000.0000000000 5.771009430719437e-02 -2.402655942494951e-02 5.236007805612208e-02 -2.114199963288825e-02 2.768804996081194e-01 -1.702186877666797e-01 3.183450514428906e-01 3.663091873496657e-01
            5.229202203484913e-02 -2.116392734212457e-02 5.771327374122215e-02 -2.404153934356359e-02 3.183308304172543e-01 3.662516869924164e-01 2.769825109587342e-01 -1.702258466280853e-01
            2.768908609676607e-01 -1.702289573908755e-01 3.183153495178505e-01 3.662563756265751e-01 6.073264676268630e-02 -2.599442978005714e-02 5.575539323857771e-02 -1.828824840317443e-02
            3.183981474848986e-01 3.662840791624653e-01 2.768610509698636e-01 -1.702173631187704e-01 5.574256019892113e-02 -1.824428234416152e-02 6.074951530989848e-02 -2.595220333991883e-02
336497500.0000000000 5.107949458296986e-02 -1.387337817898231e-03 4.513528797908838e-02 2.843043733383364e-03 2.029715386602441e-01 -2.597687945687023e-01 4.242161173218859e-01 2.302344039694147e-01
            4.516520965541248e-02 2.881553927749799e-03 5.113427490127529e-02 -1.390573759175132e-03 4.242675646977690e-01 2.302134889192089e-01 2.029188678701182e-01 -2.598886588268037e-01
            2.029460984458240e-01 -2.598453413212926e-01 4.242287956032615e-01 2.302591311912764e-01 5.374145374403950e-02 -4.228818443049547e-03 4.979507201238136e-02 4.272859064790117e-03
            4.242115305928331e-01 2.302322431296827e-01 2.029591485756189e-01 -2.597990437564098e-01 4.982730328047888e-02 4.229458830341985e-03 5.375407722279753e-02 -4.358290931268253e-03
337330000.0000000000 6.109068151272752e-02 1.987954785657535e-02 5.514994216493746e-02 2.531667069815208e-02 9.936085083742850e-02 -3.178442117581231e-01 4.737686135677325e-01 6.743363796953236e-02
            5.521254794973268e-02 2.537666317045491e-02 6.114649352047143e-02 1.987495220184288e-02 4.737379196703478e-01 6.738529044188511e-02 9.939642910145663e-02 -3.179276339896576e-01
            9.944271338808676e-02 -3.180485870337142e-01 4.737321988537991e-01 6.748066541868529e-02 6.298561669795148e-02 1.600871785359960e-02 6.056827940668704e-02 2.505607157356483e-02
            4.738045886901397e-01 6.740191281795239e-02 9.939769347288056e-02 -3.179153207089174e-01 6.054773720884161e-02 2.500180286945175e-02 6.310001953050363e-02 1.598726514803559e-02
338162500.0000000000 8.226624062167889e-02 2.898533971004727e-02 7.700988681871417e-02 3.550490204811595e-02 -1.916109588689198e-02 -3.341338649868730e-01 4.635736278181013e-01 -9.928748868615245e-02
            7.700265282939131e-02 3.542722714753971e-02 8.225405061777376e-02 2.897260877949708e-02 4.635477865075425e-01 -9.919661831815892e-02 -1.919070756586164e-02 -3.341934514870232e-01
            -1.912984085610553e-02 -3.341520558873655e-01 4.635048716002423e-01 -9.920081778416599e-02 8.307832658700696e-02 2.456118863548928e-02 8.223860103320989e-02 3.328237632685324e-02
            4.635292409530836e-01 -9.929474145190303e-02 -1.914910087413583e-02 -3.341170058149253e-01 8.224372948124146e-02 3.329699696015768e-02 8.307304753895425e-02 2.450185733397427e-02
338995000.0000000000 1.036479200697068e-01 2.209046745541483e-02 9.935058769546071e-02 2.917344366705667e-02 -1.348571351507429e-01 -3.066485238505117e-01 3.985491720202723e-01 -2.499246715670321e-01
            9.932969785254228e-02 2.910490611715955e-02 1.036751307406632e-01 2.200095775895173e-02 3.986280995079600e-01 -2.499682483254391e-01 -1.349192309416017e-01 -3.065937000568422e-01
            -1.349526081393623e-01 -3.067007685128313e-01 3.985524395441167e-01 -2.499169645940605e-01 1.032912779514515e-01 1.758838941260411e-02 1.037641742532449e-01 2.544011813133830e-02
            3.985671011615265e-01 -2.498977203580983e-01 -1.348659218306563e-01 -3.066387541704325e-01 1.038067922609244e-01 2.547709963349425e-02 1.033255081048050e-01 1.757131290577830e-02
339827500.0000000000 1.150032276949738e-01 2.924202299496688e-03 1.117127091987784e-01 1.035437293241612e-02 -2.323939357599925e-01 -2.413520270151100e-01 2.881421660869015e-01 -3.692410317320520e-01
            1.116460356491356e-01 1.037017787276850e-02 1.150515733067254e-01 2.915248517308423e-03 2.881130859469817e-01 -3.692727997070549e-01 -2.323490834834206e-01 -2.413744970304089e-01
            -2.323636119825604e-01 -2.414206717717038e-01 2.881877940187732e-01 -3.692880678943098e-01 1.137143087560340e-01 -9.598138990194754e-04 1.150400208311568e-01 5.723653127958466e-03
            2.882591680805405e-01 -3.693110324290444e-01 -2.324246866797288e-01 -2.413976769454979e-01 1.149565164870142e-01 5.676780864472950e-03 1.136928468759817e-01 -9.107626549143737e-04
340660000.0000000000 1.111656114643959e-01 -1.893817863190226e-02 1.085938829173622e-01 -1.141845741640816e-02 -3.015561970809574e-01 -1.480120540899049e-01 1.441890136513495e-01 -4.450664676133506e-01
            1.086176416195191e-01 -1.151009853984356e-02 1.112062714964744e-01 -1.892271270270195e-02 1.442394210395941e-01 -4.451682338454107e-01 -3.014824023893033e-01 -1.480201120051964e-01
            -3.014882747636806e-01 -1.480230842765998e-01 1.442693017245167e-01 -4.450862172315798e-01 1.094278869946879e-01 -2.172178681799851e-02 1.108149334486647e-01 -1.642423426879524e-02
            1.442332321082275e-01 -4.451317595183648e-01 -3.015416177042176e-01 -1.480331870464141e-01 1.108537221238620e-01 -1.643047552158753e-02 1.094277743880361e-01 -2.176445031900940e-02
341492500.0000000000 9.365034826122734e-02 -3.326216336387355e-02 9.177935105057856e-02 -2.609160726911483e-02 -3.362247979384437e-01 -3.716754593887885e-02 -1.837167952701164e-02 -4.676844979961528e-01
            9.181015750686063e-02 -2.601875636348061e-02 9.369283832701089e-02 -3.328302875264222e-02 -1.831956767880706e-02 -4.678226890667619e-01 -3.362524126770136e-01 -3.712169929767076e-02
            -3.362970588521838e-01 -3.709132120285409e-02 -1.832047200218753e-02 -4.677779189242496e-01 9.239045683999839e-02 -3.485891937345740e-02 9.333931516772523e-02 -3.072014809173680e-02
            -1.835417588724344e-02 -4.677894854565344e-01 -3.362140555861914e-01 -3.711630122955380e-02 9.330511398543717e-02 -3.068820617933744e-02 9.242616838918834e-02 -3.477870528497723e-02
342325000.0000000000 7.034946393487046e-02 -3.275908896334553e-02 6.911235620352191e-02 -2.565892966789993e-02 -3.325263200663275e-01 8.081791623101513e-02 -1.801174787881069e-01 -4.317844539194993e-01
            6.912217568300322e-02 -2.561781697091822e-02 7.035540089998228e-02 -3.254495621190436e-02 -1.800640144298822e-01 -4.318764409518709e-01 -3.326173127635476e-01 8.078757563585078e-02
            -3.325115019306776e-01 8.081196655203404e-02 -1.801388462735278e-01 -4.318325934434253e-01 7.052527658866443e-02 -3.334981227788052e-02 7.063370320489497e-02 -2.994268480951841e-02
            -1.801288510637675e-01 -4.318048087014514e-01 -3.326076842170607e-01 8.077975522699109e-02 7.057295903001802e-02 -2.991193146413461e-02 7.062952862273039e-02 -3.338493285060659e-02
343157500.0000000000 5.265437000183737e-02 -1.664421893344613e-02 5.195705831141484e-02 -9.618586177207554e-03 -2.879484396271394e-01 1.933980125423574e-01 -3.189161094557929e-01 -3.400975291017545e-01
            5.194825380965384e-02 -9.545867670258021e-03 5.259309960023103e-02 -1.656838344256167e-02 -3.189317145639218e-01 -3.400786716639083e-01 -2.879793717751786e-01 1.934298549497516e-01
            -2.879807269135260e-01 1.934480074170078e-01 -3.188942205460668e-01 -3.400872990977222e-01 5.511455949041012e-02 -1.742579586354455e-02 5.413148556150402e-02 -1.415182594091833e-02
            -3.189946905225120e-01 -3.400829123888269e-01 -2.880145243383623e-01 1.934544894421075e-01 5.420481665606740e-02 -1.427791724209389e-02 5.515165949257395e-02 -1.741654879803535e-02
343990000.0000000000 4.965624061771579e-02 7.478511569066688e-03 4.970586388062299e-02 1.442395368632826e-02 -2.043404050817213e-01 2.854148850727317e-01 -4.147303012655028e-01 -2.054599086168465e-01
            4.969859106714116e-02 1.430527699299980e-02 4.968576570348563e-02 7.409892260183001e-03 -4.147283651160719e-01 -2.054291882227634e-01 -2.043778050538713e-01 2.854588845951854e-01
            -2.044365689633911e-01 2.854127709579846e-01 -4.146351585158664e-01 -2.053913532737234e-01 5.448847982047064e-02 5.068732436405633e-03 5.255393918843121e-02 8.588789206491976e-03
            -4.146604404850109e-01 -2.054282302891105e-01 -2.043165523208793e-01 2.854682484491867e-01 5.258440017174324e-02 8.583989803502785e-03 5.451856160976185e-02 5.045495505655828e-03
344822500.0000000000 6.298504300962249e-02 2.757328674524790e-02 6.377112440595346e-02 3.425265994681111e-02 -9.131756596575329e-02 3.416846035368676e-01 -4.556767914317679e-01 -4.814667628947203e-02
            6.385646492998535e-02 3.430601511775266e-02 6.301172188998044e-02 2.762957399846234e-02 -4.556748687489938e-01 -4.814133342603039e-02 -9.131946359925980e-02 3.416605032167924e-01
            -9.129676133975322e-02 3.416707024390268e-01 -4.556999962386302e-01 -4.815907848955946e-02 6.946449913858478e-02 2.212096021748124e-02 6.673872424122915e-02 2.626425660591336e-02
            -4.557966899459182e-01 -4.812153793149357e-02 -9.131146905822878e-02 3.417065726408615e-01 6.685650069884135e-02 2.626553723509394e-02 6.937787633769067e-02 2.205876632859204e-02
345655000.0000000000 8.555823938020896e-02 3.411367882884543e-02 8.745269850477558e-02 4.045139863843009e-02 3.472113507666569e-02 3.528286656138933e-01 -4.400905080716080e-01 1.103155245640897e-01
            8.752018181302347e-02 4.041341797977662e-02 8.548832255838980e-02 3.413072246919744e-02 -4.401822000689149e-01 1.103097085666481e-01 3.470678588512622e-02 3.528953072331083e-01
            3.470323314460048e-02 3.528175087869767e-01 -4.401921340794403e-01 1.103537257773713e-01 9.202948406880791e-02 2.470580356877820e-02 8.896848723169382e-02 2.969893435144456e-02
            -4.401879763154716e-01 1.104192190767152e-01 3.472042945671470e-02 3.528752318569621e-01 8.901137906422907e-02 2.980704094233528e-02 9.206308481270681e-02 2.466555640887086e-02
346487500.0000000000 1.064579757371533e-01 2.506599422795975e-02 1.092697513275634e-01 3.049279726234969e-02 1.552073520093971e-01 3.185175913982385e-01 -3.734365845555733e-01 2.519325552473007e-01
            1.092548271413235e-01 3.045712305490389e-02 1.064481124229896e-01 2.508836963098787e-02 -3.735150067007933e-01 2.520285041588802e-01 1.551577387162117e-01 3.185841696664686e-01
            1.551882258927213e-01 3.185134090308366e-01 -3.734168893015468e-01 2.519628523549083e-01 1.110783920671639e-01 1.143336660572801e-02 1.079441911334179e-01 1.759536749784637e-02
            -3.734713118889237e-01 2.520204065813654e-01 1.551265358570666e-01 3.185165849456778e-01 1.079321258134066e-01 1.767408014487914e-02 1.110865314780010e-01 1.145769828376396e-02
347320000.0000000000 1.162076354322058e-01 5.381068951977028e-03 1.198862530937147e-01 9.662546771880090e-03 2.549913598885045e-01 2.457651274036846e-01 -2.643487500063036e-01 3.629030424024738e-01
            1.197749259792228e-01 9.660391729552752e-03 1.161953108397998e-01 5.401307854903311e-03 -2.643410422546433e-01 3.629150067483742e-01 2.550993616239181e-01 2.458397044554647e-01
            2.550335999323210e-01 2.457292944894196e-01 -2.643439816482932e-01 3.628248730479469e-01 1.171256531261318e-01 -1.128995444341366e-02 1.145844873108813e-01 -4.168763380984448e-03
            -2.643030327698134e-01 3.628820438415252e-01 2.550721620843460e-01 2.457746780148030e-01 1.144693927517530e-01 -4.161920459339220e-03 1.170993907813774e-01 -1.136679164272187e-02
348152500.0000000000 1.111081199822525e-01 -1.542779136969563e-02 1.151936427474828e-01 -1.250838021333797e-02 3.243501218389974e-01 1.449167670161771e-01 -1.239943652810290e-01 4.313510522067286e-01
            1.152518390958812e-01 -1.259626327806986e-02 1.110823670775960e-01 -1.550702117504116e-02 -1.239659994138809e-01 4.312439243196284e-01 3.242475666903331e-01 1.448090689683174e-01
            3.243180732469381e-01 1.448889973346141e-01 -1.239195795349316e-01 4.313613155434615e-01 1.070271749631542e-01 -3.348779887633743e-02 1.052692314683724e-01 -2.554635444494270e-02
            -1.239674795622011e-01 4.313134503949110e-01 3.242983240745240e-01 1.448237312590392e-01 1.052896588760013e-01 -2.553989858143451e-02 1.070610971807866e-01 -3.353221350590670e-02
348985000.0000000000 9.385994579186792e-02 -2.776713759441535e-02 9.802263326777377e-02 -2.624546119535826e-02 3.567965761985623e-01 2.631500340440428e-02 3.287414837682923e-02 4.478339950070854e-01
            9.801012525982086e-02 -2.618854137319724e-02 9.388871362461375e-02 -2.777054085144722e-02 3.295283663230139e-02 4.479054319642721e-01 3.568880458185050e-01 2.643746906404483e-02
            3.568589144224875e-01 2.635589170951606e-02 3.293918874025025e-02 4.478444375509643e-01 8.459452270528939e-02 -4.469011421517063e-02 8.410167818508733e-02 -3.638406247845684e-02
            3.293168629624670e-02 4.479073737758437e-01 3.568457368643715e-01 2.635448250023883e-02 8.402624581181270e-02 -3.642239634059431e-02 8.461313146122346e-02 -4.466848799251139e-02
349817500.0000000000 7.282992977656529e-02 -2.560936838078239e-02 7.666058819930129e-02 -2.529102393005091e-02 3.483590759281660e-01 -9.835295224781933e-02 1.871059946089833e-01 4.077690790239960e-01
            7.676347193910811e-02 -2.526847071688770e-02 7.280028266339562e-02 -2.555441242646849e-02 1.871112780942357e-01 4.077434898791821e-01 3.482510176134271e-01 -9.842372302656062e-02
            3.483904610423830e-01 -9.835662445148124e-02 1.870954678358011e-01 4.078461985061894e-01 5.938648405542832e-02 -3.924053145253122e-02 6.010363350309359e-02 -3.109861290515562e-02
            1.870407323144328e-01 4.076845927854757e-01 3.483316335951885e-01 -9.839678997333365e-02 6.010274578618178e-02 -3.106800086115151e-02 5.937035871665315e-02 -3.918862739268662e-02
350650000.0000000000 5.853329080413187e-02 -9.778327994470154e-03 6.196781785110157e-02 -1.038655510773116e-02 2.964928133367497e-01 -2.155286138590482e-01 3.169421551217318e-01 3.147948272794543e-01
            6.201653184277611e-02 -1.051980559117029e-02 5.853853394819240e-02 -9.857535765782379e-03 3.169198525965947e-01 3.148305949117717e-01 2.964154746340963e-01 -2.156217605027392e-01
            2.964612869097787e-01 -2.155747072026760e-01 3.169200664572142e-01 3.148758888133819e-01 4.323951658795578e-02 -1.854617816918686e-02 4.502193313367148e-02 -1.132675348839547e-02
            3.169012666692701e-01 3.147856864596448e-01 2.964836797585206e-01 -2.156117159701729e-01 4.499392728655048e-02 -1.125768710986151e-02 4.331149175219831e-02 -1.862784748891188e-02
351482500.0000000000 5.862002932986245e-02 1.135603960609262e-02 6.163736178626202e-02 9.997196885576180e-03 2.043798893913898e-01 -3.089947492578307e-01 4.037754028897607e-01 1.825124528628250e-01
            6.161067905069519e-02 1.000262693092500e-02 5.861891623775430e-02 1.138357905725700e-02 4.037846217224844e-01 1.825393948172190e-01 2.043422600144414e-01 -3.089489777265765e-01
            2.042994543502096e-01 -3.089751345277494e-01 4.037666365931794e-01 1.824939367646249e-01 4.418953722605128e-02 7.376916359041101e-03 4.634127582592742e-02 1.322499626579109e-02
            4.038065746352436e-01 1.825794312219686e-01 2.043340002867491e-01 -3.089256927423962e-01 4.643737258081523e-02 1.319793681360004e-02 4.415902772669369e-02 7.263831096125711e-03
352315000.0000000000 7.266901918265026e-02 2.686850472205236e-02 7.536512188590884e-02 2.491572177853867e-02 8.312878045508033e-02 -3.632568171625002e-01 4.375122661509646e-01 3.087330235163501e-02
            7.532868771825912e-02 2.486652031871582e-02 7.266373985311074e-02 2.688481444045006e-02 4.375509647694627e-01 3.083582084866093e-02 8.306662858724517e-02 -3.633249674882829e-01
            8.308335120802855e-02 -3.632989315567176e-01 4.375004148210549e-01 3.083620580724936e-02 6.139409897399329e-02 2.600689667376424e-02 6.306439828592784e-02 3.038095568927293e-02
            4.374632855419214e-01 3.081649406998408e-02 8.315950430874156e-02 -3.632600738545650e-01 6.300524569152546e-02 3.035868278346187e-02 6.134422568506882e-02 2.601024526684789e-02
353147500.0000000000 9.289153838184733e-02 2.898711573936601e-02 9.553824675970209e-02 2.631236793652058e-02 -4.944911044401242e-02 -3.700523910848069e-01 4.175304404836790e-01 -1.201844775302591e-01
            9.550531830335916e-02 2.631583123382318e-02 9.286643359759125e-02 2.898082031392693e-02 4.174069913159817e-01 -1.201567439670524e-01 -4.951537155661700e-02 -3.701063662155030e-01
            -4.948489457634052e-02 -3.700226148582302e-01 4.174459258555165e-01 -1.201587686269775e-01 8.557770553026732e-02 2.863880792651508e-02 8.587548947094481e-02 3.212789742724324e-02
            4.174621077182943e-01 -1.200820840398575e-01 -4.953492135770222e-02 -3.700253286682532e-01 8.584581047511046e-02 3.220075550454323e-02 8.562224167206019e-02 2.870237263532622e-02
353980000.0000000000 1.090000439178627e-01 1.763067967510944e-02 1.116224638953887e-01 1.394209898010309e-02 -1.746397113100661e-01 -3.299116173859507e-01 3.489973222941740e-01 -2.536865457967437e-01
            1.115358750925244e-01 1.390963272781130e-02 1.090305129701822e-01 1.763840418975406e-02 3.491049766601377e-01 -2.536779892047265e-01 -1.746318808440300e-01 -3.299143684608295e-01
            -1.746823657619024e-01 -3.299420612153237e-01 3.489586633983167e-01 -2.536810653424968e-01 1.051706121990336e-01 1.519896275820472e-02 1.033660220048178e-01 1.888033912686912e-02
            3.490209730756730e-01 -2.536825011860849e-01 -1.747124584894937e-01 -3.299049130629104e-01 1.033156746556304e-01 1.883234940432056e-02 1.051532437659635e-01 1.522194410820723e-02
354812500.0000000000 1.132784793443056e-01 -9.912439842125684e-04 1.156720682352792e-01 -6.124778484576872e-03 -2.775067218679735e-01 -2.502208325419211e-01 2.405761885569092e-01 -3.565583198739363e-01
            1.156102082859494e-01 -6.167088336590737e-03 1.132626355068582e-01 -1.080738064236550e-03 2.405492515399819e-01 -3.565619823051753e-01 -2.774335138599439e-01 -2.502446936598335e-01
            -2.773896040209132e-01 -2.502816285592555e-01 2.405450088881285e-01 -3.565352052151592e-01 1.109626418596597e-01 -7.191669076772205e-03 1.070527181947599e-01 -2.223327444867810e-03
            2.405785647374485e-01 -3.565594851070382e-01 -2.774381244053963e-01 -2.502697065179310e-01 1.070872350959705e-01 -2.196239487189782e-03 1.109270674997993e-01 -7.279746454346634e-03
355645000.0000000000 1.040709670917749e-01 -1.761163185661549e-02 1.056763807937173e-01 -2.457890237064625e-02 -3.475823642829810e-01 -1.413060715840615e-01 1.030494399361887e-01 -4.172363955639368e-01
            1.057655201152685e-01 -2.448439765058339e-02 1.040686548453264e-01 -1.765942904992352e-02 1.031571349901879e-01 -4.172413228507366e-01 -3.474992186864436e-01 -1.413834791904744e-01
            -3.475336618007400e-01 -1.413267673458482e-01 1.031676358059468e-01 -4.172579138799719e-01 1.006086277271426e-01 -2.807792271795991e-02 9.549996351910302e-02 -2.038815097493411e-02
            1.030962490137789e-01 -4.173094540759935e-01 -3.475253733411969e-01 -1.413758655077015e-01 9.556943602566138e-02 -2.038262922416825e-02 1.005707029680238e-01 -2.811599095191721e-02
356477500.0000000000 8.602436012561983e-02 -2.347110522281658e-02 8.603088227475497e-02 -3.211262739769924e-02 -3.779767284318911e-01 -1.442717018642505e-02 -4.827932873736936e-02 -4.268318849353621e-01
            8.611568782861910e-02 -3.222537338792806e-02 8.603568204501186e-02 -2.343531901237701e-02 -4.830143065443319e-02 -4.267581662028662e-01 -3.779657825230545e-01 -1.440405176005874e-02
            -3.780283739239675e-01 -1.447187191781844e-02 -4.827447921002854e-02 -4.267675203795166e-01 7.886409605736838e-02 -3.718222714582677e-02 7.405252278188681e-02 -2.607383724238256e-02
            -4.824389157465837e-02 -4.268328425250825e-01 -3.779791309711167e-01 -1.448486645543782e-02 7.406876508850870e-02 -2.607276130437558e-02 7.879884084147915e-02 -3.728561255022435e-02
357310000.0000000000 6.828942783751964e-02 -1.501242040866284e-02 6.587197018537400e-02 -2.524517277600588e-02 -3.639071305950371e-01 1.178477717876222e-01 -1.940683347028635e-01 -3.817373032487230e-01
            6.590712713491030e-02 -2.515304003236321e-02 6.836343099476407e-02 -1.504571439117346e-02 -1.941321071030978e-01 -3.816816491611224e-01 -3.639374944573386e-01 1.178280586461815e-01
            -3.639008474507037e-01 1.178136332475597e-01 -1.941034765945612e-01 -3.816630164122043e-01 5.589399165880066e-02 -2.972526638167533e-02 5.317151557901224e-02 -1.528734244257387e-02
            -1.940803799994875e-01 -3.816877166794992e-01 -3.638222655273546e-01 1.178166796800539e-01 5.308676514772097e-02 -1.536810235641818e-02 5.588622916829832e-02 -2.976935338726900e-02
358142500.0000000000 6.120038498247472e-02 4.098861512476055e-03 5.543332036624082e-02 -6.564669197705024e-03 -3.032913133304755e-01 2.397415701887190e-01 -3.134717820300700e-01 -2.873024586807766e-01
            5.553901443129688e-02 -6.590227637110612e-03 6.117320041270422e-02 4.167222929385150e-03 -3.135268840300941e-01 -2.873202726918365e-01 -3.032932532523808e-01 2.398092835822801e-01
            -3.032046569662447e-01 2.397251459671400e-01 -3.135243346919686e-01 -2.873188485839034e-01 4.324857599198286e-02 -8.889679862956029e-03 4.407840821280487e-02 7.963919540565986e-03
            -3.134705711273927e-01 -2.872484013016577e-01 -3.032772350055047e-01 2.397873611269423e-01 4.402184814189433e-02 7.895035393044673e-03 4.323393916016936e-02 -8.829909093750346e-03
358975000.0000000000 6.934166524305595e-02 2.382867446097943e-02 6.020368691677960e-02 1.396269800021577e-02 -2.013049416553689e-01 3.335115907667207e-01 -3.899443780780998e-01 -1.582914304268472e-01
            6.022919597810301e-02 1.396049799582885e-02 6.940857080781798e-02 2.379601208682847e-02 -3.898557085520483e-01 -1.582860735274263e-01 -2.012626696672210e-01 3.335514983154486e-01
            -2.012354891717184e-01 3.335387021309419e-01 -3.898921130590717e-01 -1.583664246640688e-01 4.751308962943723e-02 1.517527745406074e-02 5.264369287163884e-02 3.256104677925283e-02
            -3.899406025310945e-01 -1.583539630933982e-01 -2.012895067656185e-01 3.335628814728449e-01 5.268969090697546e-02 3.258315458427447e-02 4.750994767551261e-02 1.518555433390747e-02
359807500.0000000000 8.941551638216864e-02 3.329921093971814e-02 7.718175159528128e-02 2.579102247216546e-02 -7.141269836196036e-02 3.842394212489603e-01 -4.157173030952675e-01 -1.388344526991240e-02
            7.721780962606620e-02 2.579246987671670e-02 8.936664966160399e-02 3.328579469316680e-02 -4.157942990988611e-01 -1.392112179430475e-02 -7.141961627199932e-02 3.841975940853431e-01
            -7.148158277269566e-02 3.841839850476811e-01 -4.157177281433237e-01 -1.393271714737803e-02 6.602000911795160e-02 3.018940919294922e-02 7.542829007824919e-02 4.634931355439971e-02
            -4.157420371568005e-01 -1.396096258099167e-02 -7.139917608361049e-02 3.841802646888510e-01 7.543413594464846e-02 4.621605595114449e-02 6.596162858316768e-02 3.012410829112274e-02
360640000.0000000000 1.114371466065740e-01 2.732712556158182e-02 9.745122178918872e-02 2.325968384508923e-02 6.708037262832585e-02 3.847753271622392e-01 -3.917496980081812e-01 1.275961173567047e-01
            9.754314272409519e-02 2.322814636239400e-02 1.114576391927856e-01 2.739470805890766e-02 -3.917484340769493e-01 1.276415770687890e-01 6.698935626726017e-02 3.848457088743236e-01
            6.700012519257320e-02 3.847509127160881e-01 -3.918257944148570e-01 1.275631210518091e-01 8.895234880918114e-02 2.950759389509341e-02 1.017446889373584e-01 4.281566312900848e-02
            -3.918627307024405e-01 1.275949130399120e-01 6.713361655105020e-02 3.848413341598730e-01 1.016716008050620e-01 4.276630101816643e-02 8.906676417932727e-02 2.953155918644852e-02
361472500.0000000000 1.250070539418177e-01 8.226771486790845e-03 1.109837835858904e-01 8.057043477371351e-03 1.953661198602036e-01 3.376165522097264e-01 -3.231533108838703e-01 2.517293391195495e-01
            1.109189465703684e-01 8.024364482148483e-03 1.250247359203370e-01 8.231616895005818e-03 -3.231714517960043e-01 2.517729249585267e-01 1.953319076168376e-01 3.375743429611308e-01
            1.953685527780332e-01 3.375803561761163e-01 -3.231882910426247e-01 2.517971573205319e-01 1.056597483120899e-01 1.448873173189334e-02 1.199115763660336e-01 2.437060152969866e-02
            -3.230863609819694e-01 2.517142714327431e-01 1.953544433353643e-01 3.375624284785184e-01 1.199828071600614e-01 2.429366937985537e-02 1.056475903900935e-01 1.450042680544806e-02
362305000.0000000000 1.236986875875907e-01 -1.562300330936293e-02 1.112370992739100e-01 -1.240431667903577e-02 2.990813397152198e-01 2.507566797260347e-01 -2.174738508247638e-01 3.462252505128595e-01
            1.112754552773691e-01 -1.245462756687272e-02 1.236746875412395e-01 -1.562938155373190e-02 -2.174554206030552e-01 3.462758941714779e-01 2.991014950886721e-01 2.507783129632096e-01
            2.989795411408231e-01 2.507376672170326e-01 -2.173712346413341e-01 3.464053614333266e-01 1.083756915269482e-01 -7.238227803465170e-03 1.228223427579210e-01 -6.846199580555803e-04
            -2.173996662712888e-01 3.462720286555660e-01 2.990714510121406e-01 2.507922261322791e-01 1.228351291633040e-01 -7.918810478885094e-04 1.083907677392249e-01 -7.270155793547135e-03
363137500.0000000000 1.075742242104296e-01 -3.386287754723009e-02 9.815285607742077e-02 -2.859360481940371e-02 3.681085205031245e-01 1.347807780502003e-01 -8.468377611592627e-02 4.000709687230947e-01
            9.816112578483134e-02 -2.851269557849257e-02 1.075139132421470e-01 -3.385733166411397e-02 -8.477763427845622e-02 4.001819019907843e-01 3.680967751335975e-01 1.348753490262457e-01
            3.680718669381341e-01 1.348948149542301e-01 -8.476172306884899e-02 4.001357093741951e-01 9.634958552339942e-02 -2.540132406249647e-02 1.099305337490739e-01 -2.143692182796908e-02
            -8.483045592526052e-02 4.000973344369216e-01 3.681026989509597e-01 1.348295077448537e-01 1.099573221130415e-01 -2.129291289634297e-02 9.636363782873356e-02 -2.537284901189453e-02
363970000.0000000000 8.295637784310127e-02 -3.798117552587566e-02 7.721516222823260e-02 -3.248106984733289e-02 3.954355954468388e-01 1.326971056028251e-03 5.995189016406753e-02 4.044752342595959e-01
            7.723344655078829e-02 -3.256320454281826e-02 8.298801116991500e-02 -3.804506632538285e-02 5.997264979651902e-02 4.044955185208776e-01 3.954470603113134e-01 1.271632321644209e-03
            3.953749778534150e-01 1.267915761338125e-03 6.005936934680902e-02 4.044272874637481e-01 7.501908193704517e-02 -3.131325490284746e-02 8.746334728131162e-02 -2.860050572955009e-02
            5.992266793562005e-02 4.044521114294010e-01 3.953602475151514e-01 1.262530604200105e-03 8.746274852470515e-02 -2.858515771296043e-02 7.493407495707603e-02 -3.140239641147372e-02
364802500.0000000000 6.109893162224658e-02 -2.558421142367551e-02 5.844073991619900e-02 -2.174785611394226e-02 3.757484231522940e-01 -1.364624740819139e-01 1.974463163314892e-01 3.564360088410473e-01
            5.840225429553118e-02 -2.175796653593810e-02 6.109646077952864e-02 -2.550876135337780e-02 1.974661117399355e-01 3.564048761396158e-01 3.757739002838599e-01 -1.364853307440867e-01
            3.758179228036710e-01 -1.364452674003527e-01 1.974559740009623e-01 3.565226178572088e-01 5.462226338156750e-02 -2.164726361110360e-02 6.662659331669625e-02 -1.917203213155790e-02
            1.974162292632314e-01 3.563815597771393e-01 3.757018115530104e-01 -1.364775593972266e-01 6.660045015326999e-02 -1.920998558745202e-02 5.471331814325247e-02 -2.153771274792395e-02
365635000.0000000000 5.236821296715578e-02 -1.776324021003005e-03 5.132536500846407e-02 -1.054729404137029e-03 3.077155519070443e-01 -2.614077514431706e-01 3.076849123282036e-01 2.621651109375735e-01
            5.125560332589014e-02 -1.120466824880017e-03 5.238966019477287e-02 -1.761566272406225e-03 3.076699908696964e-01 2.621973934987852e-01 3.076938315987385e-01 -2.614807617925262e-01
            3.077089303185142e-01 -2.614748395102412e-01 3.076918584648104e-01 2.622338713768785e-01 4.584053529995462e-02 -5.175998669692391e-04 5.804871589880114e-02 1.514782375349709e-03
            3.075776477279716e-01 2.622933320994436e-01 3.077103236955825e-01 -2.614049214789541e-01 5.801617344302268e-02 1.477299644364477e-03 4.581993959239855e-02 -5.223358126230816e-04
366467500.0000000000 6.121199961372425e-02 2.176204957385072e-02 5.949256966194759e-02 1.888062313842357e-02 1.976383962441609e-01 -3.553381741594084e-01 3.755349113017381e-01 1.369471436721963e-01
            5.950765149137030e-02 1.891495124243447e-02 6.102353098950714e-02 2.169064820965414e-02 3.755189162357123e-01 1.370089495666956e-01 1.977096351583878e-01 -3.552049632501109e-01
            1.976970431982084e-01 -3.552400638027149e-01 3.755684871285865e-01 1.369917899490420e-01 5.308281136787396e-02 2.084953211210891e-02 6.626669478271575e-02 2.216374430459184e-02
            3.755101441075625e-01 1.369252550406291e-01 1.976853708215133e-01 -3.551027723042685e-01 6.632996213732618e-02 2.218278136636589e-02 5.306825080875749e-02 2.093489362766978e-02
367300000.0000000000 8.251115934550499e-02 3.367224000952874e-02 7.853764540864060e-02 2.800015720347592e-02 6.064990842154493e-02 -4.029373579402931e-01 3.950630381241784e-01 -7.747588408564749e-04
            7.846744412349785e-02 2.800428566623546e-02 8.247082525527367e-02 3.375420740010539e-02 3.950224872759209e-01 -8.618757407346822e-04 6.069520670342354e-02 -4.029457030274072e-01
            6.065581604133570e-02 -4.028140093090995e-01 3.950010986160257e-01 -7.974526333906357e-04 7.229729518908837e-02 3.202376546560070e-02 8.655404190905243e-02 3.140890011961138e-02
            3.949989820018442e-01 -8.135530351752199e-04 6.069343972184260e-02 -4.029532741896898e-01 8.660464483577215e-02 3.145337778566244e-02 7.228307290139974e-02 3.191515511627736e-02
368132500.0000000000 1.058470906253689e-01 2.928147145979186e-02 9.808231298368664e-02 2.240272236538124e-02 -8.320083179504090e-02 -3.986392618027286e-01 3.675520422381668e-01 -1.344561155576366e-01
            9.811329526592615e-02 2.237790419395838e-02 1.058460933226628e-01 2.916283115679203e-02 3.675224276782769e-01 -1.343627185862769e-01 -8.323084726515333e-02 -3.986238473656333e-01
            -8.329841435239452e-02 -3.986245956284656e-01 3.675325102121833e-01 -1.344521219813203e-01 9.321793507824394e-02 2.779509967664843e-02 1.079878891602931e-01 2.440735623050019e-02
            3.675490188235715e-01 -1.343751747435099e-01 -8.328839694135456e-02 -3.986807897620845e-01 1.080222540058990e-01 2.440231408826876e-02 9.328808157337908e-02 2.780912704043138e-02
368965000.0000000000 1.205150897738122e-01 1.146115326558694e-02 1.088534824601868e-01 5.615150642631678e-03 -2.152576247317977e-01 -3.453070878650935e-01 2.981846366483556e-01 -2.501204435206941e-01
            1.087784858816681e-01 5.610631557459699e-03 1.204780581773267e-01 1.153590031318709e-02 2.981381816470601e-01 -2.502199775384731e-01 -2.151913639826135e-01 -3.452960213226037e-01
            -2.152555511107355e-01 -3.453591571382464e-01 2.981528962577451e-01 -2.502140806928341e-01 1.058606207472854e-01 1.136333300661283e-02 1.198180893256365e-01 4.646907883746762e-03
            2.982265096136432e-01 -2.501652802558062e-01 -2.151948344882385e-01 -3.453353650060650e-01 1.198552367606832e-01 4.558167028370649e-03 1.058159438321248e-01 1.137999346006135e-02
369797500.0000000000 1.205435047799774e-01 -1.091499829856160e-02 1.057827069975276e-01 -1.388690235605985e-02 -3.206394727114109e-01 -2.514661835410203e-01 1.940820054335226e-01 -3.364447524027731e-01
            1.057880239918377e-01 -1.389503634880451e-02 1.205526370313838e-01 -1.085721022242664e-02 1.940629644127326e-01 -3.364559468348984e-01 -3.206540286862223e-01 -2.514862308001074e-01
            -3.205947916803498e-01 -2.515429467248453e-01 1.940770831708289e-01 -3.365154054108428e-01 1.043736632248224e-01 -9.047404812278179e-03 1.162329232095147e-01 -1.897470133073124e-02
            1.940749408687442e-01 -3.364961466713141e-01 -3.206479886259860e-01 -2.513761335063393e-01 1.161139751923272e-01 -1.886966512250113e-02 1.044145434626396e-01 -8.972026694090718e-03
370630000.0000000000 1.064506129497453e-01 -2.756048706269704e-02 9.030789683423704e-02 -2.663871561394182e-02 -3.891819205709363e-01 -1.280179010999378e-01 6.572166326508667e-02 -3.826759818473320e-01
            9.031763052743633e-02 -2.662968522564294e-02 1.063714174443029e-01 -2.764586298248863e-02 6.572859614167587e-02 -3.827211230265724e-01 -3.891566400602031e-01 -1.279774094723782e-01
            -3.891759289567870e-01 -1.279400962564295e-01 6.573962444047106e-02 -3.826129959069307e-01 8.955629324384845e-02 -2.328139572434278e-02 9.798140476385457e-02 -3.516881038062694e-02
            6.568429533012643e-02 -3.826302480546502e-01 -3.891962980342514e-01 -1.279205473132146e-01 9.795408739552974e-02 -3.519244428517837e-02 8.963664450120674e-02 -2.334086291306626e-02
371462500.0000000000 8.520880843622744e-02 -3.094977717691649e-02 6.973048457547001e-02 -2.593280665628890e-02 -4.130514981215770e-01 1.316190469011175e-02 -7.208901570681367e-02 -3.807505279466177e-01
            6.972129295756165e-02 -2.589429345418679e-02 8.511528608619977e-02 -3.091596167629647e-02 -7.204482675065897e-02 -3.808247615211284e-01 -4.131142570036648e-01 1.313981252180197e-02
            -4.130075317892770e-01 1.315230114772710e-02 -7.210196704914532e-02 -3.807335941294507e-01 6.836789044977826e-02 -2.389211338978335e-02 7.284180847872358e-02 -3.636026041003996e-02
            -7.209779860791864e-02 -3.807865383159422e-01 -4.130318036352476e-01 1.319118061374349e-02 7.282306982765567e-02 -3.628012681232960e-02 6.836628358742682e-02 -2.401436944132043e-02
372295000.0000000000 6.754079956103762e-02 -1.926864197049057e-02 5.449855068644566e-02 -1.095892350606520e-02 -3.867903454724643e-01 1.568446449341122e-01 -2.002730103806435e-01 -3.291999565363452e-01
            5.460752696789519e-02 -1.095930875595147e-02 6.737200460104016e-02 -1.928017667850684e-02 -2.002316138411234e-01 -3.293015455261680e-01 -3.869182429655084e-01 1.567992095408082e-01
            -3.868477379146332e-01 1.567870773899813e-01 -2.002336024311004e-01 -3.292982055189442e-01 5.150895968725931e-02 -9.570850025118691e-03 5.247098555890451e-02 -2.099033644182253e-02
            -2.001851029754208e-01 -3.291990052936715e-01 -3.868292595408125e-01 1.567413646260364e-01 5.244887776911696e-02 -2.094484266112030e-02 5.161153453839135e-02 -9.595465191914117e-03
373127500.0000000000 6.269064542089189e-02 1.034260775006750e-03 5.304381159287467e-02 1.093349425527785e-02 -3.102046392756684e-01 2.844571547980332e-01 -3.000200238771438e-01 -2.357288330843450e-01
            5.305035026646938e-02 1.086589677861875e-02 6.265157060263440e-02 1.028405934337245e-03 -2.999476998658893e-01 -2.357684085272540e-01 -3.101840228488978e-01 2.843879491433318e-01
            -3.102371451745077e-01 2.843471431569581e-01 -2.999342400665469e-01 -2.357548234253438e-01 4.859313103117872e-02 1.309269604686665e-02 4.686754243957404e-02 3.832621472126013e-03
            -2.999357189238182e-01 -2.357651844918357e-01 -3.102188310507970e-01 2.843777398659100e-01 4.688066965409058e-02 3.904072533884152e-03 4.859053368548345e-02 1.314293068214525e-02
373960000.0000000000 7.297957319554081e-02 1.878461759750135e-02 6.678497969419663e-02 2.860159208854757e-02 -1.914936965520864e-01 3.769526865234845e-01 -3.585765018868414e-01 -1.154069955938324e-01
            6.679867708302091e-02 2.860842766289294e-02 7.304700785043880e-02 1.875504445637952e-02 -3.586652479484091e-01 -1.153865837874026e-01 -1.914803814525581e-01 3.769746706112437e-01
            -1.914756751942027e-01 3.768731333013113e-01 -3.585583375218085e-01 -1.154289946821523e-01 6.151441021917901e-02 3.273927111622928e-02 5.852809711571640e-02 2.610961521414205e-02
            -3.585823910244856e-01 -1.154344361581822e-01 -1.915165657145219e-01 3.768950436851644e-01 5.850335094783510e-02 2.611340695894802e-02 6.147977496816697e-02 3.263514937998024e-02
374792500.0000000000 9.249626960133885e-02 2.460117108516548e-02 8.896165238153750e-02 3.296068111001189e-02 -4.754096959747717e-02 4.204091454267063e-01 -3.719065814085316e-01 1.447811529375865e-02
            8.897866829512714e-02 3.300676702382763e-02 9.254160340976671e-02 2.463467472601755e-02 -3.718480460743456e-01 1.448300687215144e-02 -4.748616919571479e-02 4.203887517489108e-01
            -4.755108238810403e-02 4.203694385347617e-01 -3.718078341866674e-01 1.441485699418421e-02 8.408831394456182e-02 3.925818738517713e-02 8.110145619154860e-02 3.493679175453945e-02
            -3.718437749865341e-01 1.443100960880534e-02 -4.747275594620730e-02 4.204228960961304e-01 8.110650600379120e-02 3.494428444217038e-02 8.415918404577033e-02 3.921785767383556e-02
375625000.0000000000 1.108525040958512e-01 1.571874985277394e-02 1.087583746277550e-01 2.205605839129231e-02 1.011116380727830e-01 4.101341017588435e-01 -3.416996069075770e-01 1.389587367419116e-01
            1.087064007836361e-01 2.210250919093033e-02 1.108670974184909e-01 1.576777979453217e-02 -3.416621034994943e-01 1.389286479029935e-01 1.010044084146334e-01 4.101240964389801e-01
            1.010236400809569e-01 4.101422622364717e-01 -3.417015856423256e-01 1.389164183485081e-01 1.055425203934044e-01 2.989921347168342e-02 1.031258720954152e-01 2.738383374961390e-02
            -3.416623937531146e-01 1.389423921072405e-01 1.010123408636398e-01 4.102376710270527e-01 1.030860758668878e-01 2.734723098284552e-02 1.055590918740498e-01 2.999652158302584e-02
376457500.0000000000 1.188708876832259e-01 -3.247901723984517e-03 1.170314350969481e-01 1.109850430636998e-03 2.354708225052311e-01 3.502633337797623e-01 -2.727418925939031e-01 2.457298489317397e-01
            1.169137351911028e-01 1.180821068282240e-03 1.190250798820049e-01 -3.286318962619751e-03 -2.727193349754257e-01 2.457594714671674e-01 2.353767814264185e-01 3.502767868238916e-01
            2.354355111988361e-01 3.502460489169301e-01 -2.728237749259735e-01 2.458199408996681e-01 1.163171083138914e-01 9.401210573151634e-03 1.145511582103575e-01 7.908339547636213e-03
            -2.727450091768912e-01 2.457976155765678e-01 2.354213627409165e-01 3.502438032960405e-01 1.146211033580634e-01 7.933586058502957e-03 1.162332186471329e-01 9.501794409078869e-03
377290000.0000000000 1.125207966643132e-01 -2.338013988357876e-02 1.102394020307374e-01 -2.038408949590024e-02 3.413317480212927e-01 2.495908298214162e-01 -1.717609110333334e-01 3.240727243958786e-01
            1.102884854502120e-01 -2.033419387370003e-02 1.126247979240191e-01 -2.338721174918375e-02 -1.717574256294789e-01 3.240345023796323e-01 3.413094525716344e-01 2.495787190332554e-01
            3.414132541498390e-01 2.496015256200700e-01 -1.717489728472897e-01 3.240711193097492e-01 1.116472289144117e-01 -1.289963271601028e-02 1.106451084297271e-01 -1.378585455928313e-02
            -1.717805252544396e-01 3.239997564929871e-01 3.412945630409924e-01 2.494731034864663e-01 1.106336489050579e-01 -1.389963883429944e-02 1.116227809242750e-01 -1.289065339343894e-02
378122500.0000000000 9.421358990574190e-02 -3.507489985145684e-02 9.139397513888949e-02 -3.282692205342402e-02 4.082776130339676e-01 1.190779361623619e-01 -4.867176863643220e-02 3.633428290337104e-01
            9.144985546757828e-02 -3.268909862594907e-02 9.430480495324184e-02 -3.500117049342834e-02 -4.862131551148113e-02 3.633602114941964e-01 4.082637974259936e-01 1.190714386624049e-01
            4.083155023046472e-01 1.190924898393427e-01 -4.857202383745712e-02 3.633720506850919e-01 9.397205528515072e-02 -2.710634611950804e-02 9.345280544790852e-02 -2.752157577721080e-02
            -4.860785071627589e-02 3.634370752218867e-01 4.083115073939056e-01 1.190410715295548e-01 9.353523664673191e-02 -2.757384547279206e-02 9.398902477693540e-02 -2.704035002332086e-02
378955000.0000000000 7.212374671007485e-02 -3.202017959231700e-02 6.899647394354502e-02 -3.025402259745156e-02 4.280824198607002e-01 -2.843084901680724e-02 8.165964178102071e-02 3.564346883706774e-01
            6.891632812129005e-02 -3.017492985540250e-02 7.205582788015744e-02 -3.205174586508239e-02 8.170294969503221e-02 3.564685572048776e-01 4.279992744834106e-01 -2.840752629062858e-02
            4.280819299376674e-01 -2.841154516593614e-02 8.175003516376673e-02 3.563902733102396e-01 7.135020597509768e-02 -2.652659512542332e-02 7.113379108840387e-02 -2.639336717766686e-02
            8.177236420046796e-02 3.564128039502119e-01 4.279816037086382e-01 -2.847485220335664e-02 7.126072692940201e-02 -2.635117334430881e-02 7.134173384254290e-02 -2.662721484320385e-02
379787500.0000000000 5.690631623399591e-02 -1.497122951671540e-02 5.369715059568778e-02 -1.354350874120291e-02 3.953438983710041e-01 -1.766411261416383e-01 2.006169983832226e-01 3.026578714048891e-01
            5.374572557574907e-02 -1.349674269885692e-02 5.690476065573132e-02 -1.499383262911571e-02 2.006488866240062e-01 3.026255908710243e-01 3.954010878381044e-01 -1.766680130914658e-01
            3.953106873465531e-01 -1.766096700174925e-01 2.005178442539398e-01 3.026431998315869e-01 5.477180927151019e-02 -1.121164290827770e-02 5.541042621873600e-02 -1.037478684251394e-02
            2.006746087135099e-01 3.026946683690677e-01 3.953041692966939e-01 -1.766955733432221e-01 5.530244700553268e-02 -1.036478653769325e-02 5.457638432558613e-02 -1.123420316617866e-02
380620000.0000000000 5.651430469309588e-02 8.018946458221286e-03 5.337472158364388e-02 8.733509795574464e-03 3.107973523024036e-01 -3.059663929122750e-01 2.906801579945595e-01 2.106378061177309e-01
            5.343028958426752e-02 8.640722314330664e-03 5.658749878154339e-02 7.952958500123715e-03 2.907105222229499e-01 2.106044208809418e-01 3.107646627263028e-01 -3.059419265030674e-01
            3.108000477555255e-01 -3.058923285836410e-01 2.907431568395434e-01 2.106104508211082e-01 5.234892039518276e-02 1.104776269659656e-02 5.433817136193241e-02 1.253735220379847e-02
            2.906923642381253e-01 2.106045648386864e-01 3.108272496207986e-01 -3.059496171878954e-01 5.424421324990162e-02 1.243828892595537e-02 5.230466552903170e-02 1.107884879676663e-02
381452500.0000000000 7.132220127417484e-02 2.530136841122929e-02 6.783119358851709e-02 2.496986545483103e-02 1.843654165838708e-01 -3.968652177335106e-01 3.410364512268013e-01 9.541205536089840e-02
            6.777927464983874e-02 2.488887741067654e-02 7.137471367804957e-02 2.542889993855903e-02 3.410664689895281e-01 9.543466116481691e-02 1.844115709334893e-01 -3.968096021878984e-01
            1.844076473118538e-01 -3.968213693141046e-01 3.410793217216823e-01 9.545236293357244e-02 6.522022629958366e-02 2.879503529684628e-02 6.892212938069325e-02 3.027475477355976e-02
            3.410137504011209e-01 9.536124840280602e-02 1.843578631183352e-01 -3.968590180952856e-01 6.885712636691112e-02 3.032359835606653e-02 6.519351373424780e-02 2.879354311492782e-02
382285000.0000000000 9.351499686231451e-02 2.877045753328715e-02 8.872389522264974e-02 2.716999741100141e-02 3.427252744894251e-02 -4.362856417297050e-01 3.487287243187261e-01 -2.682749820768116e-02
            8.875057915082522e-02 2.712243786821417e-02 9.344663983530045e-02 2.878692041846909e-02 3.488625672050417e-01 -2.680809857458532e-02 3.429096565061165e-02 -4.362703580508214e-01
            3.422034244806335e-02 -4.362278324885489e-01 3.488665336101264e-01 -2.682891295180227e-02 8.586732143716527e-02 3.350197135573771e-02 9.137145899758996e-02 3.398190442053478e-02
            3.487189887649214e-01 -2.683070756337241e-02 3.425794284639119e-02 -4.361345132712235e-01 9.145700576807533e-02 3.406730975954608e-02 8.580518842286827e-02 3.345405335329629e-02
383117500.0000000000 1.120665949574524e-01 1.724097080169658e-02 1.053348113546608e-01 1.497117847095892e-02 -1.185041373709355e-01 -4.206347931788710e-01 3.161598496925579e-01 -1.426775871159730e-01
            1.053393797423298e-01 1.495049026410666e-02 1.120060450468150e-01 1.723622678388107e-02 3.161582663333660e-01 -1.427005606415674e-01 -1.184937753254846e-01 -4.205721752121643e-01
            -1.184917313279687e-01 -4.206553699807341e-01 3.160588035587072e-01 -1.426525437626953e-01 1.037154525800099e-01 2.369798105579278e-02 1.107311114981680e-01 2.236477065218529e-02
            3.161776724911744e-01 -1.427505970203273e-01 -1.184812858870083e-01 -4.204794989593611e-01 1.108112895987153e-01 2.242132339844448e-02 1.037053822552689e-01 2.370146636820002e-02
383950000.0000000000 1.185603290782652e-01 -3.289403087755133e-03 1.095942846359967e-01 -5.166417670777476e-03 -2.554193491668324e-01 -3.544470030833575e-01 2.474159874912909e-01 -2.409264380015274e-01
            1.095677235596738e-01 -5.259414658223631e-03 1.186182681829236e-01 -3.295170805000365e-03 2.474023091846902e-01 -2.409541881781506e-01 -2.553405091769778e-01 -3.544796899243957e-01
            -2.553219335157552e-01 -3.544369775079179e-01 2.474122810936925e-01 -2.409266686239479e-01 1.104697248257962e-01 5.100652390170520e-03 1.180524517277218e-01 1.235575967373399e-03
            2.473848007227917e-01 -2.409774998547332e-01 -2.553523608559868e-01 -3.543864622754737e-01 1.180874183617190e-01 1.161185803394547e-03 1.104073831762039e-01 5.057752517237517e-03
384782500.0000000000 1.103294171241932e-01 -2.308890533809468e-02 9.920313447241356e-02 -2.333169529387114e-02 -3.619911379756360e-01 -2.468295668024158e-01 1.490754645788414e-01 -3.110163811115507e-01
            9.918347452111326e-02 -2.329049026370200e-02 1.103272126048057e-01 -2.309830458725386e-02 1.490684256156137e-01 -3.110275385185328e-01 -3.619034926385877e-01 -2.468236979392544e-01
            -3.619599648106703e-01 -2.468348793356938e-01 1.491359908759744e-01 -3.110165431419268e-01 1.031431001977942e-01 -1.308714323159746e-02 1.100078019371067e-01 -1.957739623791568e-02
            1.491462571469558e-01 -3.109956276542768e-01 -3.619767164087519e-01 -2.468182673478981e-01 1.099891975971381e-01 -1.953544536304349e-02 1.032498013165648e-01 -1.300338531851230e-02
385615000.0000000000 9.089673725426439e-02 -3.267881532734827e-02 7.874092426331258e-02 -3.027197141827357e-02 -4.272238379179620e-01 -1.089763983096648e-01 3.131869307379696e-02 -3.428706951018592e-01
            7.872071152288426e-02 -3.029673582431903e-02 9.094195458062797e-02 -3.263674389408138e-02 3.132864442226000e-02 -3.429169200858683e-01 -4.272329276815675e-01 -1.090184916585420e-01
            -4.270933989994952e-01 -1.089158281740718e-01 3.127886512055807e-02 -3.428421942182062e-01 8.538942520473837e-02 -2.151287899021230e-02 9.038585486640932e-02 -3.012708764068749e-02
            3.126973393206700e-02 -3.428497830367387e-01 -4.272166368978083e-01 -1.089049326991987e-01 9.040844757392116e-02 -3.012046932419836e-02 8.538788040063999e-02 -2.157019445018034e-02
386447500.0000000000 6.978807708160052e-02 -2.702982970677150e-02 5.784349483939316e-02 -2.156451173763392e-02 -4.423103574937902e-01 4.536804866644667e-02 -9.100199227985992e-02 -3.303079567621705e-01
            5.781022541702599e-02 -2.159142980947179e-02 6.974324417081205e-02 -2.695404645775218e-02 -9.095769697427773e-02 -3.303008254123602e-01 -4.423444144172070e-01 4.530249813435847e-02
            -4.423165099050747e-01 4.527678502914609e-02 -9.092360686152423e-02 -3.302692000176921e-01 6.603588736360951e-02 -1.542889781666024e-02 6.849357974920336e-02 -2.510299975490486e-02
            -9.093344589544614e-02 -3.302443690711233e-01 -4.423258787217116e-01 4.539268944555958e-02 6.852346726661136e-02 -2.496721218047093e-02 6.604235374931455e-02 -1.534458154971347e-02
387280000.0000000000 5.779934920511543e-02 -8.292867094254979e-03 4.736644713915864e-02 -3.889413780064264e-04 -4.020368840432842e-01 1.979988655764174e-01 -1.994773455369915e-01 -2.743870728394742e-01
            4.740360360838743e-02 -4.350409811823399e-04 5.764994639948390e-02 -8.346617020963919e-03 -1.994258072202839e-01 -2.743078307470559e-01 -4.021137639070912e-01 1.980596302810943e-01
            -4.020970635268212e-01 1.980181853207208e-01 -1.994759281331216e-01 -2.744037072903854e-01 5.563758930207869e-02 3.018023415620077e-03 5.551566559672140e-02 -6.477887343435699e-03
            -1.995107212082858e-01 -2.743199463552822e-01 -4.021347135115818e-01 1.980549910066407e-01 5.555154913840665e-02 -6.554732576338346e-03 5.553303713940279e-02 2.932157428108382e-03
388112500.0000000000 6.137302580977975e-02 1.372588628620343e-02 5.362737647429704e-02 2.312192453914322e-02 -3.087408251094830e-01 3.280429443029651e-01 -2.787836440892368e-01 -1.847643068412939e-01
            5.362029939685178e-02 2.318195306824519e-02 6.136316260444824e-02 1.375840592818240e-02 -2.787861524752361e-01 -1.846870611090870e-01 -3.086955903702450e-01 3.280485585957344e-01
            -3.087037086346641e-01 3.279562860712715e-01 -2.787644216255618e-01 -1.847377981523432e-01 6.036015868626304e-02 2.445302721196379e-02 5.855443709210387e-02 1.608790421846523e-02
            -2.787861765533129e-01 -1.846895928433139e-01 -3.087290190294096e-01 3.279419542901262e-01 5.856665618231295e-02 1.613879919815601e-02 6.039989747582574e-02 2.442511909903264e-02
388945000.0000000000 7.871137853505600e-02 2.790418048892229e-02 7.378458549143249e-02 3.714545546076761e-02 -1.743783461395688e-01 4.157919336309592e-01 -3.204530067405751e-01 -7.618481031956285e-02
            7.383036043320911e-02 3.715224697132570e-02 7.875911470418576e-02 2.792045352476945e-02 -3.204736219800469e-01 -7.615729546042728e-02 -1.743732119242431e-01 4.158149895052592e-01
            -1.743858698733932e-01 4.158927017364756e-01 -3.204888265471240e-01 -7.620301583048157e-02 7.872859905338433e-02 3.761118743769793e-02 7.587098310919139e-02 3.101310797216447e-02
            -3.204699126654351e-01 -7.614100746609746e-02 -1.744030999204623e-01 4.158322448118826e-01 7.592117919276287e-02 3.094898529008860e-02 7.871345381291160e-02 3.771679966291376e-02
389777500.0000000000 1.010307328559600e-01 2.710409296777134e-02 9.823459263588596e-02 3.504240687832390e-02 -1.871627857490190e-02 4.497192081919831e-01 -3.232135687408378e-01 3.702584780221305e-02
            9.829760382215914e-02 3.499524085592336e-02 1.010926848887863e-01 2.693285478880310e-02 -3.231630728288682e-01 3.702073393260999e-02 -1.873108562904701e-02 4.497718973251033e-01
            -1.868434015827402e-02 4.497238158387442e-01 -3.231702105973934e-01 3.703487959250883e-02 1.014446176860952e-01 3.592175209503976e-02 9.866725363025124e-02 3.081451685752698e-02
            -3.231873027177846e-01 3.696496592635634e-02 -1.870196232940778e-02 4.498337657143486e-01 9.874048819659736e-02 3.086773891583665e-02 1.014695770146188e-01 3.592210890402820e-02
390610000.0000000000 1.176413154848205e-01 1.204519083905397e-02 1.156328497044240e-01 1.818510401943723e-02 1.370555904864439e-01 4.276380460044086e-01 -2.893396176742725e-01 1.432137005945251e-01
            1.156292661144228e-01 1.818825917484180e-02 1.177030228640458e-01 1.214693289173413e-02 -2.893887488375372e-01 1.432097356962560e-01 1.369926275760912e-01 4.276315537781084e-01
            1.370050190420589e-01 4.276515711081386e-01 -2.894612060727144e-01 1.432708748599230e-01 1.181561666021699e-01 2.019191315475458e-02 1.160139926542823e-01 1.611063277553827e-02
            -2.893893272126598e-01 1.432128140603958e-01 1.370551362550948e-01 4.276443740854576e-01 1.159452778884296e-01 1.599447076129826e-02 1.181698244195918e-01 2.012649703965865e-02
391442500.0000000000 1.208803376444960e-01 -1.001928566916478e-02 1.187022144817500e-01 -5.455970518430946e-03 2.745991196777475e-01 3.550155289380379e-01 -2.227352372978026e-01 2.325972033578995e-01
            1.186878665238511e-01 -5.422747469278038e-03 1.208432576819805e-01 -9.995137122986266e-03 -2.226894628088761e-01 2.325718629584904e-01 2.746279773112389e-01 3.550946878628172e-01
            2.746628359050010e-01 3.550192296359704e-01 -2.226358991300936e-01 2.326207323991494e-01 1.212279572099449e-01 -2.434083433802760e-03 1.200911884782375e-01 -6.242312296824792e-03
            -2.226571581320934e-01 2.326347151884491e-01 2.746672683836779e-01 3.550656512066476e-01 1.200802097615427e-01 -6.320687240819037e-03 1.212309586384790e-01 -2.460905742669327e-03
392275000.0000000000 1.094921492780295e-01 -2.932727068295281e-02 1.062126858651915e-01 -2.549816563014657e-02 3.802074133422095e-01 2.411974693932998e-01 -1.287031541505936e-01 2.951236300363511e-01
            1.062107694403244e-01 -2.556906405400116e-02 1.093571915726885e-01 -2.928791187376182e-02 -1.287457237173218e-01 2.951227785577516e-01 3.801758578342189e-01 2.411401173353369e-01
            3.801970766158259e-01 2.411936203853320e-01 -1.287119656562676e-01 2.950983448798096e-01 1.094759566007365e-01 -2.201305169017344e-02 1.091134986736111e-01 -2.615227569168989e-02
            -1.287275795080330e-01 2.951341753636944e-01 3.802850951792372e-01 2.411534305543389e-01 1.090364408615130e-01 -2.617154511969884e-02 1.094794473615568e-01 -2.196973988940142e-02
393107500.0000000000 8.814211368817089e-02 -3.708312050535709e-02 8.405202944479502e-02 -3.292210782211630e-02 4.425837988155878e-01 9.747463163049616e-02 -1.734753068595500e-02 3.211221620643158e-01
            8.394889431857222e-02 -3.294196148039129e-02 8.814659302969108e-02 -3.693419589593196e-02 -1.743824319627400e-02 3.210761219767178e-01 4.425648571610155e-01 9.754444488024679e-02
            4.426056840737488e-01 9.755120511049947e-02 -1.737288412541130e-02 3.211530414709918e-01 8.806562795419150e-02 -2.957427970199068e-02 8.795432679125274e-02 -3.453117535910997e-02
            -1.737737751332354e-02 3.211031648826352e-01 4.427008970597277e-01 9.757262172086589e-02 8.791533639286872e-02 -3.457036606074267e-02 8.796643900041062e-02 -2.968491659554541e-02
393940000.0000000000 6.676192938599866e-02 -2.919288699589777e-02 6.254176908244780e-02 -2.400663574028678e-02 4.529534408600716e-01 -6.150729936056740e-02 9.665774080277767e-02 3.049522650709797e-01
            6.247552630425573e-02 -2.400232667750980e-02 6.674481768400629e-02 -2.924676647828651e-02 9.668966401162192e-02 3.049563308553573e-01 4.530046642029417e-01 -6.151328508495434e-02
            4.528908367488734e-01 -6.144341288722001e-02 9.663850635957734e-02 3.049464347316732e-01 6.649261265551479e-02 -2.151008648586418e-02 6.643235769752512e-02 -2.721458623118472e-02
            9.666174811838389e-02 3.048995719581278e-01 4.529719240137092e-01 -6.155089361679685e-02 6.644174319204471e-02 -2.722931192646259e-02 6.657595942008945e-02 -2.158700719361838e-02
394772500.0000000000 5.568935879463422e-02 -9.365622415776648e-03 5.251057786851508e-02 -3.087699346158350e-03 4.063264928954090e-01 -2.169657862164450e-01 1.960576433136676e-01 2.484881125838752e-01
            5.244664498250359e-02 -3.062064440141254e-03 5.564205555748588e-02 -9.422542920405164e-03 1.959077856840541e-01 2.484884340947031e-01 4.063623030870062e-01 -2.169154918414877e-01
            4.063677298485974e-01 -2.169738293436174e-01 1.960572558351281e-01 2.484662165646657e-01 5.566593589536769e-02 -1.279486923150811e-03 5.526888977855684e-02 -7.632904560699792e-03
            1.960591325463728e-01 2.484768319397545e-01 4.063761218271930e-01 -2.169874765805162e-01 5.526881124930249e-02 -7.660021422313762e-03 5.563956680227503e-02 -1.264797060061866e-03
395605000.0000000000 6.054760816274469e-02 1.232582897475982e-02 5.931874665728199e-02 1.891988902254001e-02 3.060472021703918e-01 -3.471540714937821e-01 2.664108311966489e-01 1.617374662939626e-01
            5.933948677806062e-02 1.892647181100334e-02 6.053884145029099e-02 1.236854362607868e-02 2.665265968907456e-01 1.617134266864855e-01 3.059341096274049e-01 -3.471332215791721e-01
            3.060031428709510e-01 -3.472309574639525e-01 2.665372653463731e-01 1.617049337428712e-01 6.089606100984381e-02 2.106647186646551e-02 6.014052037635971e-02 1.404442386047792e-02
            2.665024126392959e-01 1.616877368716368e-01 3.059947536295378e-01 -3.471815465496611e-01 6.011993315421741e-02 1.406886818549535e-02 6.095163922558916e-02 2.110118589533934e-02
396437500.0000000000 7.800078598698812e-02 2.502855297914970e-02 7.910735761825377e-02 3.037541447704760e-02 1.654263208909441e-01 -4.325913077616494e-01 3.011429207745944e-01 5.901237638770754e-02
            7.915227596899120e-02 3.031624065407006e-02 7.801758427044421e-02 2.495208288843929e-02 3.011607692842618e-01 5.899653123639208e-02 1.654258855574194e-01 -4.326547165020881e-01
            1.653488964189873e-01 -4.326786448341609e-01 3.011429223540081e-01 5.895227950951179e-02 7.916413527913543e-02 3.428074132433596e-02 7.806524404779963e-02 2.653718913362168e-02
            3.011318968990738e-01 5.894246275372635e-02 1.654044971156751e-01 -4.326776837745538e-01 7.803260532176277e-02 2.647164463105687e-02 7.926841958279109e-02 3.430924269497523e-02
397270000.0000000000 9.886551086015928e-02 2.280866591629683e-02 1.014745458129867e-01 2.564573972098498e-02 4.783188234537107e-03 -4.623948682246531e-01 2.993815782766007e-01 -4.650920912402254e-02
            1.014622504739948e-01 2.566168468599586e-02 9.885827462329748e-02 2.270253895655779e-02 2.993833768412194e-01 -4.647592950793566e-02 4.776552363913176e-03 -4.624141197201379e-01
            4.729236192280772e-03 -4.623378317966294e-01 2.993608297623438e-01 -4.655029836542133e-02 1.013012361855818e-01 3.249291240340494e-02 9.942123160581501e-02 2.382554086574566e-02
            2.993123511924221e-01 -4.645433160204138e-02 4.715015370858952e-03 -4.623842061317645e-01 9.946129391640277e-02 2.392638258836902e-02 1.012182216629721e-01 3.251253785758567e-02
398102500.0000000000 1.126403928707599e-01 7.720578827391010e-03 1.151620491923674e-01 7.237662726992962e-03 -1.544064389675517e-01 -4.349609364876362e-01 2.638255657628008e-01 -1.442890842241045e-01
            1.153140063473390e-01 7.253687917288372e-03 1.127034518127065e-01 7.660503991889513e-03 2.637281554761755e-01 -1.442761166161209e-01 -1.543796316854621e-01 -4.350365085123094e-01
            -1.543552678497534e-01 -4.350102615490954e-01 2.638099593124583e-01 -1.442616585602574e-01 1.164929765957474e-01 1.750039788177236e-02 1.136588526513190e-01 7.998393976653114e-03
            2.637687649299681e-01 -1.443448036121345e-01 -1.543794519925203e-01 -4.349767071411093e-01 1.136462867939955e-01 7.908083133493537e-03 1.165214598070811e-01 1.762453968002115e-02
398935000.0000000000 1.130468138300083e-01 -1.251592395663251e-02 1.139637282782404e-01 -1.617384426032248e-02 -2.937583371075480e-01 -3.562944058634308e-01 1.979036339378359e-01 -2.251173650245713e-01
            1.139794512433732e-01 -1.613365028199941e-02 1.130842505737883e-01 -1.245528110022949e-02 1.979961491463445e-01 -2.250851640620748e-01 -2.936995303106429e-01 -3.562012820148971e-01
            -2.937315396231132e-01 -3.561734574975571e-01 1.979349625649311e-01 -2.250574624442747e-01 1.186854259700160e-01 -3.008627123711914e-03 1.141549943491257e-01 -1.350391744743539e-02
            1.979703631246973e-01 -2.250319872637318e-01 -2.937594822058295e-01 -3.562485342376422e-01 1.140939413876070e-01 -1.356365755638228e-02 1.186338189416449e-01 -3.077354006219473e-03
399767500.0000000000 1.000605620910239e-01 -2.823186470341171e-02 9.755517689696584e-02 -3.389996980312483e-02 -3.990317937394031e-01 -2.355321212294347e-01 1.075297509522439e-01 -2.793186721186725e-01
            9.748662252291129e-02 -3.385083190557899e-02 1.000728159441853e-01 -2.821817673647002e-02 1.076270265294094e-01 -2.793618992497126e-01 -3.990204942901121e-01 -2.355344369377543e-01
            -3.990907471329246e-01 -2.355169663203005e-01 1.075333632432211e-01 -2.793567245470633e-01 1.073356570621099e-01 -1.961014543833716e-02 1.005813161292298e-01 -3.045455921420440e-02
            1.075477488713577e-01 -2.793663433137032e-01 -3.990303566923522e-01 -2.355620569745656e-01 1.006803089114230e-01 -3.043376039907037e-02 1.074522120453166e-01 -1.965579713776183e-02
400600000.0000000000 7.937921127742019e-02 -3.143032138380248e-02 7.292222546044345e-02 -3.728256705660167e-02 -4.586160668843045e-01 -8.516286733891155e-02 2.653566253933159e-03 -2.984408146191953e-01
            7.290552904635880e-02 -3.725984312847796e-02 7.939599710867419e-02 -3.155034149713779e-02 2.592275981770292e-03 -2.985016461795186e-01 -4.585241988312262e-01 -8.513596442570097e-02
            -4.585558282366838e-01 -8.515391069188638e-02 2.627858983771803e-03 -2.984516894903801e-01 8.832904585346439e-02 -2.445337003411936e-02 7.911934387581333e-02 -3.475625594363881e-02
            2.603892569610103e-03 -2.984586548193240e-01 -4.585384609593771e-01 -8.511743613039098e-02 7.913388901730434e-02 -3.474608960417113e-02 8.839034321783810e-02 -2.448088391537771e-02
401432500.0000000000 6.119472170539324e-02 -2.000594761674639e-02 5.133429120004868e-02 -2.399645053945339e-02 -4.633109078608559e-01 7.917497515204999e-02 -1.022821364472851e-01 -2.778360434357566e-01
            5.125421143557678e-02 -2.398614271916297e-02 6.123026086157220e-02 -1.999998464258871e-02 -1.023442543487583e-01 -2.778404963450953e-01 -4.633576701418122e-01 7.925246826828695e-02
            -4.632491317811454e-01 7.925056292164233e-02 -1.023856197255136e-01 -2.779395463563496e-01 7.143388285084652e-02 -1.511099068287458e-02 5.979888965758534e-02 -2.389366837874379e-02
            -1.023776470864301e-01 -2.779018005067796e-01 -4.632922202342848e-01 7.927747705240050e-02 5.981962276905625e-02 -2.385438982825944e-02 7.150836434883230e-02 -1.510920179366334e-02
402265000.0000000000 5.520390833088374e-02 1.080367181675987e-03 4.315658788693905e-02 3.787031877665679e-04 -4.091545160058800e-01 2.373296458036757e-01 -1.912217018340956e-01 -2.208723730701742e-01
            4.308239987308879e-02 3.443593811770190e-04 5.515936146521894e-02 1.074717504983986e-03 -1.912415996637598e-01 -2.209741837690755e-01 -4.091473550007308e-01 2.373392176542985e-01
            -4.091161247880977e-01 2.373222850479512e-01 -1.912327945044234e-01 -2.209403148482647e-01 6.588380025504592e-02 3.267880783846646e-03 5.258405665499703e-02 -3.030942087285961e-03
            -1.913055595882326e-01 -2.209052591423699e-01 -4.092399188712194e-01 2.373035985875065e-01 5.255237176099337e-02 -3.016059114865803e-03 6.592673747671919e-02 3.236244233407002e-03
403097500.0000000000 6.474066569632553e-02 2.117863557745774e-02 5.241046988981751e-02 2.407442183065337e-02 -3.010280521919388e-01 3.666697148161928e-01 -2.519423768552275e-01 -1.380222857255767e-01
            5.250207581354873e-02 2.406010806957943e-02 6.476284846512530e-02 2.118266777250228e-02 -2.519380564154207e-01 -1.380591673424675e-01 -3.010717175980347e-01 3.666893271755892e-01
            -3.010160724265067e-01 3.666852812362518e-01 -2.519586795059217e-01 -1.379951289276448e-01 7.493153530788518e-02 2.041470144812983e-02 6.098908793991135e-02 1.712821807222968e-02
            -2.519849342901537e-01 -1.380280151014639e-01 -3.010499172728393e-01 3.665951382028501e-01 6.100894629497851e-02 1.714022188771636e-02 7.496706957910029e-02 2.044076750301229e-02
403930000.0000000000 8.506827228155454e-02 2.991788126187251e-02 7.403780252251391e-02 3.580178139121711e-02 -1.540134345225860e-01 4.485275289122499e-01 -2.793565655115092e-01 -4.238019956166125e-02
            7.403144155034153e-02 3.593120641611968e-02 8.506729435500364e-02 2.999429082904130e-02 -2.793453755276816e-01 -4.243448642783123e-02 -1.540088113971555e-01 4.485303779006911e-01
            -1.540422175772176e-01 4.485062935290728e-01 -2.793444645882206e-01 -4.242083378209775e-02 9.372712913371194e-02 2.676483099650400e-02 8.032149486221815e-02 2.621903724395805e-02
            -2.793740794878308e-01 -4.246282397019376e-02 -1.540416987262224e-01 4.485438463049206e-01 8.035369258839381e-02 2.622644547354907e-02 9.373532787446830e-02 2.674797884007757e-02
404762500.0000000000 1.060104414115022e-01 2.345958278486144e-02 9.740373432132512e-02 3.126981419535783e-02 1.093977637847065e-02 4.731201004315323e-01 -2.737964238201124e-01 5.421560703826073e-02
            9.737681567513236e-02 3.129289535744183e-02 1.059767119716055e-01 2.349947601654571e-02 -2.737426374215285e-01 5.427961953351045e-02 1.081192613975522e-02 4.731074485008125e-01
            1.088491837804965e-02 4.731413300634474e-01 -2.737334668817890e-01 5.422642362275736e-02 1.124593894855523e-01 1.855841040683034e-02 1.006759239976875e-01 2.011048285941992e-02
            -2.737410985483913e-01 5.420729107101397e-02 1.087585244316266e-02 4.731183796481953e-01 1.006899169286857e-01 2.016861851424872e-02 1.124127192940781e-01 1.854610570874784e-02
405595000.0000000000 1.178521776627732e-01 5.476190538865293e-03 1.116759763993772e-01 1.353263864022734e-02 1.723114407717758e-01 4.398938329590829e-01 -2.374729143394113e-01 1.428901811059763e-01
            1.116382393844413e-01 1.354181956151945e-02 1.179864022205427e-01 5.455314760605197e-03 -2.374326309136496e-01 1.429452482675494e-01 1.723591978841471e-01 4.399251398555671e-01
            1.723464235427274e-01 4.398528542942710e-01 -2.374438438677152e-01 1.429234007935826e-01 1.216032951811284e-01 -3.160064673767309e-04 1.118994329281146e-01 2.346816942925540e-03
            -2.374719795365424e-01 1.429548757148223e-01 1.722904482423250e-01 4.398587101287245e-01 1.119559026953169e-01 2.401058149544736e-03 1.216409171868975e-01 -2.774625458555168e-04
406427500.0000000000 1.156955725097293e-01 -1.583894357596151e-02 1.112570101144032e-01 -8.562539862977031e-03 3.123467895212274e-01 3.549094549625155e-01 -1.736911184824318e-01 2.151617135646076e-01
            1.112898003465893e-01 -8.563013505185440e-03 1.156798470762480e-01 -1.586405611796329e-02 -1.737271448091761e-01 2.150907620714856e-01 3.123221173045498e-01 3.549621148013973e-01
            3.123661081522616e-01 3.549507086615052e-01 -1.736653751833633e-01 2.151513014196465e-01 1.166821227386177e-01 -2.140087273085908e-02 1.090176635325698e-01 -1.878919063028233e-02
            -1.736664031556548e-01 2.150605843153482e-01 3.123782193276876e-01 3.549479244993509e-01 1.091212456255172e-01 -1.879636103005474e-02 1.166768380948385e-01 -2.140153397924272e-02
407260000.0000000000 1.006729504582914e-01 -3.076350145092921e-02 9.686622622638914e-02 -2.477274938904371e-02 4.164029516965291e-01 2.280173292004241e-01 -8.787021969038211e-02 2.617076526548381e-01
            9.678359071689281e-02 -2.472451718983298e-02 1.006610496259935e-01 -3.085946885957472e-02 -8.781454003037194e-02 2.616996635105418e-01 4.163462959611160e-01 2.279402697860734e-01
            4.164515947744369e-01 2.279878763596304e-01 -8.784669943250370e-02 2.617617131754328e-01 9.912708841942761e-02 -3.515732440423126e-02 9.291289566867150e-02 -3.344818969191833e-02
            -8.785112455725100e-02 2.617712421672203e-01 4.163575609547267e-01 2.280814040288570e-01 9.296496037198780e-02 -3.342734954920942e-02 9.918809199373367e-02 -3.515406469587108e-02
408092500.0000000000 7.958617661196558e-02 -3.274594154598854e-02 7.546307697800189e-02 -2.743299475860271e-02 4.723914244786094e-01 7.176612523141243e-02 1.000762576654840e-02 2.748394796369975e-01
            7.544027001147510e-02 -2.740340037408093e-02 7.960657154365558e-02 -3.273056534529856e-02 1.004635650018535e-02 2.748275027836640e-01 4.724281315396586e-01 7.175156565000797e-02
            4.723830586156172e-01 7.178218560906792e-02 9.990298616931995e-03 2.748320268217769e-01 7.644631574517298e-02 -3.502889060420163e-02 7.078041404299770e-02 -3.452993018316397e-02
            1.004612233535383e-02 2.747836334857979e-01 4.724386383406954e-01 7.173968106192183e-02 7.086977373226709e-02 -3.446169826961859e-02 7.639467149162621e-02 -3.492329345640717e-02
408925000.0000000000 6.242492699475292e-02 -2.053962200253744e-02 5.775335120653971e-02 -1.509454278893971e-02 4.714687241313853e-01 -9.689415370168575e-02 1.058607083017969e-01 2.509861430477343e-01
            5.773005632939655e-02 -1.515447225786255e-02 6.244346581479892e-02 -2.060092182771568e-02 1.058039951155231e-01 2.509689932278973e-01 4.714302921819504e-01 -9.696121497811744e-02
            4.714275950428927e-01 -9.693410205385097e-02 1.058342959536613e-01 2.509991560281915e-01 5.881420254716736e-02 -2.016031544061632e-02 5.301927770900930e-02 -2.098096363021817e-02
            1.058398502054540e-01 2.510443919452244e-01 4.714203558811504e-01 -9.697025399807577e-02 5.304354631923362e-02 -2.093543841929260e-02 5.885456913442617e-02 -2.019481707093073e-02
409757500.0000000000 5.784114014121686e-02 -5.963775265164841e-04 5.295315022366266e-02 5.964301868252505e-03 4.102909115641685e-01 -2.566610829357493e-01 1.848868664124631e-01 1.945784785112135e-01
            5.294994143404871e-02 5.843506345355427e-03 5.785224228371520e-02 -6.667268951296529e-04 1.848765331588093e-01 1.945159921527903e-01 4.101976734959513e-01 -2.567176431023941e-01
            4.101784113283158e-01 -2.566625726459056e-01 1.848656685966805e-01 1.944391684572148e-01 5.505881661100313e-02 2.240956129292568e-03 4.820401170587679e-02 7.037762966653280e-04
            1.849562899150343e-01 1.945660758180880e-01 4.102686929056018e-01 -2.566631745380988e-01 4.816261118232472e-02 7.400793308645981e-04 5.508300223271384e-02 2.242748336219453e-03
410590000.0000000000 6.758434590561291e-02 1.656837545816910e-02 6.334920518480353e-02 2.455297119996331e-02 2.952404702581712e-01 -3.847334890216764e-01 2.368522420773979e-01 1.157652241463225e-01
            6.336795577653999e-02 2.454939589105212e-02 6.761629437628454e-02 1.665804317524286e-02 2.367801539613379e-01 1.157952441665372e-01 2.952387237084237e-01 -3.847289874924047e-01
            2.952047968072363e-01 -3.847804638437248e-01 2.368084998178795e-01 1.158275816257974e-01 6.664324073687818e-02 2.126373561683375e-02 5.850132639163213e-02 1.955647862234223e-02
            2.367720880650283e-01 1.158260844630318e-01 2.952378602230947e-01 -3.847447601870986e-01 5.854013725740508e-02 1.942473676977894e-02 6.664746057065690e-02 2.131425922419879e-02
411422500.0000000000 8.560323186697502e-02 2.238901328050433e-02 8.324324514496199e-02 3.141824239872253e-02 1.426416155326826e-01 -4.632126551068281e-01 2.577173172250127e-01 2.705438062271584e-02
            8.331098736085880e-02 3.131229376828843e-02 8.557779053395241e-02 2.231652200486092e-02 2.576783393952576e-01 2.703539368195954e-02 1.426327752439191e-01 -4.632462888982888e-01
            1.425843799150450e-01 -4.632414335022079e-01 2.577130948080014e-01 2.700985158131778e-02 8.711741934802956e-02 2.767263438504217e-02 7.781645160869528e-02 2.624500371260877e-02
            2.578154333763728e-01 2.697634303364678e-02 1.426364358743304e-01 -4.632751044063073e-01 7.781028891747863e-02 2.630384503328351e-02 8.714203679974408e-02 2.769383785437974e-02
412255000.0000000000 1.021199250005115e-01 1.450833861594973e-02 1.023087125261596e-01 2.364552834003611e-02 -2.632156805087825e-02 -4.830777998128531e-01 2.484951784918184e-01 -6.155868634817513e-02
            1.022868517823691e-01 2.360762833065572e-02 1.021106464998323e-01 1.446363045684777e-02 2.484540003201623e-01 -6.155833810643491e-02 -2.631209302178267e-02 -4.831860009777871e-01
            -2.643997954174601e-02 -4.832059959599660e-01 2.484587940854128e-01 -6.156983122985715e-02 1.060352385231854e-01 1.929267584185565e-02 9.563973671433391e-02 1.872029834819184e-02
            2.484187067041343e-01 -6.157948318851785e-02 -2.633865225392073e-02 -4.831188740644374e-01 9.554237238202098e-02 1.878066020641284e-02 1.061175386299696e-01 1.923300483457845e-02
413087500.0000000000 1.086674699353372e-01 -2.264453217668628e-03 1.113381397938017e-01 5.487329723784346e-03 -1.904756933492039e-01 -4.444891318512316e-01 2.110827947463508e-01 -1.416507737124967e-01
            1.114618870993124e-01 5.600287983152386e-03 1.086509497843318e-01 -2.217610653138509e-03 2.109915273804080e-01 -1.415966928956444e-01 -1.904563754259179e-01 -4.444912011568560e-01
            -1.904637812483375e-01 -4.444627611979297e-01 2.109986185537886e-01 -1.416574704131518e-01 1.146014905178750e-01 8.849942932793154e-04 1.032931377631248e-01 1.518068343912733e-03
            2.110046449929040e-01 -1.416147433677514e-01 -1.904857330966912e-01 -4.444611919337900e-01 1.032717404818767e-01 1.502663721407228e-03 1.146279808983700e-01 9.270499780456120e-04
413920000.0000000000 1.019869714946993e-01 -1.922713525271595e-02 1.066084945109730e-01 -1.374727753340008e-02 -3.315792178758953e-01 -3.531720867861703e-01 1.487038752397411e-01 -2.049823703521643e-01
            1.065541000257104e-01 -1.383481533191683e-02 1.019753383043677e-01 -1.912247986464578e-02 1.485724848784644e-01 -2.049073683955841e-01 -3.315773286621349e-01 -3.531877891497181e-01
            -3.316510160861521e-01 -3.531866923276564e-01 1.485477719796162e-01 -2.049272844236994e-01 1.089098044697680e-01 -1.834571920298364e-02 9.701652180317588e-02 -1.622530155556244e-02
            1.486362804494923e-01 -2.049278266471583e-01 -3.316614634251137e-01 -3.531576634562690e-01 9.702644853006685e-02 -1.618042276953749e-02 1.088866574279542e-01 -1.823073670298341e-02
414752500.0000000000 8.512072053610782e-02 -2.739919791758635e-02 9.011715597788630e-02 -2.510092622874215e-02 -4.345695342073203e-01 -2.191527430591712e-01 6.710184652634850e-02 -2.429104355791500e-01
            9.019952764816994e-02 -2.517767383561318e-02 8.500099193573442e-02 -2.725315519695193e-02 6.707246392287571e-02 -2.430444976567496e-01 -4.345610854699229e-01 -2.191502615243070e-01
            -4.345426273619694e-01 -2.191036168531046e-01 6.703204148733539e-02 -2.430268584640109e-01 9.190562816625207e-02 -2.902008680048432e-02 7.967203304615374e-02 -2.517387548112485e-02
            6.709065297508812e-02 -2.429855581943113e-01 -4.345441203263128e-01 -2.191409181044452e-01 7.965037601560308e-02 -2.523671568518695e-02 9.180539479875297e-02 -2.896721867067536e-02
415585000.0000000000 6.608829094100635e-02 -2.157738676810375e-02 7.019225617916293e-02 -2.250876062393649e-02 -4.864474450232431e-01 -5.611082922047895e-02 -2.316995583497869e-02 -2.489788428576206e-01
            7.026501776648102e-02 -2.257827604333210e-02 6.606649784418778e-02 -2.162459821229499e-02 -2.313463722494720e-02 -2.489309603010235e-01 -4.864154045398676e-01 -5.613065766609492e-02
            -4.864957765420961e-01 -5.609085961348083e-02 -2.310959233137207e-02 -2.489356291336412e-01 7.168294612390863e-02 -2.544075279579465e-02 5.960411525297477e-02 -1.984634714443297e-02
            -2.321140651650974e-02 -2.489353565426217e-01 -4.863976739403973e-01 -5.604473929664266e-02 5.963978082574280e-02 -1.979057566138391e-02 7.162560706788991e-02 -2.548435276713807e-02
416417500.0000000000 5.534454691136992e-02 -3.714635987604584e-03 5.711412383195672e-02 -7.021331516065154e-03 -4.782279649275610e-01 1.173246362829002e-01 -1.082560565237814e-01 -2.214028542909637e-01
            5.719378974465694e-02 -6.967818440015631e-03 5.528016080382518e-02 -3.790143147792218e-03 -1.082860667600583e-01 -2.213996085402803e-01 -4.782217312932726e-01 1.173553982901327e-01
            -4.782363652850019e-01 1.172771697410444e-01 -1.083314236639980e-01 -2.213352164951066e-01 5.891488076433956e-02 -8.925492877358221e-03 4.746962497083543e-02 -1.356595521640138e-03
            -1.082963418229289e-01 -2.214009299187080e-01 -4.780863049548619e-01 1.172557776073370e-01 4.745850050322492e-02 -1.336811718762958e-03 5.884646708853447e-02 -8.925026472156167e-03
417250000.0000000000 5.925083485756083e-02 1.767127224263533e-02 5.817802654176530e-02 1.343694483336674e-02 -4.082528248190586e-01 2.779023501913283e-01 -1.756910131479311e-01 -1.659389280195346e-01
            5.820667887977700e-02 1.346235969717551e-02 5.917104497414524e-02 1.765995055864374e-02 -1.756467277476348e-01 -1.659941213263154e-01 -4.081480675987316e-01 2.779979291138454e-01
            -4.081373610253137e-01 2.779044936267036e-01 -1.756570931298126e-01 -1.660250091348979e-01 6.039269869360761e-02 1.223795965645632e-02 5.027356450418089e-02 2.169327713707579e-02
            -1.756170621038184e-01 -1.660298126397055e-01 -4.082084523501192e-01 2.778960425216029e-01 5.019817385118819e-02 2.173945523521608e-02 6.046693634222914e-02 1.222293813606390e-02
418082500.0000000000 7.673157078656397e-02 3.152368254809151e-02 7.279042437433553e-02 2.788809070164339e-02 -2.853000527311828e-01 4.028424156114273e-01 -2.175499074954048e-01 -9.326591581669803e-02
            7.274431433275587e-02 2.787908966042262e-02 7.671317988927250e-02 3.155489344047312e-02 -2.175958615676808e-01 -9.332198704434659e-02 -2.852717924542897e-01 4.029391131223521e-01
            -2.853063340187059e-01 4.029478204270904e-01 -2.175112926715179e-01 -9.328211392300877e-02 7.590593079412961e-02 2.697135221405325e-02 6.754249302031914e-02 3.805744039929662e-02
            -2.175956011659398e-01 -9.326771441513909e-02 -2.853570338535835e-01 4.028789759961743e-01 6.752863415269973e-02 3.810898820472747e-02 7.587382921496989e-02 2.694476535479653e-02
418915000.0000000000 9.942009699304320e-02 3.087008429422408e-02 9.334341590248317e-02 2.891454272050186e-02 -1.273222069640171e-01 4.757048639685699e-01 -2.323061888700187e-01 -1.364422560930447e-02
            9.333040289382336e-02 2.899828203296543e-02 9.936953809826876e-02 3.088210169888770e-02 -2.322354728843098e-01 -1.354112409759868e-02 -1.272721061835287e-01 4.756827203537406e-01
            -1.273182986555081e-01 4.756697668999876e-01 -2.321977841269553e-01 -1.368639068857390e-02 9.731377303247728e-02 2.812277903198669e-02 9.124999324972989e-02 4.014997466213531e-02
            -2.322629502640082e-01 -1.366270211116170e-02 -1.273476891921847e-01 4.757292046069598e-01 9.122713700376357e-02 4.014725424431274e-02 9.728719765712243e-02 2.806347382637003e-02
419747500.0000000000 1.166774443094442e-01 1.576267694375491e-02 1.094837829070921e-01 1.621857594089755e-02 4.408567054275885e-02 4.890905008013197e-01 -2.207994538485857e-01 6.490818736752596e-02
            1.095817673407163e-01 1.617827936317134e-02 1.166133592893666e-01 1.571768269982271e-02 -2.208190124508031e-01 6.487929558194094e-02 4.404574412077910e-02 4.890722333739545e-01
            4.403952896803717e-02 4.891096639226977e-01 -2.208453517154914e-01 6.487730067028388e-02 1.143390600506989e-01 1.514836170654047e-02 1.107867595988220e-01 2.761425534547255e-02
            -2.208237221428059e-01 6.493961894568639e-02 4.404479708434021e-02 4.891024823214798e-01 1.107894973222086e-01 2.763172963327221e-02 1.143047648491642e-01 1.526275386321451e-02
420580000.0000000000 1.206692135897071e-01 -7.033366637476387e-03 1.137262689533539e-01 -4.156762703541452e-03 2.084466716529307e-01 4.442248160626208e-01 -1.846733601505032e-01 1.355212511887745e-01
            1.137033365745802e-01 -4.166778957453758e-03 1.206387290918131e-01 -7.066549723969650e-03 -1.847006672080981e-01 1.355236810377228e-01 2.083864854328838e-01 4.441457798829181e-01
            2.083570571974844e-01 4.442313691089873e-01 -1.847291136841442e-01 1.355528278473495e-01 1.193375387103793e-01 -5.522020496373162e-03 1.182180754470575e-01 6.534660972807279e-03
            -1.847164758337886e-01 1.355372506796630e-01 2.083940119356659e-01 4.441763880362117e-01 1.181626341484415e-01 6.418992794115942e-03 1.192878726973449e-01 -5.535133387884740e-03
421412500.0000000000 1.093846813001637e-01 -2.773879004496524e-02 1.036765957575487e-01 -2.288779689040071e-02 3.481356690986014e-01 3.472723811009704e-01 -1.261234580679818e-01 1.906847581189043e-01
            1.036674404532679e-01 -2.285363785174062e-02 1.093956688083923e-01 -2.775058697785890e-02 -1.262199071262810e-01 1.907351413890181e-01 3.480851503582378e-01 3.472526031573657e-01
            3.481170507021865e-01 3.473041625777752e-01 -1.262118549797037e-01 1.906925914546253e-01 1.100270111029672e-01 -2.467536922185171e-02 1.111075180614341e-01 -1.375233461786098e-02
            -1.261849399901349e-01 1.907856913681080e-01 3.481013140963854e-01 3.472276503468724e-01 1.111427309571832e-01 -1.372111322937270e-02 1.100796680065451e-01 -2.469328862485022e-02
422245000.0000000000 8.727907743715020e-02 -3.713468047657418e-02 8.352769512665463e-02 -3.086810775487253e-02 4.482823905809083e-01 2.081714320721178e-01 -5.067437104621348e-02 2.222684343865509e-01
            8.348762401802534e-02 -3.091797282946373e-02 8.730100238069073e-02 -3.702343887265502e-02 -5.075400648388267e-02 2.223129210541458e-01 4.481279336589149e-01 2.081973325971215e-01
            4.482821563572279e-01 2.081809962942734e-01 -5.069946536990429e-02 2.223163531739887e-01 9.081457458890391e-02 -3.373935737619924e-02 9.366503204195939e-02 -2.405543300442113e-02
            -5.064051306375453e-02 2.223322894834131e-01 4.482409947808357e-01 2.082063589810886e-01 9.359042661652657e-02 -2.410025508592959e-02 9.095345900333542e-02 -3.373257962927442e-02
423077500.0000000000 6.375793679187673e-02 -3.033842441044547e-02 6.229877060708883e-02 -2.386004001684123e-02 4.957019204431865e-01 4.109437899779363e-02 3.162098061394822e-02 2.237570051212052e-01
            6.224344179204458e-02 -2.382957446706186e-02 6.375272211859441e-02 -3.028550336965256e-02 3.163833075597536e-02 2.237682019185194e-01 4.957918440103965e-01 4.112221179752605e-02
            4.957048635287287e-01 4.104049161048114e-02 3.160865381921435e-02 2.238558293251730e-01 7.040916411502987e-02 -2.830933862767121e-02 7.449297854702676e-02 -2.020249210325137e-02
            3.167000257824181e-02 2.237424987511266e-01 4.957001849636571e-01 4.109126884922010e-02 7.439234761757894e-02 -2.016886128453980e-02 7.029891486082818e-02 -2.835265452478135e-02
423910000.0000000000 4.985442739075267e-02 -1.006548913167658e-02 5.063743693479573e-02 -4.135916637456464e-03 4.817181789615288e-01 -1.347266552280350e-01 1.076610527575686e-01 1.946823281501810e-01
            5.064977409696379e-02 -4.142004451544765e-03 4.987548507670184e-02 -1.018218318105140e-02 1.076448986513232e-01 1.947133227976454e-01 4.817435919376223e-01 -1.346567512225499e-01
            4.816622017904459e-01 -1.346731849513228e-01 1.076492008037809e-01 1.946904178462920e-01 5.869695838064614e-02 -1.101331468240761e-02 6.381440901855910e-02 -4.416975708241283e-03
            1.075641994659517e-01 1.946652294837760e-01 4.816891902217286e-01 -1.347471298830054e-01 6.383477698063190e-02 -4.435967624576996e-03 5.876638680845466e-02 -1.096583365846484e-02
424742500.0000000000 5.183852403851581e-02 1.403410813564200e-02 5.461170858446648e-02 1.841411944959236e-02 4.052877409628362e-01 -2.954315727011171e-01 1.656784871504142e-01 1.412209232320220e-01
            5.467943363357592e-02 1.851542987617403e-02 5.188799034749159e-02 1.410283044293080e-02 1.656337127347007e-01 1.411946393263925e-01 4.053478234341114e-01 -2.953984453275342e-01
            4.052815133401707e-01 -2.954192822584432e-01 1.657344696323887e-01 1.411921651518589e-01 6.151920806815941e-02 9.066173400062922e-03 6.765011407768806e-02 1.406739383833372e-02
            1.656514894936249e-01 1.412830673558531e-01 4.052787883893241e-01 -2.954326426147457e-01 6.761153631627863e-02 1.413501015990445e-02 6.152271596720425e-02 9.143017466954588e-03
425575000.0000000000 6.826257529847442e-02 3.073623057868592e-02 7.229276999805187e-02 3.282508058048591e-02 2.766035415046846e-01 -4.181760809476895e-01 1.998374682667736e-01 7.360982153376165e-02
            7.224127030243316e-02 3.288748319972340e-02 6.827285310143789e-02 3.070031957138957e-02 1.998112786665676e-01 7.364951262282801e-02 2.765393304534871e-01 -4.181926577437138e-01
            2.765845617193911e-01 -4.181513914004430e-01 1.997879095218579e-01 7.365790800407400e-02 7.689818541853062e-02 2.169429936594487e-02 8.359645100879520e-02 2.454723450764832e-02
            1.998156872822467e-01 7.367557279678660e-02 2.765657677272426e-01 -4.181618684121578e-01 8.361172609521045e-02 2.460725332457936e-02 7.682993181808367e-02 2.160727836781927e-02
426407500.0000000000 9.023926995888554e-02 3.299684862184533e-02 9.476901815669507e-02 3.245268871148586e-02 1.141236592653857e-01 -4.869674188299098e-01 2.090587110971600e-01 1.299582551155917e-03
            9.471876125755829e-02 3.247078197327014e-02 9.023833914945507e-02 3.303071002341568e-02 2.090913120767000e-01 1.285033899143936e-03 1.141674600958950e-01 -4.870154360195068e-01
            1.140675904815988e-01 -4.869338917002117e-01 2.090251478843809e-01 1.289912959982977e-03 9.587057961821305e-02 2.041249049059402e-02 1.031092903980957e-01 2.101968813129916e-02
            2.090023306203199e-01 1.273017939866167e-03 1.141730185653708e-01 -4.868882288386262e-01 1.031885766711328e-01 2.101167280291750e-02 9.586756470941642e-02 2.038531294211860e-02
427240000.0000000000 1.074297861487995e-01 2.141158962553890e-02 1.111628316403849e-01 1.807198394258478e-02 -6.020974176585179e-02 -4.954134147963011e-01 1.948791830751307e-01 -6.881855567994989e-02
            1.112036090716167e-01 1.809725307361470e-02 1.074563425651315e-01 2.135637864422245e-02 1.948427278174636e-01 -6.882187556316331e-02 -6.016719166951816e-02 -4.953492470942175e-01
            -6.017794749145734e-02 -4.954360901476380e-01 1.948661178770999e-01 -6.885378999321853e-02 1.088956861390853e-01 6.924360289748238e-03 1.159798757782599e-01 4.828232627497663e-03
            1.948782223478779e-01 -6.880885751927357e-02 -6.017386346492704e-02 -4.954228148600899e-01 1.158958751481247e-01 4.819703340846997e-03 1.088340478279486e-01 6.887887452219738e-03
428072500.0000000000 1.126409992019697e-01 2.693603380723318e-03 1.144521603137036e-01 -3.120552171465987e-03 -2.259472940866147e-01 -4.447931486221631e-01 1.587012548766140e-01 -1.306469484086248e-01
            1.145067936996334e-01 -3.188644776906773e-03 1.126337752650277e-01 2.663685293773439e-03 1.586967999848748e-01 -1.306181009746089e-01 -2.258986555572081e-01 -4.449318910549551e-01
            -2.259474061979296e-01 -4.448856176766884e-01 1.587859102994548e-01 -1.306990542506842e-01 1.093008596974614e-01 -1.195288092298947e-02 1.153562979039756e-01 -1.687605522990402e-02
            1.586924321596206e-01 -1.306250770466327e-01 -2.259770835466875e-01 -4.448398533928226e-01 1.153865693019645e-01 -1.681828441125617e-02 1.093771245759257e-01 -1.188148242767126e-02
428905000.0000000000 1.045490734171220e-01 -1.394469713069519e-02 1.034784242994850e-01 -2.121801798067263e-02 -3.653348626767217e-01 -3.417325310927156e-01 1.029071417216173e-01 -1.771946480192212e-01
            1.034815568755987e-01 -2.124121938804145e-02 1.044491957572833e-01 -1.393096539801776e-02 1.028865850272205e-01 -1.771080527846328e-01 -3.652739717361208e-01 -3.418053006269773e-01
            -3.653445944773333e-01 -3.418306476619670e-01 1.029369788343292e-01 -1.772132496722335e-01 9.682573264397065e-02 -2.657733880139737e-02 1.008662623282133e-01 -3.402705444028056e-02
            1.029056158512132e-01 -1.771823813985766e-01 -3.653732603930235e-01 -3.417620098193052e-01 1.008427454139540e-01 -3.406666494116827e-02 9.681725016314854e-02 -2.658858350725737e-02
429737500.0000000000 8.765949718549415e-02 -2.026957547837947e-02 8.328540112595388e-02 -2.775472022043115e-02 -4.628664370265816e-01 -1.965824423389576e-01 3.310387383362350e-02 -2.009049351142858e-01
            8.326658793767538e-02 -2.775920379447858e-02 8.757395249850407e-02 -2.031040946377681e-02 3.306469686771864e-02 -2.009376714645601e-01 -4.628716115595169e-01 -1.965569189737374e-01
            -4.628218989933728e-01 -1.964621107881908e-01 3.319847369604468e-02 -2.009905467948632e-01 7.695100754110250e-02 -2.944827583397557e-02 7.804935935811290e-02 -3.866602393935563e-02
            3.318553579595165e-02 -2.009828186795836e-01 -4.628851800883705e-01 -1.965198702565572e-01 7.806967959253840e-02 -3.867659431736124e-02 7.695168759944833e-02 -2.949081975825981e-02
430570000.0000000000 7.116678216300498e-02 -1.302615885098801e-02 6.367981600827838e-02 -1.912170458599127e-02 -5.050981827004463e-01 -2.428434158387923e-02 -4.046982993134272e-02 -1.969962361583703e-01
            6.362393969663808e-02 -1.910658805747849e-02 7.116886691831527e-02 -1.304004801751704e-02 -4.047791866795111e-02 -1.968710831525002e-01 -5.050947261007449e-01 -2.430944631566695e-02
            -5.051603516468689e-01 -2.426117770253033e-02 -4.052388728380339e-02 -1.969935456202450e-01 5.929766885877739e-02 -1.788034738371344e-02 5.707252285989773e-02 -2.777041694424704e-02
            -4.040031269644293e-02 -1.968619828110466e-01 -5.050943273938918e-01 -2.430238581545084e-02 5.707926732441041e-02 -2.774933632557989e-02 5.927848767680376e-02 -1.772683606534093e-02
431402500.0000000000 6.440433806522410e-02 3.951091299387003e-03 5.472319324024129e-02 6.249362244059577e-04 -4.838807169314663e-01 1.540254940942290e-01 -1.059054979339590e-01 -1.661623510570054e-01
            5.468083895184873e-02 5.888431585988589e-04 6.442289232326219e-02 3.929564142944686e-03 -1.058585852716104e-01 -1.660504642940285e-01 -4.838540966234155e-01 1.540167407164418e-01
            -4.838311670172062e-01 1.539830053870820e-01 -1.058826250588140e-01 -1.661629090069650e-01 5.365292970080606e-02 3.494167803447506e-03 4.782147200047830e-02 -6.087204568906457e-03
            -1.058962651669714e-01 -1.661532457296749e-01 -4.838037899730023e-01 1.540783025099644e-01 4.791997750008681e-02 -5.987942416975381e-03 5.354188742879180e-02 3.496921016331283e-03
432235000.0000000000 7.157212468654479e-02 2.128752684712827e-02 6.112288182631815e-02 2.144764055821625e-02 -3.999232308886312e-01 3.137667294297095e-01 -1.535129894876940e-01 -1.154434824043571e-01
            6.113336409717900e-02 2.158449669900843e-02 7.156009195971634e-02 2.122517203453371e-02 -1.534725142633876e-01 -1.154579624106476e-01 -3.999632034685786e-01 3.137825933559487e-01
            -3.999223960837895e-01 3.138125903224822e-01 -1.534603269574899e-01 -1.154854437700548e-01 6.352034038200607e-02 2.384598206975581e-02 5.492090192121157e-02 1.579094468353744e-02
            -1.536297163081214e-01 -1.154767764253841e-01 -3.999226775603413e-01 3.137554489423079e-01 5.496686283275096e-02 1.579881457875522e-02 6.346438112956371e-02 2.389078537679126e-02
433067500.0000000000 8.902962793066968e-02 2.927712001480625e-02 7.954267357657040e-02 3.297373819113842e-02 -2.651148521130157e-01 4.326985225575233e-01 -1.792967664870102e-01 -5.442924481267248e-02
            7.962703849987546e-02 3.298045127624945e-02 8.903278663818648e-02 2.928701153710615e-02 -1.793719939559321e-01 -5.444145928255410e-02 -2.650832753270242e-01 4.327282774316144e-01
            -2.650594759040564e-01 4.326547965725901e-01 -1.793047322817071e-01 -5.442951544561474e-02 8.439680345331263e-02 3.307221029602210e-02 7.391753358794481e-02 2.711897289812685e-02
            -1.793842077063016e-01 -5.441662014282976e-02 -2.650821063584865e-01 4.326701861069978e-01 7.376036955656518e-02 2.704165016843039e-02 8.442630063018908e-02 3.309238212422165e-02
433900000.0000000000 1.077516387488406e-01 2.365059861946998e-02 1.008985999112558e-01 3.001713727088214e-02 -9.882754986175585e-02 4.961921007658284e-01 -1.837071553156519e-01 9.223770714768098e-03
            1.009607372048612e-01 3.000643829814483e-02 1.077760341766522e-01 2.364364241191679e-02 -1.837933811882900e-01 9.249679662657165e-03 -9.885670653743403e-02 4.962058197062419e-01
            -9.875226666475720e-02 4.961345393657808e-01 -1.837399241592266e-01 9.175026190349350e-03 1.064770970451495e-01 2.683328319009719e-02 9.468937540967259e-02 2.307850802652713e-02
            -1.837328417812627e-01 9.183548042910095e-03 -9.884002749190320e-02 4.961947560821724e-01 9.470826484127201e-02 2.312905961677930e-02 1.065957177349630e-01 2.689538519952527e-02
434732500.0000000000 1.184467390585706e-01 7.031680712406857e-03 1.153627679784158e-01 1.459178591003450e-02 7.721838344773872e-02 4.988317150985674e-01 -1.680240696337444e-01 7.008234976585893e-02
            1.153415026718932e-01 1.454922323270780e-02 1.184315240287746e-01 7.083969090415284e-03 -1.680233151947522e-01 7.002900700737583e-02 7.724176318411426e-02 4.988783279247980e-01
            7.722516656222471e-02 4.988580892287995e-01 -1.680472701266802e-01 7.007129715098168e-02 1.197808262412781e-01 8.211459341562203e-03 1.071211509954589e-01 6.604248236864151e-03
            -1.679845012792364e-01 7.007207315111565e-02 7.720094919672781e-02 4.988746432916357e-01 1.071347540179767e-01 6.612859388493112e-03 1.196703802298254e-01 8.175014385442211e-03
435565000.0000000000 1.160808793807166e-01 -1.293330581611924e-02 1.167590332019317e-01 -6.033407948558744e-03 2.430030245542188e-01 4.426626620681129e-01 -1.330587577024487e-01 1.229766800210873e-01
            1.167004594114612e-01 -5.993651741675937e-03 1.160193065589447e-01 -1.288332710660528e-02 -1.331865773586491e-01 1.229319345481459e-01 2.430042814036462e-01 4.426055594963548e-01
            2.430137843668201e-01 4.426226370391240e-01 -1.332279448913894e-01 1.228491894624731e-01 1.183256182652529e-01 -1.444615807264574e-02 1.054456038239897e-01 -1.394410246542609e-02
            -1.332079342277968e-01 1.229582354855624e-01 2.430127319887908e-01 4.425909483574930e-01 1.054222127757855e-01 -1.402059278713422e-02 1.184022101239803e-01 -1.445307360633478e-02
436397500.0000000000 1.012622418537696e-01 -2.682907708003186e-02 1.052041992020902e-01 -2.230270762458648e-02 3.807868101176232e-01 3.338919854615816e-01 -8.128070810896823e-02 1.613271898808904e-01
            1.051628573408219e-01 -2.235610903173828e-02 1.012652164621411e-01 -2.677702925878300e-02 -8.128812644169599e-02 1.613837697027934e-01 3.809065370465939e-01 3.339543894226656e-01
            3.807992724565240e-01 3.339411620860568e-01 -8.122181851128639e-02 1.613619031716726e-01 1.032411558060508e-01 -3.109635339926942e-02 9.010948723844517e-02 -2.869595595263378e-02
            -8.131206791810376e-02 1.612997337100877e-01 3.808231648422291e-01 3.339414572356468e-01 9.013271328004144e-02 -2.860444872938828e-02 1.032265233407975e-01 -3.109666016633131e-02
437230000.0000000000 8.055275847342283e-02 -2.789819358874943e-02 8.633852876073453e-02 -2.708422782828458e-02 4.749767320360890e-01 1.835496509385224e-01 -1.801624992042490e-02 1.784038294992683e-01
            8.627539773235798e-02 -2.701779099755767e-02 8.047781480702790e-02 -2.797534888948581e-02 -1.808566844189614e-02 1.784110065882588e-01 4.749205186207088e-01 1.835993184748722e-01
            4.749691122224503e-01 1.835786278111587e-01 -1.809392956416042e-02 1.783345284010716e-01 8.109471856854811e-02 -3.437638808890777e-02 6.794844703909288e-02 -2.968754451884515e-02
            -1.808432184348458e-02 1.783695797172270e-01 4.749128878571531e-01 1.835952814930041e-01 6.794450372392699e-02 -2.957996821205868e-02 8.101888606757029e-02 -3.440585778295101e-02
438062500.0000000000 6.363140170981116e-02 -1.502753566561175e-02 6.956649202815084e-02 -1.810390058382050e-02 5.118780074408621e-01 7.532715504166856e-03 4.680854513620313e-02 1.701567842623644e-01
            6.962715810476798e-02 -1.800621347575186e-02 6.375316231974697e-02 -1.501880318078078e-02 4.678954228020703e-02 1.701749634045945e-01 5.118086611466841e-01 7.568968950357324e-03
            5.118681430108847e-01 7.586678592796133e-03 4.672824185583033e-02 1.701191705209098e-01 6.227262294327977e-02 -2.260093493628841e-02 4.967144029216070e-02 -1.524402043472349e-02
            4.675188353435973e-02 1.702067536442894e-01 5.118791494235718e-01 7.576522972582315e-03 4.976214820776748e-02 -1.531107451463970e-02 6.228674888433061e-02 -2.258816864144752e-02
438895000.0000000000 5.953421249158698e-02 6.171524151701564e-03 6.412839332304729e-02 -5.314101642784198e-04 4.839360321479522e-01 -1.720622854057297e-01 1.020407796647130e-01 1.387199851406759e-01
            6.412518354584677e-02 -5.480522083988731e-04 5.955690498933475e-02 6.138707014884373e-03 1.020956332888328e-01 1.386504538068866e-01 4.839159430523149e-01 -1.721399338219337e-01
            4.838379503358218e-01 -1.721459487128390e-01 1.021004261739001e-01 1.387422529517213e-01 5.624374016361965e-02 -1.645970593521670e-03 4.498783743502656e-02 8.256115947490428e-03
            1.020736833923606e-01 1.387458017161712e-01 4.839007636699243e-01 -1.721064032899823e-01 4.503724673096761e-02 8.321683996678956e-03 5.626324748825869e-02 -1.627592384182972e-03
439727500.0000000000 7.036154966034371e-02 2.495469008623493e-02 7.234230544672937e-02 1.565087625965026e-02 3.933100938022737e-01 -3.304334422892176e-01 1.401095338004127e-01 9.139545603158908e-02
            7.239467041698783e-02 1.568214859353323e-02 7.035877161203599e-02 2.499344437104322e-02 1.400612640047184e-01 9.138896905492570e-02 3.933249495115925e-01 -3.303571110164139e-01
            3.933305450281059e-01 -3.304771466501532e-01 1.401436071274681e-01 9.140151989075804e-02 6.558605708099688e-02 1.734197390715664e-02 5.669469370359072e-02 2.978312700613110e-02
            1.401216873291197e-01 9.143900217717381e-02 3.933535044138511e-01 -3.304260369571438e-01 5.675888043682219e-02 2.970082077364113e-02 6.551842422544943e-02 1.741441609954146e-02
440560000.0000000000 9.080182992310541e-02 3.217878119642238e-02 8.962537751065927e-02 2.152791612624917e-02 2.532224746443231e-01 -4.455721995869458e-01 1.586282932920066e-01 3.693669046820044e-02
            8.969020942578404e-02 2.145013320051064e-02 9.077763597737917e-02 3.219688803390818e-02 1.586055262537734e-01 3.697440375440069e-02 2.532547139241261e-01 -4.455380842467724e-01
            2.531983314883577e-01 -4.455118947810404e-01 1.585939578573242e-01 3.696576572175401e-02 8.475337745056592e-02 2.489534698295292e-02 7.934459005250147e-02 3.867920947721023e-02
            1.585733406821120e-01 3.695843817770223e-02 2.533330545513961e-01 -4.455795161586042e-01 7.935512298068541e-02 3.875305895838205e-02 8.480239989114455e-02 2.490593591725134e-02
441392500.0000000000 1.107772905274316e-01 2.472211036054559e-02 1.066433342353370e-01 1.377517544580180e-02 8.365885778622267e-02 -5.039581351856891e-01 1.586331841527734e-01 -1.834722398520530e-02
            1.066337099445387e-01 1.384484138045768e-02 1.107595697317325e-01 2.476232602668722e-02 1.586601386153586e-01 -1.836656939547183e-02 8.370954413926475e-02 -5.039794718237552e-01
            8.362152914601124e-02 -5.039142779470017e-01 1.586001841765723e-01 -1.836461745653992e-02 1.035253949267097e-01 1.776211681190803e-02 1.021410964318583e-01 3.151248123231752e-02
            1.586812710771165e-01 -1.838003524444063e-02 8.367895677333202e-02 -5.039998356297158e-01 1.020792712371865e-01 3.149028286784774e-02 1.035814613589893e-01 1.764524879092682e-02
442225000.0000000000 1.213934490022811e-01 6.597952073180591e-03 1.146444950871412e-01 -3.582842362080183e-03 -9.385070141676158e-02 -5.011299303096691e-01 1.415050848951221e-01 -7.026836121994229e-02
            1.145323273198557e-01 -3.606656250637466e-03 1.213492213029220e-01 6.756185947424266e-03 1.414938569610929e-01 -7.022576713626751e-02 -9.380060821546711e-02 -5.010845062012356e-01
            -9.391643577673602e-02 -5.010935089854706e-01 1.416239255429200e-01 -7.026533217144849e-02 1.128457486789415e-01 1.355577606772359e-05 1.149938022626035e-01 1.213097232525643e-02
            1.415502411981887e-01 -7.025589650456200e-02 -9.385252957849402e-02 -5.012110583292123e-01 1.150511057237460e-01 1.206229845098817e-02 1.127759298360988e-01 -5.275196063979679e-05
443057500.0000000000 1.182136882224232e-01 -1.359706033445373e-02 1.094390944095826e-01 -2.272723984523719e-02 -2.595172726130585e-01 -4.392603437722292e-01 1.080942429373645e-01 -1.142958765752999e-01
            1.094922039791135e-01 -2.275547327626383e-02 1.182027302785483e-01 -1.357044475743032e-02 1.080875215984550e-01 -1.143375444524067e-01 -2.595341026701759e-01 -4.392273430646305e-01
            -2.595422271628541e-01 -4.392436810289690e-01 1.081967065615287e-01 -1.143329760166993e-01 1.080878249366203e-01 -1.971498129430654e-02 1.127044313703378e-01 -1.066162289537133e-02
            1.081758305178519e-01 -1.143290166283251e-01 -2.595441466690171e-01 -4.392626319158194e-01 1.127949226031381e-01 -1.062541822209980e-02 1.081265463157994e-01 -1.957483516346825e-02
443890000.0000000000 1.030617573983519e-01 -2.704749531428579e-02 9.299569608255961e-02 -3.469389773874774e-02 -3.956124262263622e-01 -3.249699746854339e-01 6.041484282982085e-02 -1.446326514273416e-01
            9.303105951431075e-02 -3.476585415212661e-02 1.031660679700170e-01 -2.686661551549622e-02 6.042806360569980e-02 -1.446426511808386e-01 -3.955761696906867e-01 -3.250155179668601e-01
            -3.955557008305803e-01 -3.250660059370388e-01 6.044051285439985e-02 -1.445490342075131e-01 9.135530641034044e-02 -3.185857598162815e-02 9.679347174166400e-02 -2.657117209899461e-02
            6.040470324584643e-02 -1.446475721673161e-01 -3.955136590011634e-01 -3.251557367138024e-01 9.676661212012316e-02 -2.663613604521444e-02 9.132590369798298e-02 -3.185553228281829e-02
444722500.0000000000 8.332455868195604e-02 -2.711376220176680e-02 7.241902489239189e-02 -3.364276743141192e-02 -4.858013720937255e-01 -1.698013895604267e-01 3.989685273662046e-03 -1.551108840285768e-01
            7.248830643858499e-02 -3.361010771526633e-02 8.328811088072166e-02 -2.717201164018277e-02 3.997686771253037e-03 -1.551049491675661e-01 -4.857911324205426e-01 -1.697443700741623e-01
            -4.858078179587193e-01 -1.697323532409769e-01 4.053595733579080e-03 -1.550755839627717e-01 6.990476750845064e-02 -3.026131217672503e-02 7.420617513624951e-02 -2.829245274184289e-02
            4.040920297944348e-03 -1.550146655461791e-01 -4.858224169828302e-01 -1.697654819850825e-01 7.424448584132586e-02 -2.821272676665771e-02 6.988664360090305e-02 -3.027228735769290e-02
445555000.0000000000 6.869227775501877e-02 -1.420972465628953e-02 5.727853587201228e-02 -1.954351191688363e-02 -5.169404881025249e-01 9.535137621802569e-03 -5.165720550259251e-02 -1.431011683558374e-01
            5.723495806686739e-02 -1.960535911770342e-02 6.869038142829953e-02 -1.421238816696603e-02 -5.168965078718441e-02 -1.431283657402812e-01 -5.169671663477957e-01 9.529735600736918e-03
            -5.169276973493325e-01 9.471296768560076e-03 -5.167075325494933e-02 -1.431314433370385e-01 5.427329755967487e-02 -1.466883014878490e-02 5.609869090838768e-02 -1.477361267683876e-02
            -5.163577613038957e-02 -1.431225887601386e-01 -5.170056030961565e-01 9.572071549724521e-03 5.612066047172071e-02 -1.478054675466724e-02 5.422449235012085e-02 -1.463880001261788e-02
446387500.0000000000 6.703879313296750e-02 4.990631281242273e-03 5.521703253597051e-02 6.614152324112452e-04 -4.822708576932430e-01 1.898402797836025e-01 -9.691740774295875e-02 -1.117455006020806e-01
            5.521615336684432e-02 6.666572160346189e-04 6.702377586878229e-02 5.002118779619845e-03 -9.684047212094236e-02 -1.117464036971315e-01 -4.822941233316205e-01 1.898350057214550e-01
            -4.822076689143555e-01 1.898594003460140e-01 -9.690924669173584e-02 -1.116909744098116e-01 5.250346355062294e-02 7.621842389867984e-03 5.147758251574050e-02 7.248726748330741e-03
            -9.688215622835665e-02 -1.116961568604085e-01 -4.822897280710808e-01 1.898888063484935e-01 5.142932798833472e-02 7.281622402691287e-03 5.256537655914787e-02 7.552526471754184e-03
447220000.0000000000 7.906011305121634e-02 2.005094828445063e-02 6.675162328313043e-02 1.647278125040786e-02 -3.854834465371591e-01 3.461146354879155e-01 -1.257513560111106e-01 -6.820932976568631e-02
            6.683298890940040e-02 1.641624658575741e-02 7.901848661992789e-02 2.007467073815196e-02 -1.256361570692807e-01 -6.827574168846073e-02 -3.854210943644042e-01 3.460641992404622e-01
            -3.855324963556281e-01 3.460434405610613e-01 -1.257068740163972e-01 -6.827573936352956e-02 6.544338798687846e-02 2.565249898261102e-02 6.231328344173689e-02 2.664736049360144e-02
            -1.256942078656249e-01 -6.823627902320697e-02 -3.854391980482861e-01 3.461786297921509e-01 6.234674903144578e-02 2.671783044137846e-02 6.547958385243274e-02 2.560233725888463e-02
448052500.0000000000 9.808544729959021e-02 2.282399232135938e-02 8.547324385968813e-02 1.998726604431586e-02 -2.406581469624604e-01 4.572997237668211e-01 -1.373308304614052e-01 -2.043409570085519e-02
            8.557825986873878e-02 1.994948397307136e-02 9.804945022905032e-02 2.283803773823253e-02 -1.372268605930398e-01 -2.051845753306444e-02 -2.407166888028688e-01 4.572397243488484e-01
            -2.406973390544015e-01 4.572245898673794e-01 -1.373490588798992e-01 -2.050432817755043e-02 8.658097666920375e-02 3.076872500855883e-02 8.262333688551653e-02 3.432456296564470e-02
            -1.373081731084204e-01 -2.050146142233198e-02 -2.407250056684416e-01 4.572633643966711e-01 8.264302267961671e-02 3.426921470163159e-02 8.654774275979012e-02 3.080390241062909e-02
448885000.0000000000 1.141847579131461e-01 1.205110898230263e-02 1.012807212738031e-01 9.868387270729601e-03 -6.814524928389470e-02 5.106013217134585e-01 -1.333647068503263e-01 2.668188293630890e-02
            1.012941892942076e-01 9.786480241527258e-03 1.142653941082840e-01 1.198044146392269e-02 -1.333133264748505e-01 2.656718933803326e-02 -6.825199896415354e-02 5.106180363035365e-01
            -6.814616739176921e-02 5.106643219057528e-01 -1.333347158896256e-01 2.660121684866061e-02 1.052252212815001e-01 2.151775339425040e-02 1.023236455141638e-01 2.732487808738369e-02
            -1.333754173051908e-01 2.662296544856028e-02 -6.812220448878778e-02 5.106482041628471e-01 1.023231417094272e-01 2.724703601509547e-02 1.052595487972961e-01 2.140467701729694e-02
449717500.0000000000 1.194305765435414e-01 -7.137132838269247e-03 1.062018584592059e-01 -8.631206543839691e-03 1.107064605556961e-01 5.023703069691124e-01 -1.151008556611198e-01 6.959441311375461e-02
            1.061650126673287e-01 -8.698471139540800e-03 1.193696678943016e-01 -7.130307589576337e-03 -1.150103254214159e-01 6.961469774060752e-02 1.107859808688293e-01 5.024864473708804e-01
            1.107134972910097e-01 5.024380386629781e-01 -1.150389066381174e-01 6.974751110855690e-02 1.132180330467455e-01 2.924949981696882e-03 1.126926133335178e-01 9.984716046716127e-03
            -1.150421023868353e-01 6.968107565879389e-02 1.106624419560723e-01 5.023916278314678e-01 1.127249305780024e-01 1.003832002766041e-02 1.132166677126680e-01 2.969244229617907e-03
450550000.0000000000 1.109182032582879e-01 -2.558952007242104e-02 9.729386642758181e-02 -2.631966028447233e-02 2.762045595415375e-01 4.348462531696360e-01 -8.303114521557962e-02 1.048134728391031e-01
            9.729311266916801e-02 -2.632468682288199e-02 1.109049412754185e-01 -2.542225133212925e-02 -8.305245593713778e-02 1.047582095464509e-01 2.761737141611382e-01 4.348003586686520e-01
            2.761802773134946e-01 4.348172573795067e-01 -8.301952092193837e-02 1.047661549427135e-01 1.073376784824843e-01 -1.574229805971335e-02 1.095567791623443e-01 -9.107257323617370e-03
            -8.309298424241343e-02 1.048141793014194e-01 2.760906485286947e-01 4.347602354611895e-01 1.095953718243046e-01 -9.032350309758916e-03 1.072307554036462e-01 -1.575312254284250e-02
451382500.0000000000 9.205118373328562e-02 -3.452477295761143e-02 7.789257512507755e-02 -3.436501015949920e-02 4.100985521858886e-01 3.148190102296470e-01 -3.965117776480532e-02 1.267235179076441e-01
            7.784590673643818e-02 -3.447639160808826e-02 9.205099212807935e-02 -3.450676578370148e-02 -3.965600045852143e-02 1.267379984634252e-01 4.100539460912660e-01 3.148214747647812e-01
            4.100663035767410e-01 3.148228925058355e-01 -3.963040460261888e-02 1.267426210053540e-01 9.071562410263381e-02 -2.565425741511864e-02 9.522436435831963e-02 -2.093218424851713e-02
            -3.963636131372788e-02 1.266647610756283e-01 4.100635670149849e-01 3.148729473345884e-01 9.522869252517747e-02 -2.098248550205390e-02 9.063559036296132e-02 -2.558351013396789e-02
452215000.0000000000 7.128695526471016e-02 -2.901054955221967e-02 5.668283366968149e-02 -2.780798542455030e-02 4.958285078966242e-01 1.544458687762909e-01 9.325654804929124e-03 1.304968150723900e-01
            5.670715498061785e-02 -2.786114289733269e-02 7.123321619859699e-02 -2.902056656386737e-02 9.343280045375707e-03 1.304584974649859e-01 4.958931674347635e-01 1.544367599670007e-01
            4.959053690555810e-01 1.544310388459224e-01 9.333282688054960e-03 1.304261545588175e-01 7.176286241390993e-02 -2.176123634235325e-02 7.703705019978671e-02 -1.994967277428323e-02
            9.330029231337519e-03 1.303841201288482e-01 4.958900472914896e-01 1.544876728279344e-01 7.707085384297938e-02 -1.996089934186777e-02 7.173657027152028e-02 -2.169499587852409e-02
453047500.0000000000 5.881321936456768e-02 -1.103677515477098e-02 4.395561910998511e-02 -8.530454430662127e-03 5.204109226881914e-01 -2.792591616564144e-02 5.502907596746910e-02 1.148872501577044e-01
            4.392223784133043e-02 -8.455807342324373e-03 5.883642492816805e-02 -1.096472232386517e-02 5.497311459696214e-02 1.147705072121234e-01 5.204345108829727e-01 -2.793202709739567e-02
            5.204502590010079e-01 -2.797216635259658e-02 5.500437881985776e-02 1.148417644733072e-01 6.050852621146625e-02 -5.743515612498340e-03 6.489415057424378e-02 -6.796795971361369e-03
            5.508175817972932e-02 1.148990352591220e-01 5.204263620524017e-01 -2.799972890268386e-02 6.489843712214706e-02 -6.851382223138685e-03 6.038046172888382e-02 -5.693393271028696e-03
453880000.0000000000 6.128966620148384e-02 1.097855068231691e-02 4.651897615146150e-02 1.494642634601422e-02 4.783357654304591e-01 -2.081890840504734e-01 8.944896806686357e-02 8.411631849790632e-02
            4.653845044612540e-02 1.499212091418669e-02 6.119211101743937e-02 1.102793523070090e-02 8.945756666545618e-02 8.413235568019130e-02 4.783311350348263e-01 -2.081122813570241e-01
            4.783569004458230e-01 -2.081433055046513e-01 8.939422586619709e-02 8.406273863290900e-02 6.330884146129073e-02 1.424208050187007e-02 6.542859408411197e-02 1.107337182352229e-02
            8.950046245817815e-02 8.418674018755665e-02 4.783018580070930e-01 -2.081418451011633e-01 6.538293446309393e-02 1.107817934189349e-02 6.330229983455986e-02 1.414397314573196e-02
454712500.0000000000 7.745978555384421e-02 2.614198246489690e-02 6.318161045270768e-02 3.132444259243358e-02 3.750204918186855e-01 -3.611783305540875e-01 1.089294465215751e-01 4.569492292245317e-02
            6.321392606643049e-02 3.136490139291215e-02 7.748803750562308e-02 2.601376284809402e-02 1.088394654238338e-01 4.572405432390957e-02 3.750263437954863e-01 -3.611190286243554e-01
            3.749814375168835e-01 -3.611951621944173e-01 1.089262665355426e-01 4.565413479635973e-02 7.918813748750980e-02 2.712830409230942e-02 7.862265627862744e-02 2.373339423772453e-02
            1.089102684510826e-01 4.567669401910543e-02 3.750234326825967e-01 -3.610816906570536e-01 7.858790413491547e-02 2.371561098308037e-02 7.920542863243783e-02 2.714752858852228e-02
455545000.0000000000 9.931285860520969e-02 2.699970859348676e-02 8.585839291775281e-02 3.346224065489741e-02 2.259251106176567e-01 -4.668802488034287e-01 1.140408769601337e-01 5.870455652180226e-03
            8.580723555764413e-02 3.340340171476636e-02 9.931678472995127e-02 2.692662570061215e-02 1.141266119657193e-01 5.863540877693267e-03 2.260142649667241e-01 -4.669863302934617e-01
            2.260319887503897e-01 -4.669750315398310e-01 1.140432472848652e-01 5.753383121452454e-03 9.996584382683764e-02 2.626188116029799e-02 9.710587837469781e-02 2.415949744289684e-02
            1.140568509536819e-01 5.806426423141130e-03 2.260267616128535e-01 -4.669888721775999e-01 9.714825809437971e-02 2.418929036740010e-02 9.995681562388262e-02 2.623041355451378e-02
456377500.0000000000 1.166579189653205e-01 1.391573511211832e-02 1.040381491657764e-01 2.115766848227663e-02 5.167583565763054e-02 -5.146076444329790e-01 1.071528480442549e-01 -3.226541385727750e-02
            1.039889420718361e-01 2.115329505429958e-02 1.165974175776643e-01 1.389116414625381e-02 1.071444457608432e-01 -3.222616392972728e-02 5.163601461578946e-02 -5.145872346465704e-01
            5.170017464631137e-02 -5.145231612130754e-01 1.070961307723625e-01 -3.226627564411241e-02 1.154850852357368e-01 1.181928283419917e-02 1.117885498418003e-01 1.202451890253425e-02
            1.070908952494347e-01 -3.218550820168201e-02 5.155920061275224e-02 -5.144690430109202e-01 1.117280207912430e-01 1.197742497061260e-02 1.155428051395220e-01 1.181391007444771e-02
457210000.0000000000 1.217902737511879e-01 -6.854582871331443e-03 1.100010694897959e-01 7.769672597084923e-04 -1.271642807234584e-01 -5.006309628783185e-01 8.887391387594576e-02 -6.621608634630310e-02
            1.100271973147124e-01 7.777932649571727e-04 1.217758215059712e-01 -6.979991616107809e-03 8.889817572486743e-02 -6.617134604111971e-02 -1.271659157002361e-01 -5.006125622931928e-01
            -1.272028537232983e-01 -5.005272875996003e-01 8.888954273220216e-02 -6.616499471123363e-02 1.185289349979413e-01 -9.609386194648687e-03 1.153932711837133e-01 -7.145809015352307e-03
            8.888015924440604e-02 -6.616056106433524e-02 -1.271051664894529e-01 -5.006109703283846e-01 1.154559509202405e-01 -7.211573668424066e-03 1.184004144830116e-01 -9.591971891565743e-03
458042500.0000000000 1.129491097385399e-01 -2.617587706710346e-02 1.017165217752217e-01 -1.819007675643527e-02 -2.909623513009895e-01 -4.277894592565122e-01 5.964249328168508e-02 -9.291381375106796e-02
            1.016716227835070e-01 -1.817796793339141e-02 1.129279024302233e-01 -2.622354136490721e-02 5.960648451067457e-02 -9.289838544257387e-02 -2.910371369044216e-01 -4.277776019753985e-01
            -2.909859416176472e-01 -4.277871196157220e-01 5.963290469734150e-02 -9.287820278868994e-02 1.070971271782811e-01 -2.851786781275132e-02 1.060835115508997e-01 -2.476417801281179e-02
            5.961426789435825e-02 -9.285089302408359e-02 -2.909523014677074e-01 -4.278018358895656e-01 1.060865376324672e-01 -2.478711602579888e-02 1.071540832366432e-01 -2.850593633173334e-02
458875000.0000000000 9.406604642529375e-02 -3.553724865280829e-02 8.318011472107503e-02 -2.706464192856407e-02 -4.217149975439488e-01 -3.030638709384308e-01 2.157891314929828e-02 -1.075502241914798e-01
            8.316177870219388e-02 -2.705448426577125e-02 9.421962956048939e-02 -3.555898126544738e-02 2.154899889266295e-02 -1.074848242756252e-01 -4.217500300359543e-01 -3.031462010222439e-01
            -4.218450505738057e-01 -3.031730620377796e-01 2.153934197869680e-02 -1.076107254613842e-01 8.602699379842794e-02 -3.635271963361015e-02 8.772130393747769e-02 -3.285701777846034e-02
            2.159557106410427e-02 -1.075898085735461e-01 -4.217229218259897e-01 -3.030955530737059e-01 8.773076162273938e-02 -3.286122057576790e-02 8.607210094934213e-02 -3.638112085111998e-02
459707500.0000000000 7.426615777537543e-02 -3.084150602050246e-02 6.328202502434299e-02 -2.151249970502757e-02 -5.028904031011838e-01 -1.392688597222299e-01 -1.979727154389482e-02 -1.060444189217475e-01
            6.322947211198474e-02 -2.143864625612642e-02 7.418051008773419e-02 -3.076599794645753e-02 -1.977265201678735e-02 -1.060854190636851e-01 -5.028916409714882e-01 -1.393122649355509e-01
            -5.028751133618110e-01 -1.392839523261269e-01 -1.979721460840445e-02 -1.060583575602878e-01 6.450829725499596e-02 -2.912550520526816e-02 6.826201625019744e-02 -2.742220800785327e-02
            -1.980862864348778e-02 -1.060779537952864e-01 -5.028604516544732e-01 -1.392733727470966e-01 6.837159981161658e-02 -2.737563353118018e-02 6.444291779496522e-02 -2.910301004210484e-02
460540000.0000000000 6.265356902049111e-02 -1.464899017671087e-02 5.195103687900422e-02 -4.059197720146790e-03 -5.217028457405248e-01 4.462439206154863e-02 -5.642106394473989e-02 -8.826318006211831e-02
            5.195226653573261e-02 -3.982648456803027e-03 6.267576714650393e-02 -1.479132911247779e-02 -5.643978391163844e-02 -8.826625276981123e-02 -5.217091316502785e-01 4.463945084054850e-02
            -5.217061993638011e-01 4.467009498363173e-02 -5.646832319319927e-02 -8.828988777067279e-02 5.238649407910473e-02 -9.726248117799870e-03 5.728318991204388e-02 -1.086774738559113e-02
            -5.635339292269513e-02 -8.830865189889227e-02 -5.216581305699955e-01 4.464930082448090e-02 5.729374554907263e-02 -1.097216014007743e-02 5.239245980965747e-02 -9.782278333691859e-03
461372500.0000000000 6.474401266389769e-02 4.100101129338159e-03 5.508409881453314e-02 1.661486066300260e-02 -4.735960412618427e-01 2.241595590869181e-01 -8.153736319158597e-02 -5.886922035910794e-02
            5.498639803228429e-02 1.652623197496816e-02 6.485540299388062e-02 4.157051419002651e-03 -8.149945945523594e-02 -5.890245663048205e-02 -4.736167795173644e-01 2.241476712712090e-01
            -4.736800445482433e-01 2.241881145415695e-01 -8.154939905368772e-02 -5.884352051366458e-02 5.547487587932253e-02 1.233569157591659e-02 6.010576916581366e-02 7.989164637661701e-03
            -8.153021026772063e-02 -5.897737348472584e-02 -4.736253486049537e-01 2.242488373889830e-01 6.009441343892135e-02 7.949358245784166e-03 5.564508626468636e-02 1.237968329040201e-02
462205000.0000000000 7.856603388193886e-02 1.568692070716588e-02 7.079408674208788e-02 2.987666274238351e-02 -3.652650473260441e-01 3.743374277698539e-01 -9.304793691733101e-02 -2.487280259809005e-02
            7.084754028832534e-02 2.992130183545835e-02 7.860673000433908e-02 1.570395160933893e-02 -9.291379638250472e-02 -2.484695746221184e-02 -3.652513446339717e-01 3.743024612877364e-01
            -3.651692682955342e-01 3.743481772817602e-01 -9.292836708393171e-02 -2.484968887858505e-02 7.174814535942481e-02 2.671449672543873e-02 7.437778326477089e-02 1.941538336878597e-02
            -9.294470408195257e-02 -2.484242892578335e-02 -3.652919216241298e-01 3.744262777889835e-01 7.434178691389390e-02 1.944518605444797e-02 7.183317770109300e-02 2.676221421813432e-02
463037500.0000000000 9.575264320462583e-02 1.440264620057923e-02 9.087713134570458e-02 2.969480345441092e-02 -2.125071613877728e-01 4.761410944086555e-01 -9.223548525117747e-02 8.465042871250423e-03
            9.090960470677212e-02 2.977819698287184e-02 9.583732680966471e-02 1.434726171330945e-02 -9.227851864324231e-02 8.433313515950305e-03 -2.124673541392307e-01 4.760955645722286e-01
            -2.124416216219183e-01 4.761889585286420e-01 -9.226406788378957e-02 8.435877944235238e-03 9.226240042222482e-02 2.696778384583771e-02 9.194919848196237e-02 1.780306455753540e-02
            -9.224437261243947e-02 8.347065246764415e-03 -2.125154604932804e-01 4.761154702584107e-01 9.193581770277384e-02 1.790084286289573e-02 9.227934833935228e-02 2.700108586695454e-02
463870000.0000000000 1.071209639379456e-01 1.755504959640513e-03 1.057249714625337e-01 1.709863034332079e-02 -3.582429368571916e-02 5.188548553720035e-01 -8.163826521495501e-02 3.848828029613331e-02
            1.057048819934065e-01 1.710281481008080e-02 1.071034705241607e-01 1.716683730597932e-03 -8.168888329878116e-02 3.849634969833443e-02 -3.582858222733183e-02 5.188321825195081e-01
            -3.569999436363069e-02 5.189214403823776e-01 -8.171360958164904e-02 3.852391023338110e-02 1.072258978793177e-01 1.427774525962835e-02 1.035295966649196e-01 4.703915248869111e-03
            -8.163444404162887e-02 3.849083174443899e-02 -3.582840891298981e-02 5.188805944520207e-01 1.035157103528379e-01 4.746997138428739e-03 1.073126580615333e-01 1.431013432338921e-02
464702500.0000000000 1.065600099662843e-01 -1.556936107366785e-02 1.086492650299168e-01 -1.577636030350384e-03 1.440401620209304e-01 4.996062552270832e-01 -6.229437883903612e-02 6.365398377142656e-02
            1.086736141203932e-01 -1.600047994516170e-03 1.064578094404379e-01 -1.549164428601382e-02 -6.222899556090945e-02 6.371982783170456e-02 1.440403737747877e-01 4.995509121465851e-01
            1.440140736983181e-01 4.995957078125112e-01 -6.231420069607246e-02 6.366773572419149e-02 1.099805501241964e-01 -4.257682666950937e-03 1.030073388071376e-01 -1.310023863744695e-02
            -6.227107182703980e-02 6.363589200897637e-02 1.440630155321392e-01 4.995622209345956e-01 1.029753650190210e-01 -1.315400914237751e-02 1.099192612640111e-01 -4.242986416007889e-03
465535000.0000000000 9.395409232862892e-02 -2.816840640561587e-02 9.895099083026754e-02 -1.727605721018389e-02 3.072285710380149e-01 4.206553598497344e-01 -3.479774623184593e-02 8.113142043887230e-02
            9.891457277517975e-02 -1.725815106380011e-02 9.396092167796716e-02 -2.825091465686976e-02 -3.472801854231373e-02 8.114121406142438e-02 3.071867468954146e-01 4.207187843603470e-01
            3.072232205644781e-01 4.207374995232882e-01 -3.474281258030081e-02 8.117939478880629e-02 9.960484418145168e-02 -1.947231752752992e-02 9.020521585687961e-02 -2.682554673018536e-02
            -3.472473874764416e-02 8.112783969294246e-02 3.071925731873990e-01 4.207202057384680e-01 9.019671589177602e-02 -2.682711303016055e-02 9.959268184913461e-02 -1.948538621065938e-02
466367500.0000000000 7.509609609455495e-02 -2.934678793970718e-02 8.151337113907310e-02 -2.233137572140994e-02 4.349386255505088e-01 2.899789463860421e-01 -1.768296303889041e-03 8.709908210045342e-02
            8.147305334715199e-02 -2.227742174423214e-02 7.505666168175995e-02 -2.942655144952692e-02 -1.822382285599275e-03 8.711550919716912e-02 4.350010731367908e-01 2.899777859448049e-01
            4.350371677688731e-01 2.900720901546658e-01 -1.887580776711548e-03 8.703611255921366e-02 8.166003742834749e-02 -2.348110043844915e-02 7.028016940568473e-02 -2.878998661630219e-02
            -1.884560678057616e-03 8.711309191606410e-02 4.349441326135473e-01 2.900515087369877e-01 7.035109171817941e-02 -2.882176338688977e-02 8.160087750600684e-02 -2.347872549243831e-02
467200000.0000000000 5.931588796001265e-02 -1.724450887280211e-02 6.535427166997931e-02 -1.423202985232724e-02 5.102726452354206e-01 1.213702779266261e-01 3.082740476539925e-02 7.914034152999117e-02
            6.533235009903797e-02 -1.422709185981538e-02 5.930070209158349e-02 -1.724906999801074e-02 3.086963105247031e-02 7.912051237187910e-02 5.102789342856939e-01 1.213781601394191e-01
            5.102957705599793e-01 1.214326398549054e-01 3.073443857138841e-02 7.907917084822344e-02 6.544882018650158e-02 -1.386613336482870e-02 5.280637084533731e-02 -1.696665938634645e-02
            3.082788992909121e-02 7.900549515579464e-02 5.102576701569794e-01 1.214294351610099e-01 5.281607948022239e-02 -1.700513028184405e-02 6.545248798081252e-02 -1.396678475437504e-02
468032500.0000000000 5.512097574364187e-02 3.040141167557949e-03 5.930741792936961e-02 2.591968316036454e-03 5.212240804644058e-01 -6.432894630912898e-02 5.624553863767670e-02 5.885988688356769e-02
            5.932035799066156e-02 2.654932912204178e-03 5.519085025741555e-02 3.186209979929959e-03 5.627017064627905e-02 5.880383847993933e-02 5.212645304769290e-01 -6.436736204471034e-02
            5.212023891989129e-01 -6.432722079557748e-02 5.613688997321183e-02 5.891046026103377e-02 6.005987512991075e-02 4.669586654282441e-03 4.674063414377810e-02 4.119352644237957e-03
            5.627963180914785e-02 5.893667779363964e-02 5.212464172827175e-01 -6.429470092928244e-02 4.676307433641651e-02 4.100682917112492e-03 5.998477023489730e-02 4.664343936321800e-03
468865000.0000000000 6.557798250396416e-02 2.171178077669914e-02 6.670603430981863e-02 1.894570542428607e-02 4.653898659008370e-01 -2.418018919532395e-01 7.026337357513425e-02 3.197079480144432e-02
            6.660576734401057e-02 1.897358664678763e-02 6.565930016861841e-02 2.171460013573627e-02 7.024294732618556e-02 3.194914414820652e-02 4.654440930637315e-01 -2.417944674607943e-01
            4.654636512508756e-01 -2.418374356543669e-01 7.020516667308924e-02 3.200656482008297e-02 6.874411505461528e-02 2.262203131673472e-02 5.534813415057976e-02 2.437095474016593e-02
            7.015759305471700e-02 3.195026886923463e-02 4.654375575334072e-01 -2.417823242193947e-01 5.532769571916901e-02 2.450458096686820e-02 6.889576425385410e-02 2.257810798229282e-02
469697500.0000000000 8.582396051346879e-02 2.920567887041101e-02 8.322826958385969e-02 2.593057167439422e-02 3.513029475158803e-01 -3.868706722797161e-01 7.286249119095299e-02 4.449452023143365e-03
            8.321048698593363e-02 2.602400276805308e-02 8.584222445223141e-02 2.916782516319416e-02 7.294065207879204e-02 4.564879004365346e-03 3.513434178667059e-01 -3.870619854396947e-01
            3.513168002507401e-01 -3.869719722052395e-01 7.288231328525661e-02 4.571253335730543e-03 8.765718612239352e-02 3.045536979290218e-02 7.449098638738941e-02 3.469416537090621e-02
            7.302364892227474e-02 4.557644375245293e-03 3.513399476532342e-01 -3.869445959662256e-01 7.435351825278304e-02 3.473340739644278e-02 8.767496906373740e-02 3.038748071308119e-02
470530000.0000000000 1.060122941573294e-01 2.201559660575794e-02 1.001854692114845e-01 1.988327881356792e-02 1.955907773307421e-01 -4.825254461558022e-01 6.708379381125637e-02 -1.990152501543680e-02
            1.002279667612422e-01 1.982200539666782e-02 1.060827901853355e-01 2.193998251148463e-02 6.708743286702963e-02 -1.989989881781113e-02 1.956554388428325e-01 -4.825040159418054e-01
            1.956750605043503e-01 -4.824515459756384e-01 6.714335556473326e-02 -1.990017910076223e-02 1.073330094898860e-01 2.422498711151583e-02 9.499047564867438e-02 3.094047668388005e-02
            6.712140275022567e-02 -1.999151710091027e-02 1.956263016805171e-01 -4.824710055724266e-01 9.510455515306455e-02 3.098184978732978e-02 1.073457329584639e-01 2.415408707056988e-02
471362500.0000000000 1.171873310525084e-01 3.559288933365019e-03 1.090849879461887e-01 3.804898951172801e-03 1.858283538691998e-02 -5.190733411695274e-01 5.482033291969682e-02 -4.067589317312070e-02
            1.090675560190644e-01 3.890968761082460e-03 1.171393590898409e-01 3.625870641410610e-03 5.482236680817018e-02 -4.060962770275985e-02 1.852035610755116e-02 -5.190610992700120e-01
            1.854115077785153e-02 -5.190821181807912e-01 5.486687594391015e-02 -4.060373800934119e-02 1.186602830551688e-01 6.884196388194081e-03 1.079143458316897e-01 1.590048010327366e-02
            5.481913006176646e-02 -4.064339467264524e-02 1.846027918920451e-02 -5.191212790438011e-01 1.078940257843822e-01 1.589822442644397e-02 1.186826596870002e-01 6.807905234299634e-03
472195000.0000000000 1.140862696707516e-01 -1.772741134803181e-02 1.052558626876486e-01 -1.466619995019510e-02 -1.600203072529366e-01 -4.942935389120233e-01 3.669582932042657e-02 -5.693951544298183e-02
            1.051638025800930e-01 -1.463825055994730e-02 1.140197749540186e-01 -1.775470931256364e-02 3.653892971809873e-02 -5.692194465300545e-02 -1.600965823355031e-01 -4.942122760365098e-01
            -1.600451761918791e-01 -4.942309208821506e-01 3.658414017227498e-02 -5.697606864629361e-02 1.167265028331535e-01 -1.363277519236827e-02 1.080850767602621e-01 -2.825151042702460e-03
            3.661532271554416e-02 -5.694824107370046e-02 -1.600064484951683e-01 -4.942152896178038e-01 1.081226955090668e-01 -2.842619171347862e-03 1.166989102293652e-01 -1.352852293771747e-02
473027500.0000000000 9.805073264143127e-02 -3.248095133638922e-02 8.976442419879820e-02 -2.655533304307495e-02 -3.205480666202878e-01 -4.105330747912543e-01 1.291188246452208e-02 -6.625299107313665e-02
            8.980232420478909e-02 -2.653875497115668e-02 9.807126005679848e-02 -3.250483477786278e-02 1.282086971073101e-02 -6.632525564046068e-02 -3.206270149232011e-01 -4.104586729146162e-01
            -3.205338025555159e-01 -4.104233801385384e-01 1.283978376992053e-02 -6.633348754644272e-02 1.022677689616595e-01 -2.822714433923051e-02 9.629059213986002e-02 -1.643467780188423e-02
            1.291409268696774e-02 -6.634744458388768e-02 -3.205239916951259e-01 -4.104194718506811e-01 9.635116461853226e-02 -1.649717387212136e-02 1.022985363144073e-01 -2.826131840889251e-02
473860000.0000000000 7.603621770625428e-02 -3.369895823225959e-02 6.940564949992192e-02 -2.561568308450576e-02 -4.442664079290039e-01 -2.756867171933731e-01 -1.384241345340615e-02 -6.558693131966693e-02
            6.945977150194468e-02 -2.561008722780666e-02 7.609354032692980e-02 -3.371488233576377e-02 -1.387229101915486e-02 -6.547280775809361e-02 -4.441984170157157e-01 -2.757089546413503e-01
            -4.442346773763554e-01 -2.756173855468440e-01 -1.402081484790803e-02 -6.555611390882260e-02 8.199533556475115e-02 -3.021914171831600e-02 7.890669228450614e-02 -1.821822296025623e-02
            -1.390313848795192e-02 -6.550794859436328e-02 -4.442543914890960e-01 -2.756758183899903e-01 7.885759076501890e-02 -1.829446738673795e-02 8.203671215912445e-02 -3.024081626761468e-02
474692500.0000000000 5.837302900864744e-02 -2.030196158284587e-02 5.399377161337186e-02 -1.118022105339169e-02 -5.139066734246956e-01 -1.044013295679733e-01 -3.801862297032588e-02 -5.314617682870108e-02
            5.401355996109349e-02 -1.106286889352436e-02 5.830448809338026e-02 -2.041312610457194e-02 -3.809629726774473e-02 -5.319110483997577e-02 -5.139213351384280e-01 -1.044734651426263e-01
            -5.138584271083625e-01 -1.043998484266685e-01 -3.813026179256827e-02 -5.311882333230412e-02 6.547169358693469e-02 -1.878878090448870e-02 6.508814487336063e-02 -7.265823842269340e-03
            -3.814330625959837e-02 -5.308476330914873e-02 -5.138910396295917e-01 -1.044171421594533e-01 6.501367347472713e-02 -7.287727958862756e-03 6.549872936643839e-02 -1.883842148438814e-02
475525000.0000000000 5.348900566837841e-02 1.142580610990255e-03 5.171667093341913e-02 1.048315516917694e-02 -5.183546234066517e-01 8.160349607650032e-02 -5.376224453703496e-02 -3.189492133595145e-02
            5.164855350803169e-02 1.052669982115931e-02 5.359950339446687e-02 1.125404356324788e-03 -5.390698916652316e-02 -3.197142167960394e-02 -5.183743350180126e-01 8.155889213778109e-02
            -5.184682269376574e-01 8.155957379479080e-02 -5.382795425662628e-02 -3.182299767026471e-02 6.101594768268165e-02 3.186174995020898e-04 6.285359305705980e-02 1.061091586501350e-02
            -5.391544191852305e-02 -3.186473272616874e-02 -5.183515168355604e-01 8.156446073891692e-02 6.288590328144551e-02 1.064194598177199e-02 6.102778067216454e-02 3.855730092432814e-04
476357500.0000000000 6.353043677669352e-02 2.012309271423608e-02 6.408448328079946e-02 2.869352192137556e-02 -4.565665894733171e-01 2.566799970385999e-01 -5.839966149652447e-02 -7.886476387271871e-03
            6.407652932723741e-02 2.861073513841858e-02 6.368702617017669e-02 2.001952554947301e-02 -5.843921038859066e-02 -7.842450842781573e-03 -4.565060094437973e-01 2.567233814023143e-01
            -4.564975098106944e-01 2.566825843032663e-01 -5.845114628700214e-02 -7.790009904204793e-03 7.034812625112268e-02 1.707984380025069e-02 7.394274234730619e-02 2.567517134034764e-02
            -5.844020063092668e-02 -7.890241489029566e-03 -4.565832804696242e-01 2.567197126303976e-01 7.396679377588139e-02 2.563236281626463e-02 7.031053978221910e-02 1.707006943349264e-02
477190000.0000000000 8.291303011999791e-02 2.752578669942896e-02 8.516275250717285e-02 3.458701464916237e-02 -3.379414549612376e-01 3.975254379315792e-01 -5.364172263928860e-02 1.357852041865437e-02
            8.511518310508874e-02 3.460111091483889e-02 8.287132741696569e-02 2.757689445534994e-02 -5.372955770347812e-02 1.374953524042622e-02 -3.379292523831964e-01 3.975338861229603e-01
            -3.378921553366929e-01 3.975161430425736e-01 -5.367340903229712e-02 1.364843833528806e-02 8.800046228978764e-02 2.292763433593718e-02 9.297364012221346e-02 2.961668266664677e-02
            -5.367155080683517e-02 1.363693966855284e-02 -3.378677813529219e-01 3.975373076516142e-01 9.297867856792906e-02 2.952330344928399e-02 8.804157101041370e-02 2.288470221365989e-02
478022500.0000000000 1.014451931376984e-01 2.083241775433190e-02 1.049775798510491e-01 2.581433013663928e-02 -1.798172969467146e-01 4.877000277096327e-01 -4.310326215517873e-02 3.035423310419086e-02
            1.049191570084824e-01 2.583889824405351e-02 1.014458516229079e-01 2.087851132209286e-02 -4.301290630565165e-02 3.037615858198061e-02 -1.798222529384715e-01 4.877075904414181e-01
            -1.797712640301872e-01 4.877176575013775e-01 -4.302606134873600e-02 3.028975736543003e-02 1.046601912316642e-01 1.544246055498399e-02 1.104115535912677e-01 2.006675758667754e-02
            -4.305095389880052e-02 3.032619072700023e-02 -1.797180534092996e-01 4.876995053354076e-01 1.104366108235632e-01 2.005588848352793e-02 1.046491262166428e-01 1.540864616214295e-02
478855000.0000000000 1.108150409775163e-01 4.273572200392944e-03 1.145402140356059e-01 6.775037713545011e-03 -1.957862977690345e-03 5.186879131184537e-01 -2.885723878504627e-02 4.252804929755522e-02
            1.144819938823703e-01 6.824726478891284e-03 1.107819766221086e-01 4.260029215703149e-03 -2.894003555238802e-02 4.238544698366722e-02 -1.923361512650936e-03 5.186721667199844e-01
            -1.955115251787915e-03 5.187431244658737e-01 -2.882924338925300e-02 4.245029496630658e-02 1.118436304179529e-01 -1.143070108286230e-03 1.180221620613206e-01 1.424410657106622e-03
            -2.890318783401394e-02 4.240365880539895e-02 -2.006562092857629e-03 5.187093796592868e-01 1.180203317743201e-01 1.488700199725626e-03 1.118806112626122e-01 -1.111150534168338e-03
479687500.0000000000 1.067054313716137e-01 -1.372609153792148e-02 1.099384909694456e-01 -1.356145636400221e-02 1.756198324445671e-01 4.883478977708932e-01 -1.147816509145555e-02 4.989106895694287e-02
            1.099182102136268e-01 -1.367287385332545e-02 1.067936515599003e-01 -1.383510429428078e-02 -1.148205705431727e-02 4.990003615739678e-02 1.757197031017568e-01 4.883968745835406e-01
            1.755839932667609e-01 4.883739613435847e-01 -1.143793453727576e-02 4.991038444736065e-02 1.062496984953983e-01 -1.853474213233999e-02 1.124048425286706e-01 -1.813282331260465e-02
            -1.141535124590622e-02 4.984762253374384e-02 1.755624969949661e-01 4.883824251559213e-01 1.124050155509446e-01 -1.804707691330165e-02 1.062385661439440e-01 -1.843551782634734e-02
480520000.0000000000 9.168123564677187e-02 -2.463164708478080e-02 9.336901717937449e-02 -2.631634660725339e-02 3.335332228079719e-01 3.994795335167414e-01 8.793842047030544e-03 5.097189257569818e-02
            9.344712685607584e-02 -2.636871378464369e-02 9.168195920660965e-02 -2.462750827400938e-02 8.749486829640944e-03 5.097320764966052e-02 3.335592349634053e-01 3.994023032180441e-01
            3.336752631786208e-01 3.994297705794522e-01 8.758644566833639e-03 5.094618964551440e-02 9.000498272206198e-02 -2.797573694860672e-02 9.567475485206499e-02 -2.974273715150349e-02
            8.732041677511923e-03 5.097294191266909e-02 3.336244324906056e-01 3.994900473359781e-01 9.569344462698856e-02 -2.977747131442240e-02 9.004811502815012e-02 -2.796965308770771e-02
481352500.0000000000 7.295966536700647e-02 -2.230387322739494e-02 7.244582863656264e-02 -2.512526399854973e-02 4.527583696056640e-01 2.603198238495743e-01 2.910347720174632e-02 4.316564872756758e-02
            7.254978990147351e-02 -2.511820684953293e-02 7.297774024742248e-02 -2.222935158924956e-02 2.903818424973821e-02 4.321926045308829e-02 4.527636729019829e-01 2.603095228780000e-01
            4.526881906831912e-01 2.603462925035878e-01 2.897695291299585e-02 4.317619678327476e-02 7.090831485085168e-02 -2.413484511651056e-02 7.551216132108639e-02 -2.801751106592206e-02
            2.906187074912803e-02 4.316346083117398e-02 4.527683723269020e-01 2.602829726262053e-01 7.562067512107830e-02 -2.800961755162343e-02 7.091238626279009e-02 -2.411573439592392e-02
482185000.0000000000 6.056007566980497e-02 -7.419372962376951e-03 5.749424965190220e-02 -1.045999797266484e-02 5.161866084905968e-01 8.656350010557992e-02 4.422338195082744e-02 2.648248277418266e-02
            5.758813332234297e-02 -1.036358571522663e-02 6.062769039613052e-02 -7.335983861593641e-03 4.417735061781267e-02 2.653680775798939e-02 5.162139585756230e-01 8.659258694418062e-02
            5.162765474972536e-01 8.655149635428368e-02 4.420210424060363e-02 2.647409800599380e-02 5.853947429989406e-02 -7.879682352603461e-03 6.168496814989679e-02 -1.361206702392143e-02
            4.424740554166375e-02 2.642275286262887e-02 5.162736855769356e-01 8.655391597681820e-02 6.164901163886131e-02 -1.365368644546668e-02 5.856188014972263e-02 -7.869912148433644e-03
483017500.0000000000 6.162518173174415e-02 1.263454029507994e-02 5.628262183784246e-02 1.050120602849014e-02 5.137195690982909e-01 -9.909438863515355e-02 4.976140125073154e-02 4.751302050994778e-03
            5.641098579594911e-02 1.060473071591148e-02 6.162314515952397e-02 1.260086993179266e-02 4.972002312209575e-02 4.806641985268774e-03 5.137057795658931e-01 -9.915551064407338e-02
            5.138189485301706e-01 -9.909049575906086e-02 4.976183896333344e-02 4.726303857655307e-03 5.994487198399909e-02 1.309030302948051e-02 6.125958871608593e-02 6.119687946485815e-03
            4.969281876765595e-02 4.808058122723417e-03 5.137528475177831e-01 -9.918561632986303e-02 6.111876966232899e-02 6.125777116108764e-03 5.999286751282733e-02 1.310517801747631e-02
483850000.0000000000 7.600815565033257e-02 2.702995674138639e-02 6.921386884582888e-02 2.703035227902742e-02 4.456221916195166e-01 -2.709973984327440e-01 4.482876083309083e-02 -1.566573003654891e-02
            6.921759464335900e-02 2.706094822931803e-02 7.604341622797402e-02 2.697944003325739e-02 4.486088247415543e-02 -1.566578531670276e-02 4.456440411063486e-01 -2.710250866165653e-01
            4.456027784102670e-01 -2.709531888405866e-01 4.488457755858977e-02 -1.570253858032389e-02 7.506600178706974e-02 2.850564851842112e-02 7.401183118472224e-02 2.076341156123049e-02
            4.480511759149646e-02 -1.573460944070733e-02 4.456074574408608e-01 -2.709869587540600e-01 7.405700365693797e-02 2.082424760308061e-02 7.508009519581089e-02 2.856184453439829e-02
484682500.0000000000 9.681501069781510e-02 2.838370130507512e-02 8.954857704205463e-02 3.100709373552816e-02 3.229309818719885e-01 -4.065549827166263e-01 3.297337569295970e-02 -3.038169529457130e-02
            8.957415820098234e-02 3.113654860049853e-02 9.684918033450156e-02 2.839083628745135e-02 3.294409283973335e-02 -3.044256616700770e-02 3.229562223618052e-01 -4.065070393247987e-01
            3.228945476783807e-01 -4.065515395445268e-01 3.292722237756952e-02 -3.045341382117361e-02 9.661211268014437e-02 3.070182148662813e-02 9.334150040721717e-02 2.292410471627593e-02
            3.301284508050004e-02 -3.041728103420419e-02 3.229320679684070e-01 -4.064786927929678e-01 9.333596112483392e-02 2.291366293847371e-02 9.667405097522569e-02 3.067993018056938e-02
485515000.0000000000 1.136980748968143e-01 1.591346642021895e-02 1.075254180159839e-01 2.121350922944627e-02 1.629962734661504e-01 -4.906876151555903e-01 1.845352396613454e-02 -3.874200640889544e-02
            1.075918027514977e-01 2.127899697753164e-02 1.136933454838445e-01 1.597886543509987e-02 1.833672670873951e-02 -3.864610152106643e-02 1.631081239848453e-01 -4.906812542874021e-01
            1.630294820382095e-01 -4.907472245245338e-01 1.839632647935742e-02 -3.869541317175918e-02 1.146806394685593e-01 1.901281577706666e-02 1.093276426673076e-01 1.162992872026708e-02
            1.847059258723274e-02 -3.875420099456350e-02 1.630649897465733e-01 -4.906999999140978e-01 1.093016375167130e-01 1.168875087336981e-02 1.146588348470808e-01 1.892988087635984e-02
486347500.0000000000 1.189664065594985e-01 -4.588386550393420e-03 1.151077798101093e-01 2.458772199660893e-03 -1.437584986480970e-02 -5.158583554497194e-01 3.266044546679316e-03 -4.199322807052328e-02
            1.150323556393921e-01 2.408813321239707e-03 1.190504213357621e-01 -4.550584454439692e-03 3.125194163059084e-03 -4.198551944935926e-02 -1.433068008653580e-02 -5.159971545799934e-01
            -1.433066207427160e-02 -5.160139128113543e-01 3.204825384029433e-03 -4.202289902586436e-02 1.213759933103442e-01 -9.938209066519537e-04 1.143443372205065e-01 -7.573829975738139e-03
            3.227429757818152e-03 -4.199660823738910e-02 -1.433287629685137e-02 -5.159939974973387e-01 1.143146913896174e-01 -7.578541355345024e-03 1.213288911332198e-01 -1.035668042034081e-03
487180000.0000000000 1.102072832607834e-01 -2.420151577441879e-02 1.091155631800680e-01 -1.679451485865017e-02 -1.900331513152630e-01 -4.804716628426480e-01 -1.244093705414788e-02 -4.108566124566905e-02
            1.090632102914738e-01 -1.677244774948613e-02 1.101243496926568e-01 -2.419827723897979e-02 -1.250549917906610e-02 -4.096753161797984e-02 -1.900196002785058e-01 -4.803879515772027e-01
            -1.899694950797423e-01 -4.804687225443809e-01 -1.232073544111843e-02 -4.103339236832608e-02 1.144039384821981e-01 -2.047837153272263e-02 1.059271202885818e-01 -2.595642250837037e-02
            -1.242408734798390e-02 -4.094000809248474e-02 -1.900212144335719e-01 -4.803989447327327e-01 1.060122821032265e-01 -2.593802530303989e-02 1.143547572267407e-01 -2.047539605537751e-02
488012500.0000000000 9.060343194677620e-02 -3.411600132884924e-02 9.248443655274594e-02 -2.766314322452808e-02 -3.445237372857280e-01 -3.871629600981333e-01 -2.829251408339884e-02 -3.446251644816334e-02
            9.248352674417774e-02 -2.767341771388391e-02 9.062848940013031e-02 -3.406177590622066e-02 -2.840182409844561e-02 -3.446947087624506e-02 -3.444833962020317e-01 -3.871660736642033e-01
            -3.445379301761663e-01 -3.871134649112792e-01 -2.835888724766368e-02 -3.458693711678849e-02 9.710935958953046e-02 -3.084906771135851e-02 8.759239006423096e-02 -3.524587815568935e-02
            -2.833552354478562e-02 -3.455909247197660e-02 -3.445056848361236e-01 -3.871710259545871e-01 8.754595393209273e-02 -3.523863572000508e-02 9.697945741345738e-02 -3.079281293928400e-02
488845000.0000000000 6.896329073944374e-02 -2.932306554822488e-02 7.286431614704528e-02 -2.519858160197251e-02 -4.587751280750253e-01 -2.449519611983038e-01 -4.185578753369382e-02 -2.090255627161682e-02
            7.285941900047331e-02 -2.534327655294830e-02 6.904033973169843e-02 -2.929809914465067e-02 -4.188624884839091e-02 -2.093436831021403e-02 -4.587423583411618e-01 -2.448291318736101e-01
            -4.587480630021758e-01 -2.448628906370519e-01 -4.188294166760605e-02 -2.092000240141810e-02 7.764333503314984e-02 -2.759208163085123e-02 6.709009032550096e-02 -3.073071398430419e-02
            -4.183462866725760e-02 -2.089084859664950e-02 -4.587885545793918e-01 -2.448532805800505e-01 6.710125243107555e-02 -3.079554697056614e-02 7.759336331732358e-02 -2.755745604072619e-02
489677500.0000000000 5.536666760379675e-02 -1.176327241044254e-02 5.989329709838109e-02 -1.070902881194892e-02 -5.165068262442957e-01 -6.982937742585348e-02 -4.847198633555488e-02 -1.088482065469278e-03
            5.992257727482122e-02 -1.077502158405228e-02 5.541105957912455e-02 -1.171520145648230e-02 -4.835565780277352e-02 -1.095080947983619e-03 -5.164684680739129e-01 -6.985732517684387e-02
            -5.164812706599488e-01 -6.983806429220273e-02 -4.852346102605224e-02 -1.067955673756472e-03 6.567490662667413e-02 -1.244112078293680e-02 5.439308329563741e-02 -1.428833656584151e-02
            -4.852033654085349e-02 -1.163648483251520e-03 -5.165595606996826e-01 -6.993836717327438e-02 5.444890906837307e-02 -1.425469862022725e-02 6.564277900556864e-02 -1.248263601056311e-02
490510000.0000000000 5.644773049879704e-02 1.025004058063252e-02 6.019583221546627e-02 8.361965627156579e-03 -5.080434805747609e-01 1.146810382053302e-01 -4.491424836211347e-02 2.036917757707417e-02
            6.009995244340100e-02 8.338085892348059e-03 5.634721635386911e-02 1.019728998407719e-02 -4.483580292200049e-02 2.043960172046175e-02 -5.079896481781196e-01 1.146965479883388e-01
            -5.081453580130569e-01 1.146969168377044e-01 -4.484145337481682e-02 2.043177873246627e-02 6.727508415358435e-02 6.330976251201486e-03 5.548130144228681e-02 6.044602806749411e-03
            -4.478522864611274e-02 2.043311237777353e-02 -5.080057853389255e-01 1.147763845147246e-01 5.554203456459347e-02 6.026894850041112e-03 6.723747709440861e-02 6.283705369113706e-03
491342500.0000000000 7.085287870146563e-02 2.579742084092155e-02 7.297054672145328e-02 2.187036104976493e-02 -4.350440609777432e-01 2.834861475779726e-01 -3.165271302315163e-02 3.745159727459341e-02
            7.292517721996043e-02 2.189738513137794e-02 7.096009910546341e-02 2.590747382167396e-02 -3.163412517876608e-02 3.745260060997160e-02 -4.349508960687384e-01 2.834837379469297e-01
            -4.350349879522002e-01 2.835058692308823e-01 -3.174802296182323e-02 3.744388361038643e-02 8.119443206833349e-02 1.853504384867584e-02 6.925261380122358e-02 2.015747547448830e-02
            -3.167631147613464e-02 3.735922755975198e-02 -4.350611184912574e-01 2.835297420742885e-01 6.928719168091940e-02 2.006074293422014e-02 8.112338086769760e-02 1.857013724509909e-02
492175000.0000000000 9.144681998958859e-02 2.804435534667596e-02 9.115095570768247e-02 2.326920102351072e-02 -3.088161979883174e-01 4.146548168718630e-01 -1.338630903119660e-02 4.639170815098179e-02
            9.110053499410611e-02 2.322451170615890e-02 9.137404348614941e-02 2.804284213205450e-02 -1.341045982075939e-02 4.633191297215307e-02 -3.087687490675021e-01 4.146579697985458e-01
            -3.088530523138069e-01 4.147196211185279e-01 -1.343366051047737e-02 4.633364905448596e-02 9.951623150418791e-02 1.800850198051555e-02 8.820525643429135e-02 2.136687171877134e-02
            -1.339991202193181e-02 4.644999507710800e-02 -3.088087358247472e-01 4.146591707017388e-01 8.820274488108630e-02 2.135473871923607e-02 9.952494067441199e-02 1.803765724014773e-02
493007500.0000000000 1.076287189857507e-01 1.683812216254143e-02 1.053161155027851e-01 1.222104480003837e-02 -1.470827222463174e-01 4.938428535300254e-01 5.526764962293476e-03 4.736743244120147e-02
            1.052902286941858e-01 1.225923375988257e-02 1.076147068244753e-01 1.677499542639659e-02 5.377453544648579e-03 4.728432280726053e-02 -1.471168179659190e-01 4.938233226420161e-01
            -1.470861342904490e-01 4.939016047196799e-01 5.437371857435235e-03 4.738227512089180e-02 1.128271752335936e-01 5.275456865592546e-03 1.027432144637891e-01 9.989237363102530e-03
            5.458060017189619e-03 4.729458854577651e-02 -1.470559677096017e-01 4.937627232711858e-01 1.028015460551662e-01 9.959588682339178e-03 1.127863113251188e-01 5.209764371703462e-03
493840000.0000000000 1.123083065153380e-01 -1.733164565223805e-03 1.086631949734219e-01 -5.419363633807460e-03 3.077828775556078e-02 5.136679317276354e-01 2.237238200569449e-02 4.214697580559845e-02
            1.086922198647128e-01 -5.410763127386340e-03 1.123021998767953e-01 -1.732197492510136e-03 2.237076648116907e-02 4.213449168678869e-02 3.081807259193961e-02 5.137104851801669e-01
            3.086486851652337e-02 5.136672723348825e-01 2.242938923870387e-02 4.224192404692680e-02 1.143862116900092e-01 -1.343067998547427e-02 1.060165965019569e-01 -7.917552874475152e-03
            2.248689940055679e-02 4.215844720213204e-02 3.089865067111324e-02 5.137103055042987e-01 1.060939825716643e-01 -7.874921551285087e-03 1.145531851229074e-01 -1.340157301113884e-02
494672500.0000000000 1.036430860881290e-01 -1.851747363432550e-02 9.956214598093015e-02 -2.116270847115712e-02 2.052579527945205e-01 4.725377407652303e-01 3.716582060229998e-02 3.224098617888555e-02
            9.956839576932096e-02 -2.118103838697059e-02 1.036815348376190e-01 -1.854309660615301e-02 3.716233284932206e-02 3.229883582344912e-02 2.052194311443121e-01 4.726489566579198e-01
            2.052447222192178e-01 4.724995611534954e-01 3.717544588967138e-02 3.227710085140548e-02 1.034232491140801e-01 -2.898988215516748e-02 9.659121132209821e-02 -2.353257233006213e-02
            3.717263193864559e-02 3.232014586663071e-02 2.051940452685123e-01 4.725429661000528e-01 9.668027882264911e-02 -2.360570428930739e-02 1.034777429915785e-01 -2.895409590102818e-02
495505000.0000000000 8.599530778098188e-02 -2.518003254446068e-02 8.202455764155790e-02 -2.731812242399172e-02 3.564540778441655e-01 3.738170905554284e-01 4.883487246439811e-02 1.714011381045789e-02
            8.202469300716567e-02 -2.726770734740591e-02 8.594178773961421e-02 -2.519832219221293e-02 4.892031093196766e-02 1.717855325254298e-02 3.563987217454603e-01 3.738361777382607e-01
            3.564184123230754e-01 3.737616916980510e-01 4.889126211351501e-02 1.707957821666851e-02 8.458126654395330e-02 -3.369152159741479e-02 7.898044648885480e-02 -2.941646558944319e-02
            4.886589404141275e-02 1.712099286019424e-02 3.564550305128613e-01 3.737772525823257e-01 7.889960921104232e-02 -2.938191365654321e-02 8.465566898746700e-02 -3.364282263713640e-02
496337500.0000000000 6.797574719926164e-02 -1.806411388867973e-02 6.443175214336157e-02 -2.041162643089409e-02 4.651978485021414e-01 2.274111346981056e-01 5.492835481040906e-02 -3.194635589974177e-03
            6.444438289167051e-02 -2.040947516036820e-02 6.801414061246552e-02 -1.806027635379017e-02 5.494125534234673e-02 -3.194477455426900e-03 4.652192646272197e-01 2.274667611742219e-01
            4.652384693972915e-01 2.274570233423223e-01 5.490515467932369e-02 -3.275713648261926e-03 6.695253901710900e-02 -2.471239437610142e-02 6.149769390794991e-02 -2.192931460484418e-02
            5.492622123503246e-02 -3.225989298074872e-03 4.651888724125088e-01 2.274814472878690e-01 6.160135690011249e-02 -2.207173062128659e-02 6.689508692717194e-02 -2.470921666710929e-02
497170000.0000000000 5.923420135074956e-02 -1.564812531507087e-04 5.550787644474226e-02 -3.355957869368365e-03 5.155671860400116e-01 5.101127823786013e-02 5.163341456673590e-02 -2.643419990109222e-02
            5.550608076691120e-02 -3.482538255595263e-03 5.930122258155263e-02 -2.583562076645568e-04 5.159402543341098e-02 -2.641673363705557e-02 5.155871172096996e-01 5.097268738519823e-02
            5.155569565137164e-01 5.095904600991393e-02 5.157094570709344e-02 -2.644259092131442e-02 5.938530598477147e-02 -6.076609483136756e-03 5.331518315392597e-02 -4.839630077135934e-03
            5.154650150706376e-02 -2.650646112265708e-02 5.155437990229300e-01 5.095376477986348e-02 5.333418574484505e-02 -4.854834427563229e-03 5.944429882323166e-02 -6.068925287116137e-03
498002500.0000000000 6.469112669281046e-02 1.924402968468305e-02 5.994636045402987e-02 1.522991934208728e-02 4.998531869987654e-01 -1.317904585814075e-01 3.754535285327319e-02 -4.686125308369644e-02
            6.002552135346918e-02 1.518954621308227e-02 6.472324976278110e-02 1.925303064421468e-02 3.747786836432034e-02 -4.689594198757230e-02 4.998307042174103e-01 -1.317529903884332e-01
            4.998652586528390e-01 -1.317653200218567e-01 3.753020747609637e-02 -4.685604222595176e-02 6.638806581949516e-02 1.302107265069562e-02 5.858866202969783e-02 1.338803644079701e-02
            3.751333958107841e-02 -4.690843794567830e-02 4.998941823849907e-01 -1.317441896907106e-01 5.856151382502897e-02 1.337834407007997e-02 6.649145024877989e-02 1.303866386963744e-02
498835000.0000000000 8.187756141001734e-02 3.066067810743737e-02 7.539414282201075e-02 2.610216978363729e-02 4.212364442362110e-01 -2.958472724196774e-01 1.564229599590485e-02 -5.900633434329814e-02
            7.535379916402521e-02 2.609260847377635e-02 8.174503949616882e-02 3.065306142100789e-02 1.554132952715879e-02 -5.900687703669590e-02 4.212888799654039e-01 -2.958171920677631e-01
            4.211793861995516e-01 -2.958179631870069e-01 1.552339471200845e-02 -5.907129376854681e-02 8.430033348887123e-02 2.271920619967143e-02 7.443872975419429e-02 2.330522262467015e-02
            1.565469776260013e-02 -5.894864247171976e-02 4.211917916790788e-01 -2.959090890229061e-01 7.435898712743601e-02 2.325742223884181e-02 8.443095332931855e-02 2.264418563123454e-02
499667500.0000000000 1.023316217157678e-01 2.838698890870973e-02 9.354981129645851e-02 2.437638631134048e-02 2.919986312119754e-01 -4.210171740163812e-01 -8.680833176252577e-03 -6.053017076011138e-02
            9.357584731226706e-02 2.441460161168678e-02 1.022814642086819e-01 2.832053312817247e-02 -8.755515248855587e-03 -6.051463153825797e-02 2.920194789670117e-01 -4.209990127930236e-01
            2.919530087025667e-01 -4.209909474253166e-01 -8.665017153037175e-03 -6.059756452999530e-02 1.043789122143663e-01 1.806966040028395e-02 9.239291011176733e-02 2.001149021116986e-02
            -8.699473306831462e-03 -6.058555047014662e-02 2.920314163591965e-01 -4.209267605913434e-01 9.240645811998108e-02 1.996437994283205e-02 1.043224083979285e-01 1.815877729502279e-02
500500000.0000000000 1.165233766117502e-01 1.370178009250684e-02 1.059092223051202e-01 1.158612593531332e-02 1.296442483738782e-01 -4.939153323432607e-01 -3.040554980177193e-02 -5.305936117783844e-02
            1.059130381428695e-01 1.153267042552581e-02 1.165955636292886e-01 1.362615091409410e-02 -3.051581964906176e-02 -5.303376325530638e-02 1.297208005837115e-01 -4.938791305487485e-01
            1.296709995855978e-01 -4.939445546811606e-01 -3.047965957346488e-02 -5.298172778816274e-02 1.168433726970657e-01 1.691817118650656e-03 1.035198518267503e-01 5.825024824500555e-03
            -3.050486753631618e-02 -5.303142291074336e-02 1.296646060547402e-01 -4.939274755546835e-01 1.035051756850533e-01 5.798509182869009e-03 1.168835586819279e-01 1.623032983728994e-03
501332500.0000000000 1.185582224247782e-01 -6.406066659881668e-03 1.068701410223027e-01 -5.782102497559681e-03 -4.699897623099505e-02 -5.081379260852403e-01 -4.780300992831549e-02 -3.931561857412522e-02
            1.068796297609471e-01 -5.783566048097807e-03 1.185441931599220e-01 -6.411621161571547e-03 -4.775252185347255e-02 -3.930175513410910e-02 -4.700362802298785e-02 -5.080872466838621e-01
            -4.700561281951576e-02 -5.080534420559172e-01 -4.780514524699785e-02 -3.929703549716077e-02 1.160790397841122e-01 -1.913173272875102e-02 1.024196083993631e-01 -1.233919443699051e-02
            -4.781593815724732e-02 -3.926769058418301e-02 -4.699813573051323e-02 -5.081781557478657e-01 1.024363623217801e-01 -1.241450983906923e-02 1.160685371199219e-01 -1.918979077138617e-02
502165000.0000000000 1.075423823028484e-01 -2.309272339768215e-02 9.639476241312625e-02 -1.931165241976418e-02 -2.187303755762419e-01 -4.618874601401066e-01 -6.006435332994996e-02 -2.107605229605397e-02
            9.642644537751729e-02 -1.945070567358024e-02 1.075578305817619e-01 -2.309250609669948e-02 -6.016576276168945e-02 -2.103387183653839e-02 -2.187296478774039e-01 -4.618567707285006e-01
            -2.187781822040905e-01 -4.618201064311140e-01 -6.019049153312579e-02 -2.100288055876246e-02 1.021730198601504e-01 -3.510291653912427e-02 8.932590545381085e-02 -2.573725417843466e-02
            -6.016806330574314e-02 -2.100776252960806e-02 -2.186455146805999e-01 -4.619383078675511e-01 8.942881212670734e-02 -2.576554677935657e-02 1.021759440460034e-01 -3.506071308203400e-02
502997500.0000000000 8.884057127543799e-02 -2.885112313981108e-02 7.942266246646044e-02 -2.252874122819371e-02 -3.656786335781279e-01 -3.589585531533315e-01 -6.685964736942332e-02 1.418113249835926e-03
            7.943201323403211e-02 -2.246291246900822e-02 8.880708302936237e-02 -2.885097066861871e-02 -6.686979479520876e-02 1.443882420594291e-03 -3.656598724833345e-01 -3.589449927987720e-01
            -3.657262219134795e-01 -3.590497780549847e-01 -6.691020435755823e-02 1.497825659618864e-03 8.119805795011943e-02 -3.874281609427728e-02 7.004107461705224e-02 -2.743256183721113e-02
            -6.688563217352898e-02 1.517873615053099e-03 -3.657294703488299e-01 -3.589830860034562e-01 6.999879058245943e-02 -2.740495411047967e-02 8.112799829829563e-02 -3.875432152833774e-02
503830000.0000000000 7.118826504554240e-02 -2.110836351416998e-02 6.460749094229261e-02 -1.336723602925943e-02 -4.685861229021470e-01 -2.099729165463551e-01 -6.523011290205795e-02 2.720866474627773e-02
            6.456654739495421e-02 -1.334696021309062e-02 7.116466005667040e-02 -2.107918926838840e-02 -6.525652875079965e-02 2.723791329781437e-02 -4.686073020071079e-01 -2.099945411779914e-01
            -4.686789406679971e-01 -2.099933457694080e-01 -6.521555285866178e-02 2.726163969416925e-02 6.281136892069976e-02 -2.829687145729774e-02 5.359951441448531e-02 -1.577041906424121e-02
            -6.536542248914989e-02 2.730626113432771e-02 -4.686639716761838e-01 -2.099343893991994e-01 5.355315612307734e-02 -1.574266558132225e-02 6.284441053207050e-02 -2.820080665528410e-02
504662500.0000000000 6.340671940046859e-02 -3.986755534439505e-03 5.995927729445486e-02 3.719519926724374e-03 -5.123686660969525e-01 -3.324449971706991e-02 -5.261209635723201e-02 5.265335931244357e-02
            5.990416457054636e-02 3.724364918331376e-03 6.333307633892270e-02 -3.921175264160114e-03 -5.269217151195987e-02 5.258033217672364e-02 -5.123794162987276e-01 -3.328994034803050e-02
            -5.123335498336853e-01 -3.323545003037941e-02 -5.262961760654026e-02 5.256355129987005e-02 5.588626955748680e-02 -8.514292289848874e-03 4.845170766595507e-02 4.390221295727962e-03
            -5.261418260893590e-02 5.262207300123462e-02 -5.123875343976054e-01 -3.328895093337485e-02 4.844394632205975e-02 4.465586171286437e-03 5.589496739007148e-02 -8.454180899656712e-03
505495000.0000000000 6.902549554573477e-02 1.326160860778114e-02 6.816309793443849e-02 1.966196532401568e-02 -4.904129044240157e-01 1.469518713397898e-01 -2.925290963777354e-02 7.152632637298903e-02
            6.819466646670683e-02 1.971036175521367e-02 6.903936802782297e-02 1.323327356621863e-02 -2.917153185895309e-02 7.153057569508579e-02 -4.904142593547737e-01 1.469321745930521e-01
            -4.904150573310140e-01 1.469729600274476e-01 -2.917903416345483e-02 7.156026493506336e-02 6.340337512049531e-02 1.036843561885932e-02 5.756039480045637e-02 2.321886820627457e-02
            -2.917699406923790e-02 7.150307180008465e-02 -4.904173008230364e-01 1.469205177488790e-01 5.760284744404999e-02 2.325845471145088e-02 6.336598317233764e-02 1.036876380766445e-02
506327500.0000000000 8.437452506495123e-02 2.194807853971871e-02 8.508796998897943e-02 2.605747816834738e-02 -4.071887818858486e-01 3.064475031625649e-01 6.527558035039581e-04 7.889008411933511e-02
            8.512709365866271e-02 2.597878490656103e-02 8.438265951546296e-02 2.191320017042993e-02 6.581931137129359e-04 7.884515579522637e-02 -4.072059259916464e-01 3.065147358621450e-01
            -4.072149217533095e-01 3.064549898269040e-01 7.034469002452958e-04 7.881450082537511e-02 8.092480205136600e-02 1.918914369418058e-02 7.641764544412530e-02 3.166384570695382e-02
            6.527077398815315e-04 7.884652238724198e-02 -4.072111046522696e-01 3.064974668473129e-01 7.637615434837740e-02 3.168247163838032e-02 8.095484918114752e-02 1.914715132649958e-02
507160000.0000000000 1.011059063637790e-01 1.788535308573472e-02 1.021327027973108e-01 1.954921749893995e-02 -2.755237595782179e-01 4.260627720590212e-01 3.043118156910212e-02 7.363107343490080e-02
            1.021630519868828e-01 1.951667527796756e-02 1.011514085022935e-01 1.789014144905784e-02 3.041582671303070e-02 7.352083954319438e-02 -2.755348949656434e-01 4.260730549385167e-01
            -2.755466409348689e-01 4.260883470310791e-01 3.041083313480692e-02 7.355094875896606e-02 9.921692622151997e-02 1.413763292521817e-02 9.571427659615973e-02 2.632131983241921e-02
            3.042376942578516e-02 7.349698634481154e-02 -2.755205295536126e-01 4.261056535138120e-01 9.568463140579150e-02 2.629255381894549e-02 9.926806300809399e-02 1.398417792800755e-02
507992500.0000000000 1.107928565153704e-01 3.678239228407027e-03 1.109122777349157e-01 3.418492168081983e-03 -1.125998771279425e-01 4.932855455502873e-01 5.518702737216609e-02 5.796909393249512e-02
            1.109389036773656e-01 3.426898410553814e-03 1.107346373964862e-01 3.753106332454336e-03 5.517547175589950e-02 5.799884903138978e-02 -1.125542397595131e-01 4.933413350447807e-01
            -1.126488969242185e-01 4.933113618053641e-01 5.524353998470260e-02 5.804812518945300e-02 1.094097021419254e-01 -1.489861472506515e-03 1.069042189499658e-01 1.045472408573522e-02
            5.516639103644191e-02 5.797676035060116e-02 -1.125798834811442e-01 4.933931340701089e-01 1.068933832488493e-01 1.039801311324687e-02 1.095077822104826e-01 -1.524527607410979e-03
508825000.0000000000 1.085087793460359e-01 -1.336057820894923e-02 1.073146617463378e-01 -1.476642851956053e-02 6.312666932944982e-02 5.018503055100701e-01 7.286355815909823e-02 3.568565042123606e-02
            1.072689029481385e-01 -1.475307224659690e-02 1.083894101285633e-01 -1.334698480697907e-02 7.290202211543438e-02 3.570993586888870e-02 6.306680389616624e-02 5.019012742349155e-01
            6.310382881185819e-02 5.018786085773790e-01 7.288590482856874e-02 3.576473798009847e-02 1.066941213480526e-01 -1.976309908469290e-02 1.051476805355050e-01 -8.300305458910638e-03
            7.278500446110009e-02 3.571763853123626e-02 6.311664230456673e-02 5.019000447426597e-01 1.051406769068923e-01 -8.300653340275754e-03 1.067441704200193e-01 -1.979038779031484e-02
509657500.0000000000 9.502878598095475e-02 -2.495278376823152e-02 9.263357659187192e-02 -2.659448476407114e-02 2.321518809165496e-01 4.502546640434152e-01 8.291927932198458e-02 8.924796655408497e-03
            9.264355176958672e-02 -2.666765353976097e-02 9.504771547908401e-02 -2.495926444049729e-02 8.292566162412862e-02 8.887612947192890e-03 2.322157224600527e-01 4.503498771036156e-01
            2.321544300152576e-01 4.503040841309022e-01 8.298852631317567e-02 8.937326747670549e-03 9.248225535637819e-02 -3.186719724951189e-02 9.184609983254599e-02 -2.095843943126945e-02
            8.301852958364106e-02 8.905543290696476e-03 2.321464913632160e-01 4.502882050797102e-01 9.185273068824738e-02 -2.106402252932235e-02 9.261439441676124e-02 -3.188509898055045e-02
510490000.0000000000 7.665874251789881e-02 -2.481646967680938e-02 7.343185127088818e-02 -2.618282341042187e-02 3.744587495479909e-01 3.428750979575972e-01 8.420141239889857e-02 -2.127267388775665e-02
            7.343288595772987e-02 -2.616470492841480e-02 7.664708166669328e-02 -2.475704936257207e-02 8.419166684485381e-02 -2.122241252544525e-02 3.744926293123894e-01 3.428957790718309e-01
            3.744402375935387e-01 3.429822040751812e-01 8.424981253616864e-02 -2.120385080241534e-02 7.372180081514323e-02 -3.156406608026305e-02 7.364226249847057e-02 -2.171742012477055e-02
            8.427579867893302e-02 -2.119364440266635e-02 3.744398835387565e-01 3.428705521788179e-01 7.358514068665309e-02 -2.166981823541622e-02 7.372005066215125e-02 -3.156188639056348e-02
511322500.0000000000 6.233779376378500e-02 -1.216404701021078e-02 5.897761944034680e-02 -1.315621649375585e-02 4.708891390782359e-01 1.912723557653789e-01 7.430827001469821e-02 -5.229244355913355e-02
            5.906137755304014e-02 -1.318941652172980e-02 6.238129639213703e-02 -1.210653605521556e-02 7.441603008960176e-02 -5.234906923389841e-02 4.707967178701445e-01 1.912825173082003e-01
            4.708758623215676e-01 1.912601188322041e-01 7.439192092549098e-02 -5.229708002386912e-02 5.975241619714055e-02 -1.854882558938665e-02 5.963671403589776e-02 -9.897435236663258e-03
            7.442980167880213e-02 -5.233378880285385e-02 4.708317775828048e-01 1.913158345671260e-01 5.964904362416241e-02 -9.922488199955183e-03 5.974186720425827e-02 -1.859474421868976e-02
512155000.0000000000 5.970940356041179e-02 7.197632083587731e-03 5.648122205710650e-02 6.407951359486867e-03 5.072120495353303e-01 1.498841095554942e-02 5.180446201763488e-02 -7.936784890090254e-02
            5.657619161642056e-02 6.335517027030845e-03 5.977631422914802e-02 7.169097911135265e-03 5.182185198691724e-02 -7.936997871964734e-02 5.073150109104229e-01 1.495429867482622e-02
            5.071770112586743e-01 1.487501222877197e-02 5.178710539951863e-02 -7.937587703503203e-02 5.807247528156403e-02 6.505141773396390e-04 5.748465131335113e-02 8.341408408340124e-03
            5.175834609197550e-02 -7.936850204636155e-02 5.072486571422783e-01 1.491711276668442e-02 5.751202602993971e-02 8.431404687433664e-03 5.804095243726005e-02 6.222110550040586e-04
512987500.0000000000 7.039001135307146e-02 2.391312424988283e-02 6.752274882624477e-02 2.254333168010168e-02 4.787205492278502e-01 -1.619472045417292e-01 1.876032019998970e-02 -9.572614302182898e-02
            6.751468513664428e-02 2.253381950039083e-02 7.042328569018817e-02 2.389249655355619e-02 1.877762317994283e-02 -9.576165924142160e-02 4.787597610553451e-01 -1.618752798953641e-01
            4.787800320204986e-01 -1.619351549589656e-01 1.879343312627561e-02 -9.579124804338611e-02 6.992035846078175e-02 1.605375451111243e-02 6.833468178020229e-02 2.337611166074028e-02
            1.868118655377279e-02 -9.582295345095884e-02 4.787116634334757e-01 -1.619494936663466e-01 6.837886994477045e-02 2.334587778099328e-02 6.985923717560082e-02 1.600322045120217e-02
513820000.0000000000 8.917154862633522e-02 2.987060208472758e-02 8.630733014885680e-02 2.750579510081847e-02 3.912405239964872e-01 -3.158765269575826e-01 -1.870274766770406e-02 -9.728311949857256e-02
            8.632088905548679e-02 2.765417850779432e-02 8.907142648193891e-02 2.988965261360437e-02 -1.867114084095952e-02 -9.728474009447886e-02 3.912093829693845e-01 -3.158523988003636e-01
            3.912091740280868e-01 -3.158085129602293e-01 -1.865144589311851e-02 -9.735660083102693e-02 8.914998650032108e-02 1.939097004222620e-02 8.649166499233586e-02 2.716705646196260e-02
            -1.867953084802839e-02 -9.730935088990290e-02 3.911761053733198e-01 -3.158626456552420e-01 8.647216760322755e-02 2.719025364940675e-02 8.919168005262913e-02 1.934827270989552e-02
514652500.0000000000 1.072032109720366e-01 2.287808463985735e-02 1.034932453754678e-01 1.931400668632410e-02 2.577475870502651e-01 -4.289558300768433e-01 -5.328771973426431e-02 -8.442044776695996e-02
            1.035083108238007e-01 1.943461196896867e-02 1.071456442919008e-01 2.286461996524308e-02 -5.322206697916017e-02 -8.432931051126855e-02 2.577826571291539e-01 -4.290871996680351e-01
            2.577651965128210e-01 -4.290707147305078e-01 -5.321587595364079e-02 -8.432121156898942e-02 1.060212374531260e-01 9.144771221763156e-03 1.027296392061507e-01 1.812888954608067e-02
            -5.311385063767759e-02 -8.438411532966457e-02 2.576884135879374e-01 -4.290755927773431e-01 1.027263780255360e-01 1.815843637961874e-02 1.061010691781486e-01 9.042684660710039e-03
515485000.0000000000 1.164928320875641e-01 6.589965256168505e-03 1.114194881125010e-01 2.314372054421832e-03 9.519936977607846e-02 -4.901529121092374e-01 -7.988335879074160e-02 -6.053051617087813e-02
            1.115034993268189e-01 2.196894956455632e-03 1.163915007825723e-01 6.613187869801503e-03 -7.989448179917709e-02 -6.057743359354486e-02 9.521453140056191e-02 -4.901497631227117e-01
            9.527984924917615e-02 -4.901713897629363e-01 -7.987991832435024e-02 -6.057867999561387e-02 1.124968710385492e-01 -1.013345653305298e-02 1.093254028287155e-01 5.316957156112116e-04
            -7.991216678889652e-02 -6.051863196320709e-02 9.518589753100895e-02 -4.901150489140376e-01 1.092940096542764e-01 6.354371343094111e-04 1.124699645095832e-01 -1.005036549232006e-02
516317500.0000000000 1.136875083896107e-01 -1.139836021645905e-02 1.066782423966776e-01 -1.580194222133198e-02 -7.830962810483778e-02 -4.931365669839911e-01 -9.689646532447531e-02 -2.989612743132704e-02
            1.067060646805552e-01 -1.584385349175396e-02 1.136759525804629e-01 -1.143918381972289e-02 -9.685982868219122e-02 -2.982852130132916e-02 -7.827566445532923e-02 -4.931058821793639e-01
            -7.827378579699378e-02 -4.931414236349109e-01 -9.699812895783767e-02 -2.990143099460908e-02 1.050164419019862e-01 -2.955882232472890e-02 1.029944117682480e-01 -1.729568999407535e-02
            -9.691493270397605e-02 -2.991530369460991e-02 -7.821493952319429e-02 -4.931469962839329e-01 1.030840821301876e-01 -1.722757019033027e-02 1.049710142645538e-01 -2.956892388750164e-02
517150000.0000000000 1.003577093054072e-01 -2.299912768483699e-02 9.148061801231164e-02 -2.658124159564134e-02 -2.436228726356214e-01 -4.369300795510329e-01 -1.037273020064211e-01 4.662766594233672e-03
            9.149174146765089e-02 -2.667954337857587e-02 1.003328979540128e-01 -2.305183647514118e-02 -1.036768177048412e-01 4.645471988022291e-03 -2.436285892530188e-01 -4.370455708567440e-01
            -2.435589631572159e-01 -4.369980970185208e-01 -1.036616073203288e-01 4.719358788075213e-03 8.649968422850868e-02 -4.053653888970705e-02 8.660068351198678e-02 -2.707410006663678e-02
            -1.037091262776895e-01 4.646019386570503e-03 -2.435659852515332e-01 -4.370062969849805e-01 8.661466042292111e-02 -2.717395397339229e-02 8.647410739795512e-02 -4.048607746827126e-02
517982500.0000000000 8.320890910663596e-02 -2.307532068776408e-02 7.285374311585323e-02 -2.513488648462364e-02 -3.805645073295381e-01 -3.262463031215717e-01 -9.912803189298910e-02 4.131805928920227e-02
            7.287306472999641e-02 -2.512565460587042e-02 8.317483910146733e-02 -2.305634121681293e-02 -9.912932618017509e-02 4.132766388109651e-02 -3.806873631859379e-01 -3.262747716694576e-01
            -3.806607942601930e-01 -3.262994289470787e-01 -9.914760406563401e-02 4.125540809767485e-02 6.475122559612491e-02 -3.740407911241967e-02 6.728799858328918e-02 -2.414457142710983e-02
            -9.913935869495760e-02 4.133448811978617e-02 -3.806247850920076e-01 -3.262232842648756e-01 6.730553956786253e-02 -2.420211452174182e-02 6.479725169950491e-02 -3.734996386359057e-02
518815000.0000000000 7.083587622250656e-02 -1.185380725656333e-02 5.983268979894800e-02 -1.185603362835272e-02 -4.707663729104620e-01 -1.732925234582290e-01 -8.121996215074695e-02 7.651507601448583e-02
            5.987167166365814e-02 -1.186113953903546e-02 7.083356013842107e-02 -1.186411384447768e-02 -8.126150711162823e-02 7.652235813021831e-02 -4.707103036818616e-01 -1.733360828313744e-01
            -4.707095001193561e-01 -1.733022967015424e-01 -8.126176190900659e-02 7.642754956054262e-02 4.988319284267902e-02 -2.128143423387426e-02 5.452365059692406e-02 -9.258428700340389e-03
            -8.130596921886302e-02 7.650953772018601e-02 -4.707725853703766e-01 -1.733343591469766e-01 5.461103528035262e-02 -9.346993216448990e-03 4.975342681705123e-02 -2.122830790190393e-02
519647500.0000000000 6.964327581469182e-02 4.351754398240986e-03 5.894106103679188e-02 6.549361320304974e-03 -5.006426057021554e-01 1.788534372942314e-03 -4.978772143765237e-02 1.043172684738921e-01
            5.898987907375348e-02 6.545159755587570e-03 6.964969394114374e-02 4.313372353982845e-03 -4.973326602291218e-02 1.042464509943530e-01 -5.006562001958513e-01 1.893551092700898e-03
            -5.006742550822025e-01 1.879053700533022e-03 -4.975079889614537e-02 1.042363981654242e-01 4.855990902335477e-02 3.062730263060246e-04 5.473397336574801e-02 1.018790344083613e-02
            -4.979199169897310e-02 1.042688185965565e-01 -5.006775545069937e-01 1.789270059698388e-03 5.471471786050726e-02 1.023753929806426e-02 4.854746425778730e-02 3.499612836923790e-04
520480000.0000000000 7.970845228430838e-02 1.673804348956946e-02 7.023420231516773e-02 2.053688837790646e-02 -4.668444476256742e-01 1.750815855401316e-01 -8.240028606343295e-03 1.181149177035050e-01
            7.019201603967215e-02 2.055283515225154e-02 7.978810856981636e-02 1.679906954715828e-02 -8.217483611126437e-03 1.182080638391826e-01 -4.669329265573413e-01 1.751439491759472e-01
            -4.668450104772992e-01 1.751345555088357e-01 -8.272245118306870e-03 1.181533004290711e-01 6.104448883634911e-02 1.681227180442903e-02 6.764666684284987e-02 2.452443113987509e-02
            -8.234586814200967e-03 1.181525064871584e-01 -4.668759340314800e-01 1.751363957226348e-01 6.759886988268184e-02 2.445917047552387e-02 6.100630396941745e-02 1.679104303241140e-02
521312500.0000000000 9.543533422071909e-02 1.864294886778419e-02 8.752936984896079e-02 2.351257354171846e-02 -3.757201290433335e-01 3.240634298001194e-01 3.597001219080914e-02 1.147039711226104e-01
            8.747919207866171e-02 2.352390083181725e-02 9.549437526465947e-02 1.861719270989522e-02 3.607751082660710e-02 1.147060406204593e-01 -3.757732947380103e-01 3.241065599163154e-01
            -3.756642363827995e-01 3.239566110743246e-01 3.602161131436614e-02 1.146445652255020e-01 8.008495700798161e-02 2.090266856998162e-02 8.626483875303084e-02 2.657470703122111e-02
            3.594795931538223e-02 1.146876036923516e-01 -3.757427521800108e-01 3.241131765045320e-01 8.626357965320297e-02 2.654564085189543e-02 8.020657570032470e-02 2.102240367381623e-02
522145000.0000000000 1.082679936228851e-01 9.536073177886547e-03 1.021273239351837e-01 1.460580916016852e-02 -2.405315851911640e-01 4.316829145302654e-01 7.530092706329859e-02 9.497118445673326e-02
            1.020690313998411e-01 1.459299302764213e-02 1.082602601647647e-01 9.506100744281317e-03 7.524526629231221e-02 9.496626562808716e-02 -2.405364931583288e-01 4.316323273336258e-01
            -2.405077049430545e-01 4.316477771350584e-01 7.520487056277432e-02 9.500964515376262e-02 9.626057136949510e-02 1.163595966333604e-02 1.012752925043472e-01 1.586909911647525e-02
            7.526255376491159e-02 9.496464900138590e-02 -2.404594226563438e-01 4.316269622388882e-01 1.011352022076074e-01 1.591991808125681e-02 9.621374643805593e-02 1.173006839114697e-02
522977500.0000000000 1.117798804794566e-01 -6.006040044821949e-03 1.071248142077474e-01 -1.225743656287463e-03 -7.794699901352568e-02 4.869508645898459e-01 1.045458662436877e-01 6.322895179747272e-02
            1.070859702287093e-01 -1.184367122675414e-03 1.118117906749388e-01 -5.967155237990257e-03 1.044330264064219e-01 6.331635010330093e-02 -7.792535687703267e-02 4.869120181127128e-01
            -7.783457574059349e-02 4.868834883089754e-01 1.044726900217415e-01 6.318660037128357e-02 1.017514663053919e-01 -5.534734517475290e-03 1.052504133267255e-01 -1.969200578690250e-03
            1.045413248528907e-01 6.321232757857383e-02 -7.796816114677435e-02 4.869144032755116e-01 1.052775054238950e-01 -1.969170133738508e-03 1.016884629842180e-01 -5.466209905276740e-03
523810000.0000000000 1.042337445458817e-01 -2.015454300450626e-02 1.004448247457155e-01 -1.621860752857707e-02 9.401625153070087e-02 4.841992458879636e-01 1.214591014278843e-01 2.393532325378312e-02
            1.004118506086259e-01 -1.630202522319977e-02 1.042086131072572e-01 -2.023093121653310e-02 1.214580068122872e-01 2.400184424309905e-02 9.399086518566153e-02 4.842637362812825e-01
            9.394414909500037e-02 4.842249716973265e-01 1.215151111184379e-01 2.392947129378996e-02 9.400482056598146e-02 -2.178149780019844e-02 9.652472581468975e-02 -1.829394442422106e-02
            1.214678897451348e-01 2.399815743555175e-02 9.397319233958655e-02 4.842615691255759e-01 9.644447598363197e-02 -1.823874901686978e-02 9.403853073090043e-02 -2.173811100950565e-02
524642500.0000000000 8.881281613627637e-02 -2.596068435866292e-02 8.574509902237094e-02 -2.307356502849336e-02 2.557277166507986e-01 4.226315416469140e-01 1.251269272136368e-01 -1.924381492300977e-02
            8.570884009844144e-02 -2.304153345343332e-02 8.882562728919902e-02 -2.601453960021844e-02 1.250825735906620e-01 -1.924475199440830e-02 2.557402388851304e-01 4.226069957542606e-01
            2.556886222418813e-01 4.225457661030198e-01 1.251531824366046e-01 -1.918838317435951e-02 7.696211319110283e-02 -2.865535105789661e-02 7.859911250040540e-02 -2.498642156066734e-02
            1.251776140754225e-01 -1.919665177048505e-02 2.556941852808676e-01 4.226577479528347e-01 7.865569510565482e-02 -2.500769267251843e-02 7.682011018382345e-02 -2.859569633362530e-02
525475000.0000000000 7.318961838923498e-02 -2.005818013619007e-02 7.027556168573572e-02 -1.805457156809448e-02 3.868976294768240e-01 3.077622469364441e-01 1.140663147370519e-01 -6.313781962263543e-02
            7.042251381181866e-02 -1.803388835441021e-02 7.318719842193071e-02 -2.009786127722620e-02 1.140026398698445e-01 -6.313019101475950e-02 3.869884724693686e-01 3.077915627662263e-01
            3.869932918877566e-01 3.078072709817181e-01 1.140036952871465e-01 -6.321055719618907e-02 5.866872814593801e-02 -2.210273600080950e-02 6.000239769345297e-02 -1.820041484641478e-02
            1.140502172263503e-01 -6.309766372601819e-02 3.869260994858778e-01 3.077182110165654e-01 5.999957850846198e-02 -1.817394465099817e-02 5.874729290102892e-02 -2.206382933455786e-02
526307500.0000000000 6.524817384055066e-02 -4.987282981941473e-03 6.260395532642900e-02 -3.826272951555696e-03 4.694532067588855e-01 1.533543390587144e-01 8.690312464256328e-02 -1.025896671044007e-01
            6.266039674382284e-02 -3.808557466238068e-03 6.536910153035301e-02 -4.970969833315117e-03 8.702439871709344e-02 -1.025249847120336e-01 4.694339987114298e-01 1.532838963493997e-01
            4.694607277183371e-01 1.532695458199535e-01 8.695473982948623e-02 -1.025194426770159e-01 4.912036650781035e-02 -4.356334504314708e-03 4.993204925649713e-02 -4.406539166176866e-04
            8.689716508014440e-02 -1.025725493423495e-01 4.694568315698200e-01 1.533241108620774e-01 4.999591556711801e-02 -5.189542247809499e-04 4.914405107109313e-02 -4.401924045862217e-03
527140000.0000000000 6.972248036298447e-02 1.165586323114965e-02 6.701519000772076e-02 1.187032267331029e-02 4.916649053172549e-01 -1.988422627072289e-02 4.524175676510857e-02 -1.304145178417134e-01
            6.702843359486703e-02 1.193587981551849e-02 6.970646390942460e-02 1.167389057596676e-02 4.529028660118645e-02 -1.303446574080517e-01 4.916344377628301e-01 -1.985798533032289e-02
            4.916704413966348e-01 -1.983886334350445e-02 4.525173569994870e-02 -1.303775059217843e-01 5.349794618226178e-02 1.590120830165268e-02 5.355005277998379e-02 1.988375057898960e-02
            4.524108100336174e-02 -1.303334349118072e-01 4.917063568833086e-01 -1.991038744214832e-02 5.345421202619047e-02 1.984041117567991e-02 5.344478133206725e-02 1.583007567681448e-02
527972500.0000000000 8.412880611621808e-02 2.120864147617900e-02 8.118944023220873e-02 2.032111825414370e-02 4.518026285644105e-01 -1.880617597159178e-01 -5.286898310782629e-03 -1.402740353858107e-01
            8.114266925759238e-02 2.032085850515894e-02 8.414594766569797e-02 2.125899136724285e-02 -5.258906693924815e-03 -1.403661844300845e-01 4.518637633600693e-01 -1.881108419405554e-01
            4.519165191279105e-01 -1.881103520450880e-01 -5.293890581486800e-03 -1.402842086344504e-01 7.010542800265181e-02 2.878538758143301e-02 6.911019108343636e-02 3.308028088246111e-02
            -5.251600551154588e-03 -1.403128008787711e-01 4.518720462082279e-01 -1.881007848776996e-01 6.911696771777427e-02 3.310556636117627e-02 7.015598928356809e-02 2.868139513725006e-02
528805000.0000000000 1.013210815907765e-01 1.879832906764238e-02 9.775462951825203e-02 1.677649720985268e-02 3.574689563195469e-01 -3.303665207828442e-01 -5.592884962868663e-02 -1.301239593910231e-01
            9.778024558186722e-02 1.681197170018798e-02 1.012381744520434e-01 1.883338727004921e-02 -5.585996016876047e-02 -1.301708962093003e-01 3.573797966654036e-01 -3.303570754715300e-01
            3.574463367373468e-01 -3.304049672467425e-01 -5.584532748819529e-02 -1.300818279129218e-01 9.088771380932244e-02 2.805842191954340e-02 8.884491524924906e-02 3.349449343123823e-02
            -5.587661850604105e-02 -1.301309155496894e-01 3.574391751578983e-01 -3.303285546808729e-01 8.885362392994924e-02 3.346431317629977e-02 9.092659792464500e-02 2.809300931849571e-02
529637500.0000000000 1.129127450844389e-01 5.669331454391300e-03 1.083345994468466e-01 2.541191271046964e-03 2.218508145269340e-01 -4.311266083617751e-01 -9.860832322485096e-02 -1.025287764587638e-01
            1.083171708529660e-01 2.631763757402123e-03 1.128761450501963e-01 5.741871914963143e-03 -9.860967092829344e-02 -1.024691883659991e-01 2.218629131332833e-01 -4.311653923634196e-01
            2.217923804486982e-01 -4.312597648917970e-01 -9.866862537333122e-02 -1.024877979305867e-01 1.064374080607562e-01 1.468664528065772e-02 1.038255906537364e-01 2.190568775097277e-02
            -9.859904206836470e-02 -1.024831975976738e-01 2.218197475868239e-01 -4.311573672901171e-01 1.037757566417416e-01 2.186757598476548e-02 1.063913273007645e-01 1.471896583793494e-02
530470000.0000000000 1.133716095289946e-01 -1.193947693801357e-02 1.071314473782138e-01 -1.578412115282973e-02 6.080276604969866e-02 -4.802942403734486e-01 -1.286888869169576e-01 -6.260199958458625e-02
            1.070561914912301e-01 -1.579010082461652e-02 1.134216267582622e-01 -1.201153800793985e-02 -1.286703398894882e-01 -6.260114143873001e-02 6.081807238162229e-02 -4.804232030378952e-01
            6.077671838056392e-02 -4.803371385016455e-01 -1.286538210435851e-01 -6.256513667723873e-02 1.099981582325325e-01 -5.140571306159912e-03 1.074712161278034e-01 4.386272791892115e-03
            -1.285968267072180e-01 -6.263517462309091e-02 6.081576342869000e-02 -4.803658211389338e-01 1.074900139537486e-01 4.303506528705685e-03 1.100213546944205e-01 -5.211615165378646e-03
531302500.0000000000 1.024942754478165e-01 -2.600131718745426e-02 9.400434405320456e-02 -2.986912819726151e-02 -1.078868925724143e-01 -4.724284800325617e-01 -1.440036212619319e-01 -1.543662802752491e-02
            9.406871245525718e-02 -2.988554044152068e-02 1.025340312371283e-01 -2.603429223125145e-02 -1.440001076716738e-01 -1.541191248735798e-02 -1.078333704186180e-01 -4.724721014147127e-01
            -1.078668510325883e-01 -4.724194877435990e-01 -1.439191486226733e-01 -1.542684811097752e-02 1.004721492933449e-01 -2.245109185908784e-02 9.912089998821388e-02 -1.076397130578283e-02
            -1.439530461202841e-01 -1.544515993131407e-02 -1.079485312192238e-01 -4.724238617659793e-01 9.919798869255213e-02 -1.068190121198995e-02 1.005405774835279e-01 -2.250495312734506e-02
532135000.0000000000 8.488708565554201e-02 -2.992638496561370e-02 7.418718114418142e-02 -3.290277459421675e-02 -2.649611947279334e-01 -4.067249315382954e-01 -1.435750083538030e-01 3.510403276087420e-02
            7.423411879882691e-02 -3.288764075525648e-02 8.491181166792945e-02 -2.984931774697316e-02 -1.435214879545260e-01 3.503118515630670e-02 -2.649299987249148e-01 -4.066827384851885e-01
            -2.648519325188392e-01 -4.067088770679762e-01 -1.435735623491921e-01 3.500406036469009e-02 8.230902451067806e-02 -2.969050486392851e-02 8.326449500879707e-02 -1.600364796274459e-02
            -1.435514859423229e-01 3.505880580431934e-02 -2.648922526141586e-01 -4.067332659667897e-01 8.328181650154573e-02 -1.602883157916131e-02 8.228037788543052e-02 -2.964077457511442e-02
532967500.0000000000 6.886667103060062e-02 -2.146911755539384e-02 5.637510430784441e-02 -2.264974163783472e-02 -3.901268649319592e-01 -2.893665072184990e-01 -1.259836033956690e-01 8.461850838846281e-02
            5.645289359682466e-02 -2.254736484132383e-02 6.881334709065411e-02 -2.146752035238756e-02 -1.259509189697876e-01 8.464946480570347e-02 -3.901453602865164e-01 -2.894373679330329e-01
            -3.901214858210471e-01 -2.894224383432821e-01 -1.259290401289960e-01 8.452973054399668e-02 6.401796021450715e-02 -2.330405559573012e-02 6.811870661798462e-02 -8.970898869353127e-03
            -1.259679420159094e-01 8.461787771456145e-02 -3.900503777736981e-01 -2.893649889249129e-01 6.814502044749765e-02 -8.970931038497412e-03 6.408658194213876e-02 -2.329779599608695e-02
533800000.0000000000 6.237719374683558e-02 -4.718647965309715e-03 4.905310325652237e-02 -3.050029379025515e-03 -4.657477642970834e-01 -1.348771576069255e-01 -9.055988707799970e-02 1.268637608814266e-01
            4.901345109492696e-02 -3.051025725775272e-03 6.241385661484947e-02 -4.636506236881077e-03 -9.049596056467256e-02 1.269069976697711e-01 -4.658186551453022e-01 -1.348645717612170e-01
            -4.658392228377830e-01 -1.347458363091156e-01 -9.056940025483232e-02 1.268794244297900e-01 5.469122937369896e-02 -6.961813343418290e-03 6.197558684792754e-02 6.957486814713364e-03
            -9.056711955055030e-02 1.268845871466541e-01 -4.658007634292110e-01 -1.348511856781224e-01 6.195519368649451e-02 6.935527353000088e-03 5.475765691349948e-02 -6.943129895496067e-03
534632500.0000000000 6.858240974627997e-02 1.182965433691686e-02 5.565440212852701e-02 1.632200032362629e-02 -4.816879625938549e-01 3.581319672605195e-02 -4.002588247084651e-02 1.542158909776229e-01
            5.565906276084796e-02 1.637307832526703e-02 6.868954939052534e-02 1.181275767830131e-02 -4.000317676910919e-02 1.541833520542465e-01 -4.816091199717746e-01 3.573860770864754e-02
            -4.816517467988818e-01 3.575941347839267e-02 -3.997775512017281e-02 1.542216575882977e-01 5.857801338361081e-02 1.100576360082856e-02 6.857195198190222e-02 2.311725299532033e-02
            -3.994833456623907e-02 1.541981496134735e-01 -4.816513913596150e-01 3.579053656081348e-02 6.856711231762547e-02 2.323040790366699e-02 5.859454136494630e-02 1.095796941100957e-02
535465000.0000000000 8.401957055646640e-02 1.962395179455543e-02 7.269569729335196e-02 2.660935677605444e-02 -4.369848098304427e-01 1.993550067405133e-01 1.842404685487052e-02 1.605891183652131e-01
            7.268531925635174e-02 2.663566078786349e-02 8.399395525912307e-02 1.964863150284005e-02 1.835080689483948e-02 1.605816662252236e-01 -4.369829866454644e-01 1.993232812082514e-01
            -4.369700453949348e-01 1.992837223296944e-01 1.838528019082870e-02 1.605570761468113e-01 7.289189895890162e-02 2.121178053845827e-02 8.473549266791763e-02 3.109075436448911e-02
            1.835694032482225e-02 1.605534612800827e-01 -4.369319661992774e-01 1.992782157591652e-01 8.467653907021895e-02 3.116096305613153e-02 7.287375198128539e-02 2.117284331978974e-02
536297500.0000000000 1.002886072304993e-01 1.506778213802996e-02 9.157328040701072e-02 2.345461245977884e-02 -3.399031072221548e-01 3.357292567449703e-01 7.498145696007091e-02 1.445917443572920e-01
            9.155190108755593e-02 2.342991793504513e-02 1.002018202548346e-01 1.506321599824844e-02 7.494214535761022e-02 1.446088382957232e-01 -3.398450927825802e-01 3.356445050371240e-01
            -3.398878644343128e-01 3.357118339803316e-01 7.496287302433413e-02 1.446875981387656e-01 8.979991853338197e-02 1.903816761496023e-02 1.022662417414276e-01 2.661572412883565e-02
            7.487897612001417e-02 1.444822490568051e-01 -3.398717188457668e-01 3.356850459079974e-01 1.023531474429096e-01 2.664378947366784e-02 8.979527817471489e-02 1.915634564477075e-02
537130000.0000000000 1.091232628346984e-01 9.894738114965150e-04 1.033626088828202e-01 9.202669203233550e-03 -2.035739884948724e-01 4.303301726701780e-01 1.214027053505573e-01 1.097787096495624e-01
            1.033694545928329e-01 9.307325968166380e-03 1.091862785333784e-01 1.029843466965034e-03 1.213496944457918e-01 1.098706303893590e-01 -2.036148373362148e-01 4.303613221857267e-01
            -2.035953897876082e-01 4.302911796915065e-01 1.213328847650812e-01 1.097270466318263e-01 1.005510961489813e-01 6.523800304609422e-03 1.130018805083918e-01 1.197961245090703e-02
            1.213467510483868e-01 1.097451085858877e-01 -2.036437042529601e-01 4.303940895651119e-01 1.130924011465583e-01 1.202751996679569e-02 1.006398085788522e-01 6.458710138812733e-03
537962500.0000000000 1.064281831962059e-01 -1.564962035799171e-02 1.029626549181214e-01 -8.793310014020608e-03 -4.378207118067786e-02 4.735317217868352e-01 1.526866764696453e-01 6.188444932276559e-02
            1.029610156680054e-01 -8.828637150753332e-03 1.064408510817318e-01 -1.560086793638735e-02 1.525992043040786e-01 6.187634196448818e-02 -4.378328094115028e-02 4.735913046299230e-01
            -4.380702325962967e-02 4.735736387899965e-01 1.527034693379594e-01 6.181677500517672e-02 9.998562076493522e-02 -1.004616779108780e-02 1.121124799173730e-01 -5.984375644033339e-03
            1.526445703562798e-01 6.181055861473539e-02 -4.370455664158907e-02 4.735696849238629e-01 1.121002672439826e-01 -6.022458036872869e-03 1.001093183002917e-01 -1.005291798741820e-02
538795000.0000000000 9.303641895249440e-02 -2.655777442575203e-02 9.078044941677137e-02 -2.225832471136459e-02 1.220163439538240e-01 4.600364738444612e-01 1.666238309592451e-01 6.340797532560243e-03
            9.077307216915048e-02 -2.224184048582987e-02 9.297836684920674e-02 -2.652018660881469e-02 1.666796331879454e-01 6.282352599265803e-03 1.220695495224103e-01 4.599317444644188e-01
            1.220341257835730e-01 4.599962571991368e-01 1.667310614680687e-01 6.225425804470135e-03 8.832786248731644e-02 -2.219250706455799e-02 1.001068104755411e-01 -1.897686432250363e-02
            1.667764158530759e-01 6.268989488449706e-03 1.220098356358150e-01 4.600125716857322e-01 1.001291540687593e-01 -1.896958610359612e-02 8.833084800629819e-02 -2.211050515661073e-02
539627500.0000000000 7.511098323636219e-02 -2.593370852190953e-02 7.234888696836106e-02 -2.435503252838223e-02 2.740175145251837e-01 3.896388919278669e-01 1.618871992531740e-01 -5.203279688719619e-02
            7.235592937297874e-02 -2.443819136381862e-02 7.515535445097175e-02 -2.599509385229556e-02 1.619396798557260e-01 -5.195285243499271e-02 2.741018578995378e-01 3.896130097933568e-01
            2.740697632489987e-01 3.895455076840168e-01 1.619633531558479e-01 -5.194396293643511e-02 7.083251571567616e-02 -2.347760044225340e-02 8.300233744994959e-02 -2.104281599083831e-02
            1.620511583367104e-01 -5.197875132390489e-02 2.740546550716201e-01 3.896301802611907e-01 8.290968284137187e-02 -2.094736754416510e-02 7.082247650361645e-02 -2.340660683217039e-02
540460000.0000000000 6.154928555407421e-02 -1.327292354985029e-02 5.685301404184234e-02 -1.366998455951154e-02 3.925134985898804e-01 2.695373443751978e-01 1.370396151553762e-01 -1.073485878288135e-01
            5.688457336437896e-02 -1.369927733308027e-02 6.146519415357566e-02 -1.329696945840948e-02 1.370999500820960e-01 -1.073457944949916e-01 3.924549582258853e-01 2.695217800843130e-01
            3.924480406040352e-01 2.695471130677172e-01 1.369511337443375e-01 -1.073341112969320e-01 5.634924109537235e-02 -1.253328897801106e-02 6.903501875801052e-02 -1.110352304544228e-02
            1.369435704734213e-01 -1.073384527680572e-01 3.924805783179646e-01 2.695816356104745e-01 6.914133178704354e-02 -1.105129078342235e-02 5.642297077125177e-02 -1.242485081215574e-02
541292500.0000000000 5.945170402577515e-02 5.734491904247006e-03 5.199081306189283e-02 4.650336142218773e-03 4.605297018772640e-01 1.153048988997374e-01 9.231828613971640e-02 -1.521728629405928e-01
            5.200230437233595e-02 4.716971292328170e-03 5.944220870977482e-02 5.765008960798011e-03 9.226618611915460e-02 -1.521539075630507e-01 4.605671747900413e-01 1.153208982074329e-01
            4.605205262833689e-01 1.153046104958427e-01 9.231055061789083e-02 -1.521625597263948e-01 5.248377715192830e-02 5.706776113223320e-03 6.598943049092454e-02 5.490846609872283e-03
            9.236371233805166e-02 -1.521826904824141e-01 4.605164485413992e-01 1.153000361604904e-01 6.596539951683779e-02 5.494705984102771e-03 5.242726885726919e-02 5.766565184199460e-03
542125000.0000000000 7.061450080358833e-02 2.161271038571235e-02 6.032030471352078e-02 2.165385313616052e-02 4.693713488767283e-01 -5.187136806555092e-02 3.247728995699495e-02 -1.780402705448551e-01
            6.027143308288130e-02 2.164180949078057e-02 7.061190167338871e-02 2.160272372518417e-02 3.248209183987984e-02 -1.781068076484466e-01 4.694432549188408e-01 -5.178645321618135e-02
            4.693439076674826e-01 -5.183181053917482e-02 3.245549191244470e-02 -1.781037827868434e-01 6.136476493168392e-02 2.224492582223208e-02 7.528760207915304e-02 1.967366279289665e-02
            3.246126630346085e-02 -1.780931984647393e-01 4.693675774382555e-01 -5.176992369406980e-02 7.530826800246372e-02 1.975072720974751e-02 6.131404489385944e-02 2.227839191785043e-02
542957500.0000000000 8.934743391096338e-02 2.653007001222520e-02 7.690404060592433e-02 2.913057528004585e-02 4.198760959762530e-01 -2.095209814128859e-01 -3.361936797533353e-02 -1.797267957857394e-01
            7.690699953973532e-02 2.910086922226461e-02 8.937835970186908e-02 2.654350318070576e-02 -3.350981741804272e-02 -1.797500739431361e-01 4.199904330717993e-01 -2.094210407794388e-01
            4.199350123414121e-01 -2.094566059133497e-01 -3.357603980263641e-02 -1.796555494265514e-01 7.862049935304787e-02 2.896738065286833e-02 9.194427129888770e-02 2.354820893580456e-02
            -3.360952236917376e-02 -1.797229063097740e-01 4.199198058119126e-01 -2.094347286931574e-01 9.196891479225335e-02 2.358699975193336e-02 7.863012118498258e-02 2.899790689787702e-02
543790000.0000000000 1.069117341220741e-01 1.829242935149403e-02 9.370775665740848e-02 2.418879060276188e-02 3.207957401225622e-01 -3.390977384558140e-01 -9.527392559889047e-02 -1.571407531168626e-01
            9.374951901397881e-02 2.416895326335229e-02 1.069207686433523e-01 1.826408223588031e-02 -9.533562682959509e-02 -1.571474111991136e-01 3.208324307773509e-01 -3.390206804539141e-01
            3.207100713316495e-01 -3.391508419027889e-01 -9.529418421029158e-02 -1.571208801999386e-01 9.569257084440727e-02 2.322448464059585e-02 1.073437584955549e-01 1.509966920517838e-02
            -9.527139967058748e-02 -1.570735731752439e-01 3.208234938298273e-01 -3.391337971738227e-01 1.073309820469509e-01 1.507230446085494e-02 9.566899544752344e-02 2.324196167617594e-02
544622500.0000000000 1.150239768437823e-01 7.992552099606630e-04 1.028595444744666e-01 1.023007231615676e-02 1.848798704316790e-01 -4.271798645990713e-01 -1.444267994752473e-01 -1.146749072990743e-01
            1.027799993061033e-01 1.019290967656509e-02 1.149697138963824e-01 7.882742772655491e-04 -1.443760538621297e-01 -1.146529944611207e-01 1.847837452305014e-01 -4.271357274404531e-01
            1.848102800074568e-01 -4.271300120635231e-01 -1.443914498585293e-01 -1.146177538391086e-01 1.046393651119482e-01 8.329314700507387e-03 1.137282797171166e-01 -1.870804272843624e-03
            -1.443753693900777e-01 -1.146547933933554e-01 1.848828160021325e-01 -4.271119268888471e-01 1.137038184503292e-01 -1.878641757779833e-03 1.047335754500947e-01 8.297839352279452e-03
545455000.0000000000 1.102151987461852e-01 -1.787622046056437e-02 1.004399211819840e-01 -5.736068518849459e-03 2.719161507844991e-02 -4.642979639105404e-01 -1.760364298388315e-01 -5.878874089123542e-02
            1.004942584335348e-01 -5.724929494184411e-03 1.101504469664954e-01 -1.780122618319444e-02 -1.760858549561468e-01 -5.879881059304560e-02 2.720836934849584e-02 -4.643901402971672e-01
            2.713623849648637e-02 -4.644239655565747e-01 -1.761781658483335e-01 -5.883379330900938e-02 1.017795112089687e-01 -8.453287206313364e-03 1.075826692337213e-01 -1.958982584534315e-02
            -1.760936753899444e-01 -5.875322579272537e-02 2.711878345489411e-02 -4.643879831593292e-01 1.075071462641774e-01 -1.949193126130366e-02 1.017214074712713e-01 -8.391632223867688e-03
546287500.0000000000 9.460542083037490e-02 -2.916372588792580e-02 8.809020985299548e-02 -1.566424112616148e-02 -1.346464914842885e-01 -4.456661160595838e-01 -1.879768893719440e-01 4.603849427518232e-03
            8.816380878645935e-02 -1.559927116092679e-02 9.461437787980555e-02 -2.904757048664838e-02 -1.879783455800393e-01 4.558632969179547e-03 -1.345768516313361e-01 -4.456369745266812e-01
            -1.346874170091791e-01 -4.456417479736552e-01 -1.880049630375409e-01 4.613635854103518e-03 8.859287808149462e-02 -1.886568507285605e-02 9.099937435615386e-02 -2.967236291721870e-02
            -1.879204149276326e-01 4.616728330848115e-03 -1.346695056651778e-01 -4.455928627678707e-01 9.112770988214750e-02 -2.967214389703254e-02 8.858595012762531e-02 -1.882001883960473e-02
547120000.0000000000 7.526638784555947e-02 -2.770470989826402e-02 7.212452452783828e-02 -1.440552356507468e-02 -2.811670968784992e-01 -3.713610111207030e-01 -1.782776622335492e-01 6.987134983953169e-02
            7.219054635484319e-02 -1.431109986393025e-02 7.532802424852256e-02 -2.768763523040265e-02 -1.783365056328275e-01 6.987159499350747e-02 -2.812414678621096e-01 -3.713164626286089e-01
            -2.811249637856795e-01 -3.713361295408283e-01 -1.782566345059621e-01 6.991784554165859e-02 7.159179309725179e-02 -1.755477495317490e-02 7.147641657669593e-02 -2.708581057336570e-02
            -1.783099470502677e-01 6.995091927459560e-02 -2.812894674847992e-01 -3.714523986972276e-01 7.143531756425091e-02 -2.710284854814641e-02 7.167786405146133e-02 -1.759000470774959e-02
547952500.0000000000 6.169557001915667e-02 -1.406186804877087e-02 6.115871462384612e-02 -2.001613769357588e-03 -3.925879079704122e-01 -2.496483330692253e-01 -1.458937792853214e-01 1.301823453100195e-01
            6.121788207286859e-02 -2.042242048065100e-03 6.163944330966950e-02 -1.415125302522935e-02 -1.459365046959970e-01 1.301892682473667e-01 -3.926031874797766e-01 -2.495948050424790e-01
            -3.925617742634923e-01 -2.496965093129268e-01 -1.458637924353935e-01 1.301270601019194e-01 5.983116716094295e-02 -4.775239788880069e-03 5.784291313318878e-02 -1.226547131523656e-02
            -1.459104517463468e-01 1.302050925608120e-01 -3.925022531992331e-01 -2.497211802953869e-01 5.786071432444471e-02 -1.229630701629305e-02 5.984613588192959e-02 -4.828955802302166e-03
548785000.0000000000 6.038489817506926e-02 4.950826302616829e-03 6.165374280600652e-02 1.510299378447732e-02 -4.532009868355331e-01 -9.656294792351647e-02 -9.232306112858785e-02 1.766414683226437e-01
            6.164613587835249e-02 1.510373287559451e-02 6.043383361624684e-02 4.880064829896234e-03 -9.224105607030159e-02 1.765858652680979e-01 -4.530771741110517e-01 -9.649672112703946e-02
            -4.530895867994695e-01 -9.654562660659212e-02 -9.224375932129318e-02 1.765986080059112e-01 5.970282084801482e-02 1.302895887494631e-02 5.700350051548215e-02 7.838749057472104e-03
            -9.222746404719492e-02 1.766026815753458e-01 -4.531611583792775e-01 -9.649762349980005e-02 5.695932457237104e-02 7.861873317802815e-03 5.977840905674466e-02 1.308227810073262e-02
549617500.0000000000 7.200503255653747e-02 1.962486528261113e-02 7.379811074140720e-02 2.794837414745759e-02 -4.555682929799326e-01 6.633500956464253e-02 -2.351171370056889e-02 2.004501033191189e-01
            7.380286716831898e-02 2.795483796548491e-02 7.192813691474288e-02 1.963031502406471e-02 -2.353980451265941e-02 2.004543591425401e-01 -4.556203057094199e-01 6.643322975655877e-02
            -4.555808106312987e-01 6.643641300118293e-02 -2.367083531741632e-02 2.005191905734511e-01 7.177536401461125e-02 2.658443463032579e-02 6.925932335535667e-02 2.335696180302545e-02
            -2.360909568958738e-02 2.005603071494006e-01 -4.556407622593335e-01 6.641427404639177e-02 6.921974293261632e-02 2.344224700759655e-02 7.176876952134253e-02 2.654855186205886e-02
550450000.0000000000 8.979546317189699e-02 2.287268394591848e-02 9.179915591385646e-02 2.967633987263722e-02 -4.020868336293181e-01 2.179901927149731e-01 4.945853944508224e-02 1.972192448328386e-01
            9.168254977404783e-02 2.967247303490801e-02 8.985398154560834e-02 2.285951938346443e-02 4.953963535585382e-02 1.972011163722357e-01 -4.020998093814662e-01 2.180178499417614e-01
            -4.021429892046791e-01 2.179771607727860e-01 4.945580656226808e-02 1.972571964889726e-01 8.995093717739171e-02 2.905223769768609e-02 8.827816995045838e-02 2.726929887932091e-02
            4.950384469468119e-02 1.972723366911858e-01 -4.021662735694859e-01 2.179898177508703e-01 8.829315685687482e-02 2.727128348319214e-02 8.992430260982712e-02 2.908325375840847e-02
551282500.0000000000 1.051318255313480e-01 1.347304477781306e-02 1.068279103945921e-01 1.959048762799986e-02 -3.015661266420309e-01 3.409220982615233e-01 1.158032137998329e-01 1.678592997528432e-01
            1.067782384869087e-01 1.952497912514440e-02 1.052237097678090e-01 1.348641550358647e-02 1.158393775228959e-01 1.678801530459850e-01 -3.015332602737110e-01 3.408316529251584e-01
            -3.015483789157734e-01 3.408191625124495e-01 1.158832218460517e-01 1.678506456716549e-01 1.053438594612755e-01 1.934448343447306e-02 1.048084256669747e-01 1.823760058144282e-02
            1.158367176764738e-01 1.678636293452657e-01 -3.015097883477773e-01 3.409232759753245e-01 1.048579243112987e-01 1.814753130182823e-02 1.053683897682045e-01 1.927890402237174e-02
552115000.0000000000 1.104412845934044e-01 -3.705361053506317e-03 1.121105412836524e-01 2.229874587911998e-03 -1.663564336769957e-01 4.223656679903146e-01 1.670725277060386e-01 1.179230512314511e-01
            1.120009652444078e-01 2.173494411940612e-03 1.103868805499243e-01 -3.684438018944583e-03 1.671338189043116e-01 1.180045770339742e-01 -1.663323042737988e-01 4.223928725511864e-01
            -1.663366743511901e-01 4.223599711361490e-01 1.671118682446460e-01 1.179144463567445e-01 1.109774928035058e-01 2.207605909151758e-03 1.115768770002602e-01 9.339969865289321e-04
            1.671198860123685e-01 1.179122400838331e-01 -1.663526467512594e-01 4.223826859415381e-01 1.114651971049933e-01 1.050828273329347e-03 1.109483618935767e-01 2.219965203111181e-03
552947500.0000000000 1.029862411222197e-01 -2.019187979747555e-02 1.050473342018508e-01 -1.460860461207096e-02 -1.132474134951370e-02 4.537361061761939e-01 1.986599897159073e-01 5.426196744569532e-02
            1.051918163066104e-01 -1.463148654693237e-02 1.030116357775223e-01 -2.023933569725584e-02 1.986602258252947e-01 5.432228411210303e-02 -1.142547140835919e-02 4.536921716962877e-01
            -1.135843271614583e-02 4.537128831369186e-01 1.986027145387563e-01 5.427160360070109e-02 1.043029528778446e-01 -1.443324989785480e-02 1.056750673889359e-01 -1.610409623764818e-02
            1.986576135631978e-01 5.434269481392745e-02 -1.138818088714462e-02 4.537328694462472e-01 1.056853838342300e-01 -1.613381352628326e-02 1.043425533595943e-01 -1.444335786600718e-02
553780000.0000000000 8.605951337772133e-02 -2.823992729131246e-02 8.906639132536372e-02 -2.310239127656269e-02 1.461252157522370e-01 4.300837050417364e-01 2.077577184984007e-01 -1.656047849954362e-02
            8.905721594451547e-02 -2.300040404045259e-02 8.604717494987406e-02 -2.833736353524250e-02 2.077989920193880e-01 -1.659046796311633e-02 1.461331105629934e-01 4.301711318275827e-01
            1.462192720343312e-01 4.301461597111039e-01 2.077805709129810e-01 -1.664843587396578e-02 8.861390613429602e-02 -2.276370359959337e-02 9.028895421968075e-02 -2.528536820091576e-02
            2.078176531605906e-01 -1.662149633268040e-02 1.461671053671654e-01 4.301096402030555e-01 9.022219235416259e-02 -2.531044924369823e-02 8.867006382301017e-02 -2.268823430805682e-02
554612500.0000000000 6.729223968372712e-02 -2.309754571676865e-02 7.125881871424751e-02 -1.895498346959698e-02 2.866954637837341e-01 3.524583971747925e-01 1.927915318411390e-01 -8.825529667275082e-02
            7.129137489053602e-02 -1.910099834460983e-02 6.728901948741978e-02 -2.314077792439831e-02 1.928291935731107e-01 -8.832312653892035e-02 2.867193268943173e-01 3.524577497314775e-01
            2.867714484263133e-01 3.524341259794148e-01 1.928189894638122e-01 -8.841558382333947e-02 7.145132240230331e-02 -1.848461019156643e-02 7.279989073920072e-02 -2.195699667612211e-02
            1.927724344392667e-01 -8.839162050904278e-02 2.866911498285503e-01 3.525017697454042e-01 7.270587552858394e-02 -2.204818489045041e-02 7.140419571973984e-02 -1.845289268910473e-02
555445000.0000000000 5.600811436547397e-02 -6.541607240716230e-03 6.062139091835066e-02 -3.953845944692035e-03 3.909605541854143e-01 2.296198881652164e-01 1.528376690824688e-01 -1.527361985408578e-01
            6.056928682553328e-02 -3.930857919607201e-03 5.598425850648069e-02 -6.654335345969166e-03 1.529032051444469e-01 -1.528391133958159e-01 3.908869879597254e-01 2.295806783461338e-01
            3.909187573217388e-01 2.296125779237912e-01 1.528421741792221e-01 -1.527799079909619e-01 6.137707694579254e-02 -3.626759103216013e-03 6.205950597948372e-02 -7.793988318828898e-03
            1.528395885407786e-01 -1.527629184456563e-01 3.910198031166166e-01 2.296406322388803e-01 6.204916468727529e-02 -7.903098837236340e-03 6.137708667452399e-02 -3.582762103383536e-03
556277500.0000000000 5.806463885406176e-02 1.350907149680063e-02 6.274423774078268e-02 1.438408865100068e-02 4.441645995377694e-01 7.844319653285056e-02 9.053478899301005e-02 -2.000754092088336e-01
            6.274370110597531e-02 1.437170406405660e-02 5.802569645400552e-02 1.356685436565168e-02 9.052055782159475e-02 -2.001305443862404e-01 4.441227926689498e-01 7.845174034891096e-02
            4.442034517137438e-01 7.844900568264741e-02 9.047799668194645e-02 -2.000657229327415e-01 6.428747444686421e-02 1.422480250881318e-02 6.379497362959219e-02 9.680949239882887e-03
            9.060808342846406e-02 -2.000408880698344e-01 4.442131593069918e-01 7.844240452026585e-02 6.384734497648227e-02 9.649115446655428e-03 6.421218711853778e-02 1.418608545806211e-02
557110000.0000000000 7.238156027866910e-02 2.765674273056177e-02 7.641960231463095e-02 2.679891665133329e-02 4.407204770199346e-01 -7.980902067289442e-02 1.369830323353332e-02 -2.214668048638291e-01
            7.643954985862662e-02 2.666237573938638e-02 7.234319276696162e-02 2.765900043672534e-02 1.376954464631418e-02 -2.215407568435934e-01 4.408014221280372e-01 -7.989630964881293e-02
            4.408205995961085e-01 -7.987853805449180e-02 1.376869658314915e-02 -2.215095674935344e-01 7.855989906407899e-02 2.563057039996045e-02 7.689528711118332e-02 2.127986322146068e-02
            1.374414384046870e-02 -2.214566743262371e-01 4.407716518103219e-01 -7.988898897937288e-02 7.691520277485903e-02 2.125187523040701e-02 7.857294377150960e-02 2.564388755570208e-02
557942500.0000000000 9.192902961607578e-02 2.919692468697413e-02 9.490854557628473e-02 2.708000541932450e-02 3.837605466117658e-01 -2.252367505552719e-01 -6.569743465870405e-02 -2.131787077380305e-01
            9.487684049482403e-02 2.699608398410116e-02 9.199096073557229e-02 2.922383635877066e-02 -6.573409720621794e-02 -2.132426316066690e-01 3.838047241282135e-01 -2.252058800524558e-01
            3.837661916354374e-01 -2.252479786231263e-01 -6.567633533044134e-02 -2.131921719006571e-01 9.703065899618828e-02 2.464838336532554e-02 9.429627934591663e-02 2.105996190705447e-02
            -6.570336466838232e-02 -2.131130964214680e-01 3.837227129467943e-01 -2.252297972534342e-01 9.428913301520722e-02 2.103456438576828e-02 9.705132467854712e-02 2.467767444435160e-02
558775000.0000000000 1.074913305243999e-01 1.848579112538114e-02 1.091055461548500e-01 1.558538938493527e-02 2.820992475824933e-01 -3.412596254955313e-01 -1.361732864505985e-01 -1.772570487719386e-01
            1.091125409201299e-01 1.550599999276683e-02 1.074253920097853e-01 1.851679076853869e-02 -1.362048169040758e-01 -1.772432007361031e-01 2.820838535306366e-01 -3.411869667141579e-01
            2.821450921111865e-01 -3.412220457679372e-01 -1.361752319238524e-01 -1.772144637838298e-01 1.107362750566205e-01 1.178681692129706e-02 1.072901860559202e-01 9.301594731198909e-03
            -1.362353305120390e-01 -1.772089070128126e-01 2.821963850314383e-01 -3.412783770922589e-01 1.073170039907668e-01 9.212680050621166e-03 1.106448867426843e-01 1.180829106266469e-02
559607500.0000000000 1.122749793959809e-01 8.319980165033319e-04 1.127292593481693e-01 -2.234262521559468e-03 1.480925887454592e-01 -4.161997330497371e-01 -1.893059334471518e-01 -1.199781891353250e-01
            1.128183436528786e-01 -2.192710144038208e-03 1.123495532492125e-01 8.510401758059290e-04 -1.893428334942181e-01 -1.199117032404095e-01 1.481900889716334e-01 -4.163347098894905e-01
            1.481253733890245e-01 -4.162489519626846e-01 -1.893664371924585e-01 -1.199420648042952e-01 1.128909380331409e-01 -7.135465322385753e-03 1.095517139216597e-01 -8.222571627949943e-03
            -1.893129276545876e-01 -1.199582829525787e-01 1.480563816069307e-01 -4.162334151615641e-01 1.095614233890425e-01 -8.330442306138965e-03 1.128420521339887e-01 -7.104529538104806e-03
560440000.0000000000 1.047091038206929e-01 -1.532611813622193e-02 1.043572958536398e-01 -1.811822963521938e-02 -3.874016278651368e-03 -4.419291532857159e-01 -2.203287670116173e-01 -4.865754189031971e-02
            1.044220540409505e-01 -1.821739610965686e-02 1.047721273513598e-01 -1.531566217308358e-02 -2.203015459114671e-01 -4.876875097175197e-02 -3.805055411050251e-03 -4.418622720765567e-01
            -3.909707992717035e-03 -4.418451471448291e-01 -2.203329707534863e-01 -4.868457858878841e-02 1.024478355752604e-01 -2.338983597013674e-02 9.990367830008809e-02 -2.336761850960685e-02
            -2.203783912708104e-01 -4.862991590006697e-02 -3.855296463730687e-03 -4.418394701034830e-01 9.977206356251614e-02 -2.335697110648555e-02 1.024784591106771e-01 -2.344846037619444e-02
561272500.0000000000 8.867391684241428e-02 -2.214838060867238e-02 8.789365408267198e-02 -2.486668180303980e-02 -1.566086284152027e-01 -4.135719215074034e-01 -2.264945353486971e-01 2.951525684469434e-02
            8.789132739125982e-02 -2.497468843497348e-02 8.863520978068491e-02 -2.218923133146395e-02 -2.264425466321229e-01 2.943887104470260e-02 -1.565638293965998e-01 -4.135538414157616e-01
            -1.566873707528871e-01 -4.135896763553145e-01 -2.264370909043562e-01 2.948390975541320e-02 8.387826798080632e-02 -2.947185994669911e-02 8.233242498470501e-02 -2.889297899669699e-02
            -2.264592169081600e-01 2.953543581437819e-02 -1.566568562670867e-01 -4.136016786935668e-01 8.230318875024685e-02 -2.878243722219976e-02 8.385351507962675e-02 -2.957542472908424e-02
562105000.0000000000 7.200707004643951e-02 -1.641260636105487e-02 7.115321292186971e-02 -1.930001262224987e-02 -2.907496271665866e-01 -3.329584941504299e-01 -2.058551064393918e-01 1.071506736078167e-01
            7.109883752676698e-02 -1.921757440951722e-02 7.212784735147071e-02 -1.644324030385596e-02 -2.059131489383685e-01 1.071976455557082e-01 -2.907435968544738e-01 -3.329238319374887e-01
            -2.907539970295758e-01 -3.329798066653745e-01 -2.058916921456379e-01 1.072787497851389e-01 6.537354576112886e-02 -2.208961493378491e-02 6.525261252459896e-02 -2.139596313196194e-02
            -2.058802376497734e-01 1.072442692361062e-01 -2.908742062231822e-01 -3.329764987861552e-01 6.523219053870732e-02 -2.150804411377211e-02 6.532630224833635e-02 -2.212678644520768e-02
562937500.0000000000 6.363119500368153e-02 -8.031930566282718e-04 6.238979349163058e-02 -4.226845370302613e-03 -3.875913522176869e-01 -2.097511060434591e-01 -1.583173600037996e-01 1.752590094026922e-01
            6.243019412358119e-02 -4.169910481770025e-03 6.351271726927357e-02 -7.257323156957713e-04 -1.582026091752820e-01 1.751792912602042e-01 -3.875931248434336e-01 -2.097236081139799e-01
            -3.875515133829105e-01 -2.097113053998451e-01 -1.582339936254750e-01 1.750987577812751e-01 5.603126061530966e-02 -4.378933414639282e-03 5.714186589529566e-02 -4.565562311931420e-03
            -1.582701668873387e-01 1.751558667730153e-01 -3.875446350600351e-01 -2.096998113213950e-01 5.713955474301398e-02 -4.676746470254611e-03 5.601560310972832e-02 -4.344302877818076e-03
563770000.0000000000 6.790510544187080e-02 1.675142701503335e-02 6.626717709384353e-02 1.276001062032121e-02 -4.337899101417459e-01 -6.105021639875267e-02 -8.749728385723751e-02 2.227417535730443e-01
            6.622021726233887e-02 1.278349306858603e-02 6.790260600023573e-02 1.675714108717107e-02 -8.745478838994124e-02 2.226454854997971e-01 -4.338429338270030e-01 -6.097499179658098e-02
            -4.338159058139693e-01 -6.097593894895163e-02 -8.745040422708941e-02 2.226734410080783e-01 6.061892749253697e-02 1.507715800398299e-02 6.218885983523624e-02 1.331091955889236e-02
            -8.748304934205729e-02 2.227659751534590e-01 -4.338161197525499e-01 -6.102765025753518e-02 6.210332362789778e-02 1.333369375055334e-02 6.057336990257562e-02 1.491773809139825e-02
564602500.0000000000 8.305602334889679e-02 2.692363716579076e-02 8.024498512997118e-02 2.249336525046954e-02 -4.250396562941925e-01 9.230432436699230e-02 -3.095020830879779e-03 2.412743331336317e-01
            8.024677999130918e-02 2.259325584083307e-02 8.297434204792520e-02 2.693449942296414e-02 -3.086658713320005e-03 2.412622451484196e-01 -4.250123092263258e-01 9.227363112277363e-02
            -4.249668693510875e-01 9.235274062580258e-02 -3.065512729784596e-03 2.413290811346925e-01 7.639105664136181e-02 2.636814335037389e-02 7.775241588077883e-02 2.314574481349160e-02
            -3.110250473851646e-03 2.413596625325879e-01 -4.250551787177733e-01 9.233983614593472e-02 7.780421528583635e-02 2.320530552750875e-02 7.639041807504730e-02 2.633441635406503e-02
565435000.0000000000 1.010382116605836e-01 2.480327746610110e-02 9.692833492323716e-02 2.053085683068713e-02 -3.649171039366043e-01 2.310926806446873e-01 8.235059103083463e-02 2.278015985960794e-01
            9.693726418983897e-02 2.043904596888024e-02 1.011068414106662e-01 2.486959465313491e-02 8.233568593086900e-02 2.278928725966179e-01 -3.648985079381702e-01 2.312328613925138e-01
            -3.649023880129503e-01 2.311490382373958e-01 8.226525507785788e-02 2.278996122460417e-01 9.533133445748568e-02 2.472528866721406e-02 9.567681251476801e-02 2.025253395196303e-02
            8.223903820801209e-02 2.278472240919300e-01 -3.649063915807241e-01 2.312174543056915e-01 9.568012757100101e-02 2.029256624408948e-02 9.538583608520722e-02 2.470825036634254e-02
566267500.0000000000 1.135788577671067e-01 1.161115765512897e-02 1.082040233519860e-01 7.996346296975329e-03 -2.626370990630308e-01 3.405641160633485e-01 1.565809606520165e-01 1.854569689497678e-01
            1.081509081897372e-01 7.986584404212238e-03 1.135169637756516e-01 1.161827949562129e-02 1.565634249454232e-01 1.853818422705163e-01 -2.626458089291102e-01 3.404714841889444e-01
            -2.626010264338511e-01 3.405555107007765e-01 1.565565083552150e-01 1.854758301780087e-01 1.084343258828769e-01 1.150502467582597e-02 1.073131472072084e-01 6.400377106868589e-03
            1.565499445577591e-01 1.854710706387207e-01 -2.625761691803870e-01 3.405210385854446e-01 1.072955649903481e-01 6.385154511189997e-03 1.085258125631025e-01 1.150210185171551e-02
567100000.0000000000 1.147472298591642e-01 -6.304874906637750e-03 1.085401720266740e-01 -8.774465206105213e-03 -1.299301240377535e-01 4.090526974600321e-01 2.113158050965010e-01 1.208656539576492e-01
            1.085624450253996e-01 -8.760206691736164e-03 1.147592105020630e-01 -6.389368025122769e-03 2.113536232008490e-01 1.209106325781579e-01 -1.299342682137643e-01 4.090780828674541e-01
            -1.299632490211700e-01 4.090587280703595e-01 2.113326625051808e-01 1.209183563071274e-01 1.098250302397649e-01 -6.841611246476949e-03 1.070144450082025e-01 -1.173589077268049e-02
            2.113275563946274e-01 1.208556588021318e-01 -1.299558138302608e-01 4.090185182019045e-01 1.070520986758582e-01 -1.179417641360537e-02 1.098996413019919e-01 -6.812172129436149e-03
567932500.0000000000 1.042883249756771e-01 -2.100901003488661e-02 9.798091646235027e-02 -2.180152382711551e-02 1.877332578219710e-02 4.288651099350478e-01 2.415620267683389e-01 4.207714037968406e-02
            9.797476573810993e-02 -2.186455422592776e-02 1.042467732441070e-01 -2.089276816062452e-02 2.415701473100200e-01 4.200350298008180e-02 1.874923320986883e-02 4.288177651231834e-01
            1.885667521026704e-02 4.288583803091577e-01 2.415853217443476e-01 4.207727110597769e-02 9.898057938876405e-02 -2.154453327890602e-02 9.501334100738082e-02 -2.582094287051536e-02
            2.415513166213180e-01 4.203023756367173e-02 1.875866884345410e-02 4.288106050662694e-01 9.493233324594380e-02 -2.574684603637777e-02 9.895126714793670e-02 -2.154176077483167e-02
568765000.0000000000 8.690042517260664e-02 -2.524404247208093e-02 8.132601748926899e-02 -2.476074800383098e-02 1.663384834534076e-01 3.958413474225119e-01 2.443586207590308e-01 -4.339453235813484e-02
            8.137804648567891e-02 -2.480359483114753e-02 8.691504408400852e-02 -2.529108093388560e-02 2.443203135846288e-01 -4.342915194851280e-02 1.663600432338591e-01 3.958240415896563e-01
            1.664016365231900e-01 3.959149967006267e-01 2.443973785615817e-01 -4.337981818264181e-02 8.100766899685871e-02 -2.550138000699827e-02 7.637323124895758e-02 -2.878429685670306e-02
            2.443281506575581e-01 -4.334818954207748e-02 1.663958878880936e-01 3.958895724191868e-01 7.628294308490587e-02 -2.866504491825854e-02 8.099776183686133e-02 -2.549341314444234e-02
569597500.0000000000 7.099996253409545e-02 -1.710511271214104e-02 6.674135012601630e-02 -1.588520931418392e-02 2.935834486619501e-01 3.124743966734502e-01 2.176238636316707e-01 -1.268570306811591e-01
            6.680114330360901e-02 -1.589078500772775e-02 7.093036537327840e-02 -1.710678318244244e-02 2.176290890337647e-01 -1.268565679159526e-01 2.936703608313345e-01 3.125413898732142e-01
            2.935840182191216e-01 3.125628051944639e-01 2.176842666714929e-01 -1.268347996487973e-01 6.475618574470421e-02 -1.635545961666824e-02 5.987282220660901e-02 -1.881937911542733e-02
            2.176551103212765e-01 -1.267707396168973e-01 2.935911126108378e-01 3.125576669698890e-01 5.992560477378208e-02 -1.890391521836191e-02 6.471377723230923e-02 -1.638954445824948e-02
570430000.0000000000 6.460001831584065e-02 -4.926473957477938e-04 6.204209303761794e-02 4.872774631624827e-04 3.826841877128211e-01 1.893903400088435e-01 1.620411263506520e-01 -1.977085320263368e-01
            6.200212931851454e-02 4.059230612750690e-04 6.453965565867135e-02 -4.936150656244397e-04 1.620542283984411e-01 -1.977302143301782e-01 3.826878253123872e-01 1.893850842346279e-01
            3.826476491346147e-01 1.893594439349385e-01 1.619737361912081e-01 -1.977553656139195e-01 5.872263999137477e-02 1.474839224843941e-03 5.379151727013409e-02 -5.021058546276130e-04
            1.619768828279312e-01 -1.977300323462224e-01 3.827496487557768e-01 1.893743115005890e-01 5.378126068453444e-02 -4.527910459228801e-04 5.858603821642385e-02 1.428967502580997e-03
571262500.0000000000 7.095472172589540e-02 1.595723063159543e-02 6.957021280490765e-02 1.580774224174051e-02 4.218989969885832e-01 4.395289003331832e-02 8.289121179700143e-02 -2.448540886143130e-01
            6.963639823561359e-02 1.586391748154121e-02 7.087258707882099e-02 1.593550139656184e-02 8.278706642350203e-02 -2.448686421138836e-01 4.218144713144664e-01 4.405977025419910e-02
            4.218047057190883e-01 4.401312050664950e-02 8.280736618795805e-02 -2.448628275003040e-01 6.615928854622007e-02 1.906821249991194e-02 6.112081700766648e-02 1.727187810582523e-02
            8.287204786732567e-02 -2.448878990158566e-01 4.218080959480001e-01 4.398835181072581e-02 6.116751355189289e-02 1.733925639651927e-02 6.608167311200794e-02 1.906682225472750e-02
572095000.0000000000 8.644058413149582e-02 2.392416071055327e-02 8.577240561722231e-02 2.218112865825168e-02 4.078338373533355e-01 -1.036691027194932e-01 -8.890888759601846e-03 -2.599410114354423e-01
            8.574944077920510e-02 2.219217120045170e-02 8.647518510322709e-02 2.393402058344807e-02 -8.878878894204792e-03 -2.599967114271594e-01 4.077728104662403e-01 -1.036790881438596e-01
            4.078705552052070e-01 -1.036240736535990e-01 -8.944415054572080e-03 -2.599493917420899e-01 8.338130308142121e-02 2.757509471779773e-02 7.792604562926318e-02 2.578260009665946e-02
            -8.915864451665596e-03 -2.599314198533711e-01 4.078400550552265e-01 -1.036811887695005e-01 7.791818052861967e-02 2.574211350894610e-02 8.346483971187357e-02 2.750696974674553e-02
572927500.0000000000 1.032018285740992e-01 1.959802897990989e-02 1.022398039142434e-01 1.591677893517841e-02 3.451956369649575e-01 -2.357103700353421e-01 -9.962704115094576e-02 -2.409387941625882e-01
            1.022865826732381e-01 1.593572998959927e-02 1.032812018294455e-01 1.962947564268865e-02 -9.957699261663183e-02 -2.408924805906514e-01 3.451623863692095e-01 -2.356910003162691e-01
            3.452568011303957e-01 -2.356629101221013e-01 -9.953714747838883e-02 -2.409623523568208e-01 1.020906528497700e-01 2.283092862626377e-02 9.570019888397931e-02 2.137270818920042e-02
            -9.960201776943343e-02 -2.409968445576351e-01 3.451728582128419e-01 -2.356565451194692e-01 9.572188779553471e-02 2.141022120612351e-02 1.021174743646229e-01 2.276585612429136e-02
573760000.0000000000 1.130154930207748e-01 5.525640995548239e-03 1.108965874655110e-01 2.735485773233217e-04 2.427706702123870e-01 -3.380460842995703e-01 -1.770526914125474e-01 -1.918308108825030e-01
            1.109612012432792e-01 1.963366124187747e-04 1.129675291308760e-01 5.570791846172238e-03 -1.770336561067926e-01 -1.919289564857154e-01 2.428066516234434e-01 -3.380306256925323e-01
            2.428392208892642e-01 -3.380049284699391e-01 -1.769992882726650e-01 -1.918741627830768e-01 1.135989524513988e-01 7.347109243804574e-03 1.061318190853355e-01 6.889603540763152e-03
            -1.770735719751489e-01 -1.919099097844139e-01 2.427888195933224e-01 -3.380615379351832e-01 1.061563112642298e-01 6.922583149296525e-03 1.135792129097574e-01 7.293408285407345e-03
574592500.0000000000 1.114414628554203e-01 -1.166900925634369e-02 1.076266153090739e-01 -1.786972949121764e-02 1.121331083691817e-01 -4.001393283650285e-01 -2.328609063705568e-01 -1.201520173250741e-01
            1.075718358376220e-01 -1.794405384137185e-02 1.114536440366330e-01 -1.168601705293209e-02 -2.327005468592794e-01 -1.201650664143722e-01 1.122130596767255e-01 -4.001338209976921e-01
            1.121575599577097e-01 -4.001633702634687e-01 -2.327391987262846e-01 -1.201744167160229e-01 1.128869747185395e-01 -1.185728024370350e-02 1.047207845889332e-01 -1.043920688674441e-02
            -2.327064384450729e-01 -1.202005144941275e-01 1.122385824664822e-01 -4.001292976113130e-01 1.046436347711568e-01 -1.053799566830580e-02 1.127477628522883e-01 -1.179117878472586e-02
575425000.0000000000 9.878179110488511e-02 -2.385901918856695e-02 9.322380647767288e-02 -3.017987487958709e-02 -3.254574415716130e-02 -4.144630810645961e-01 -2.616332467352810e-01 -3.396313743001272e-02
            9.316789226528799e-02 -3.021479782173808e-02 9.887683920264495e-02 -2.388405319881074e-02 -2.616186265218418e-01 -3.400551262760482e-02 -3.261311897352636e-02 -4.144572945078144e-01
            -3.260142665593667e-02 -4.144616144291745e-01 -2.616164814442009e-01 -3.411717910435600e-02 1.004344379518483e-01 -2.607919164866859e-02 9.231410427213091e-02 -2.264025421805121e-02
            -2.616004084864849e-01 -3.407078827289099e-02 -3.258566961520427e-02 -4.143817761740464e-01 9.234913831081215e-02 -2.263231719386151e-02 1.004304917562443e-01 -2.623844188659796e-02
576257500.0000000000 8.120136095279039e-02 -2.509451557027809e-02 7.390903767429360e-02 -3.089352863446513e-02 -1.745445033351149e-01 -3.773374136193136e-01 -2.605043564957288e-01 5.797589447706485e-02
            7.386922749044286e-02 -3.099812710297315e-02 8.119126084174549e-02 -2.509400177752015e-02 -2.604816997145622e-01 5.795667652094605e-02 -1.745099716372480e-01 -3.773432462418157e-01
            -1.744592846185590e-01 -3.773090626356240e-01 -2.604848939313500e-01 5.803542338482724e-02 8.202804029344257e-02 -2.927461603491661e-02 7.503915583895983e-02 -2.369535406759741e-02
            -2.604144457417644e-01 5.794015757166426e-02 -1.744780950164062e-01 -3.773638655841179e-01 7.503363069349493e-02 -2.365962159363602e-02 8.211005787946121e-02 -2.927077280824522e-02
577090000.0000000000 6.677338309523465e-02 -1.427024723619627e-02 5.815351353363036e-02 -1.917871537909312e-02 -2.947751150160957e-01 -2.920800192830898e-01 -2.276193467688857e-01 1.463895721133613e-01
            5.825225998155579e-02 -1.911383018451175e-02 6.685024384730938e-02 -1.428262381688406e-02 -2.276413509292709e-01 1.463008705470447e-01 -2.947515573226182e-01 -2.921202696180282e-01
            -2.947330716096228e-01 -2.920518893195967e-01 -2.276355272541757e-01 1.463813743445127e-01 6.648264747087176e-02 -1.999599249474276e-02 6.153798552339998e-02 -1.292981023501760e-02
            -2.276699815983135e-01 1.463473630628109e-01 -2.946660647102606e-01 -2.919714593973106e-01 6.156838576573108e-02 -1.293147647433534e-02 6.648329832232790e-02 -2.000609750765963e-02
577922500.0000000000 6.290098904551759e-02 3.453446499500443e-03 5.359480492205252e-02 -3.801910245590388e-04 -3.763947414321723e-01 -1.697655737687133e-01 -1.643223984095401e-01 2.194356200281804e-01
            5.362702514175480e-02 -3.522547855420526e-04 6.288423863781040e-02 3.524660067015346e-03 -1.643616704084872e-01 2.194677851922194e-01 -3.763203611247147e-01 -1.697476780684771e-01
            -3.764143378706298e-01 -1.697149493280645e-01 -1.643717693743444e-01 2.194502905971034e-01 6.127874345487803e-02 -3.371338824905278e-03 5.872255803925822e-02 4.093556269719176e-03
            -1.644106079671040e-01 2.194288250008431e-01 -3.763177856915703e-01 -1.697034109065186e-01 5.879303389943338e-02 4.025689664712837e-03 6.128265749279952e-02 -3.359930518684232e-03
578755000.0000000000 7.162460794815718e-02 1.922153245796113e-02 6.188880762389563e-02 1.653428275412036e-02 -4.088808640738005e-01 -2.801093910314599e-02 -7.740827436801274e-02 2.657822248937857e-01
            6.189003774846349e-02 1.652038544111744e-02 7.153801479938533e-02 1.925834113741300e-02 -7.744353697732732e-02 2.657542967407499e-01 -4.088970245299379e-01 -2.801550825995254e-02
            -4.088331548852994e-01 -2.793566590852300e-02 -7.743195567232947e-02 2.657183991533077e-01 6.848684267885789e-02 1.167621011131701e-02 6.825899347175525e-02 1.830138414813613e-02
            -7.735526588049503e-02 2.657872113166787e-01 -4.089189759178454e-01 -2.793615600149317e-02 6.816109141741511e-02 1.831510847894949e-02 6.851342489668834e-02 1.164329400989508e-02
579587500.0000000000 8.805667246572975e-02 2.544766832716341e-02 7.837637511341533e-02 2.371007685256118e-02 -3.903540837924037e-01 1.140346891120664e-01 2.103465608458764e-02 2.775096297307716e-01
            7.839733830754847e-02 2.366121633558720e-02 8.810831275912077e-02 2.550414796023886e-02 2.109825974992414e-02 2.775703690857112e-01 -3.903993592248329e-01 1.141125300964842e-01
            -3.903488331893921e-01 1.140402016389117e-01 2.106606352260538e-02 2.775251639557239e-01 8.366987190634856e-02 1.724017032030998e-02 8.480077452455473e-02 2.228907639686398e-02
            2.111250211565057e-02 2.774552841081208e-01 -3.903871203612945e-01 1.140060851205549e-01 8.487218256355282e-02 2.231169844517787e-02 8.368419925196439e-02 1.728657057166782e-02
580420000.0000000000 1.043824546475837e-01 1.983986359800104e-02 9.464766895582395e-02 1.867074766409869e-02 -3.254532459634563e-01 2.394571256574502e-01 1.167759336158612e-01 2.532912971872835e-01
            9.473237144290633e-02 1.864492709923040e-02 1.043680353289176e-01 1.987396323215609e-02 1.168046739870104e-01 2.533142980323664e-01 -3.253770124165319e-01 2.395004172585721e-01
            -3.254106926668981e-01 2.395155982213041e-01 1.167909278991686e-01 2.533284892679818e-01 9.824520412840414e-02 1.091775546915802e-02 9.975602928195518e-02 1.411560986358685e-02
            1.167769587654046e-01 2.533905889320405e-01 -3.254026933041841e-01 2.395235322621523e-01 9.978358066450242e-02 1.403426196490718e-02 9.827066419367532e-02 1.096154070252209e-02
581252500.0000000000 1.127636732186505e-01 5.495499482108046e-03 1.032299937131525e-01 4.875359989407413e-03 -2.228817802649339e-01 3.351323182486736e-01 1.974466286036619e-01 1.978521299503453e-01
            1.032886867146714e-01 4.842293738737276e-03 1.127882978218895e-01 5.527800550901776e-03 1.975500038363446e-01 1.978799729709302e-01 -2.228907724389639e-01 3.351191203329403e-01
            -2.227813864805994e-01 3.350910954057498e-01 1.974513233306095e-01 1.979348534779513e-01 1.047301965944409e-01 -3.875566785782073e-03 1.055955372957428e-01 -2.260966681919332e-03
            1.974565593442768e-01 1.978735672155787e-01 -2.229217197774609e-01 3.350865887775800e-01 1.055134445410707e-01 -2.278979508380539e-03 1.047499442346586e-01 -3.858543476205098e-03
582085000.0000000000 1.100754198989101e-01 -1.036834699570118e-02 1.006738334087350e-01 -1.059117900782659e-02 -9.402559788368355e-02 3.907547731479866e-01 2.542917076805151e-01 1.187891953661903e-01
            1.006503725233374e-01 -1.061692793691719e-02 1.100458820347812e-01 -1.035428345727287e-02 2.542986499403691e-01 1.188356450048949e-01 -9.407414086931518e-02 3.906668570301390e-01
            -9.394632221893200e-02 3.906999358329727e-01 2.543489836918171e-01 1.188501506331207e-01 9.943162962840303e-02 -1.976687693081190e-02 9.901160949029229e-02 -1.889059463798833e-02
            2.542930492002426e-01 1.188003146887256e-01 -9.407585488175316e-02 3.906316325242594e-01 9.890370047343870e-02 -1.891695898941709e-02 9.944509724573164e-02 -1.977610497733711e-02
582917500.0000000000 9.790518675886560e-02 -2.024407328198925e-02 8.846597476167783e-02 -2.014726241142800e-02 4.673028557845679e-02 3.989522077370853e-01 2.818346778392604e-01 2.505267322079979e-02
            8.849556131604049e-02 -2.028406895255420e-02 9.793491387589237e-02 -2.021664049987473e-02 2.818484544491304e-01 2.509904054779379e-02 4.674081697818476e-02 3.989302793665845e-01
            4.674873975619580e-02 3.989032377779793e-01 2.818537705265890e-01 2.507760075774865e-02 8.432824418277834e-02 -2.889727298789642e-02 8.256122083747099e-02 -2.757267989032701e-02
            2.818784672601093e-01 2.499797263950158e-02 4.681362975757827e-02 3.988927836911693e-01 8.270085321050340e-02 -2.765554878921986e-02 8.429633018693704e-02 -2.891171940828794e-02
583750000.0000000000 8.265264502934695e-02 -1.942144751729164e-02 7.318406584306168e-02 -1.897196354773842e-02 1.824592790164306e-01 3.573073167544339e-01 2.763698804113418e-01 -7.398859396222053e-02
            7.319713699490592e-02 -1.892610366668644e-02 8.254294814406386e-02 -1.941424995177178e-02 2.763940456285356e-01 -7.407287863960357e-02 1.824800929597243e-01 3.572192761439220e-01
            1.825159572605585e-01 3.572340751001010e-01 2.763914008346628e-01 -7.407805332096314e-02 6.597944971915758e-02 -2.601671704304798e-02 6.369180838963237e-02 -2.364250674204946e-02
            2.763409684252602e-01 -7.413197272778065e-02 1.825340705619289e-01 3.572835494468828e-01 6.371737736876126e-02 -2.368048600654041e-02 6.595643857253662e-02 -2.601130631065895e-02
584582500.0000000000 7.201962015721200e-02 -8.354035987043889e-03 6.272201783910669e-02 -7.686303575550566e-03 2.947391240244381e-01 2.699889856392108e-01 2.363737583050152e-01 -1.673779465831577e-01
            6.271401552867660e-02 -7.729497445950488e-03 7.203369110914788e-02 -8.395102576008034e-03 2.363994120525763e-01 -1.673884493805966e-01 2.946941145962867e-01 2.699610647217481e-01
            2.947978207633418e-01 2.699708212062030e-01 2.364716128018074e-01 -1.673333499283197e-01 5.335854827698175e-02 -1.160751676276154e-02 5.137852652346720e-02 -8.083650191887309e-03
            2.364773215956657e-01 -1.673146352725881e-01 2.947778907627940e-01 2.699772981207268e-01 5.139979844309428e-02 -8.028729854980135e-03 5.338961319381269e-02 -1.160085854472683e-02
585415000.0000000000 7.218412307661531e-02 6.848296205258050e-03 6.281124553543239e-02 7.827372916185599e-03 3.680584799794704e-01 1.490318290642936e-01 1.646840600601188e-01 -2.420537251881362e-01
            6.287324916889983e-02 7.791290579131550e-03 7.224693020738227e-02 6.944828224671801e-03 1.646614532831424e-01 -2.421032806020474e-01 3.680275448668755e-01 1.490864027193177e-01
            3.680567365896681e-01 1.491367726365536e-01 1.647158601106599e-01 -2.420458324988547e-01 5.257211218816840e-02 7.772303732066530e-03 5.176644291313314e-02 1.206360714775038e-02
            1.646816807872038e-01 -2.420959912478974e-01 3.679160899136041e-01 1.490743014101359e-01 5.182400953140433e-02 1.209934124463200e-02 5.258689239277937e-02 7.765918752321403e-03
586247500.0000000000 8.299317311048825e-02 1.794491453733509e-02 7.347428173587475e-02 1.910771800378422e-02 3.936281769246091e-01 1.211854410299527e-02 6.956468098488537e-02 -2.864737915377221e-01
            7.339985083096617e-02 1.900634853026673e-02 8.302085627671114e-02 1.791757788718415e-02 6.964658409787078e-02 -2.865045617277350e-01 3.936897839596228e-01 1.203195192642865e-02
            3.936019761930233e-01 1.213462959153013e-02 6.946992576875639e-02 -2.864870616296876e-01 6.433916489645961e-02 2.296578539281412e-02 6.491617785667181e-02 2.719539738668893e-02
            6.959607594384722e-02 -2.863923668588965e-01 3.935375109031369e-01 1.208935774155178e-02 6.489500329329709e-02 2.714672694041836e-02 6.428348874286484e-02 2.293661867447115e-02
587080000.0000000000 9.860686352549311e-02 1.873107190777456e-02 8.890238963113394e-02 2.021196128686908e-02 3.706935861230627e-01 -1.233023817836746e-01 -3.532417417459524e-02 -2.936932037458909e-01
            8.895879636512324e-02 2.020243560055380e-02 9.860875725459119e-02 1.865069416828246e-02 -3.531197867999725e-02 -2.935701144191159e-01 3.707253255638455e-01 -1.232061308871112e-01
            3.707347526172683e-01 -1.232525516686564e-01 -3.533798746850240e-02 -2.937148041311097e-01 8.233378093884218e-02 2.711493776638229e-02 8.421366695107342e-02 3.022238994052003e-02
            -3.529765854136269e-02 -2.935737378109480e-01 3.707614477973163e-01 -1.232085315377157e-01 8.417461672335086e-02 3.020607657968627e-02 8.232221489048741e-02 2.707566756735191e-02
587912500.0000000000 1.111497595498673e-01 8.623517619774637e-03 1.010632488319056e-01 1.078457781247799e-02 3.043078961312180e-01 -2.412160155888465e-01 -1.352451178574630e-01 -2.634809637267288e-01
            1.010782154720175e-01 1.074142353911768e-02 1.111510625818470e-01 8.670024328251941e-03 -1.352744502935745e-01 -2.634574109168146e-01 3.042972990475165e-01 -2.412438973452503e-01
            3.042873737500285e-01 -2.412759761929734e-01 -1.352177556293204e-01 -2.634801057999935e-01 9.805833340680492e-02 1.906054200753521e-02 1.004208096421431e-01 2.055722317774506e-02
            -1.352621557662731e-01 -2.634458495687039e-01 3.043029342148180e-01 -2.412081578855429e-01 1.003526907503784e-01 2.055197560626614e-02 9.799281618362317e-02 1.908699759057510e-02
588745000.0000000000 1.143198248525247e-01 -7.444203018592064e-03 1.040719607876058e-01 -4.630661057529434e-03 2.026708889116096e-01 -3.297225969991640e-01 -2.180399678068906e-01 -2.012701768100572e-01
            1.040861065484977e-01 -4.642388951109232e-03 1.142966662997649e-01 -7.511857423304871e-03 -2.180322225327424e-01 -2.012555338166885e-01 2.026057320967294e-01 -3.297191759684759e-01
            2.025593026776360e-01 -3.298038087827124e-01 -2.180346238956991e-01 -2.012513185716765e-01 1.044984109049199e-01 3.434734260371779e-03 1.062319188939693e-01 3.276978439382496e-03
            -2.180867187567644e-01 -2.013302976081230e-01 2.026713274779852e-01 -3.297822510683432e-01 1.061385987316062e-01 3.216363590562572e-03 1.044839615624246e-01 3.516804702229944e-03
589577500.0000000000 1.062036899313811e-01 -2.233045305964481e-02 9.589077493180365e-02 -1.842816844701919e-02 7.669950257836365e-02 -3.788698390510128e-01 -2.749523429182682e-01 -1.152270480142466e-01
            9.588451740703249e-02 -1.842832291711034e-02 1.061822655359170e-01 -2.233345372771749e-02 -2.749856767957017e-01 -1.151445668603583e-01 7.663523559130117e-02 -3.789144979663679e-01
            7.674130034581127e-02 -3.789504957198986e-01 -2.749588942000866e-01 -1.152404240765411e-01 9.924026284313291e-02 -1.194463216041663e-02 9.945509750530342e-02 -1.328140932101708e-02
            -2.750034836854120e-01 -1.152316197889443e-01 7.677445941650561e-02 -3.788425769340354e-01 9.939105413933558e-02 -1.331097683741268e-02 9.919519391711490e-02 -1.187172655902303e-02
590410000.0000000000 9.030671416127509e-02 -2.880389110416144e-02 8.029796480947528e-02 -2.378983687932002e-02 -5.925480140481257e-02 -3.816735980079231e-01 -3.003068746508157e-01 -1.442588152723277e-02
            8.031424576948813e-02 -2.376189448484608e-02 9.028745035475827e-02 -2.877663743729299e-02 -3.002851581943244e-01 -1.442017764779391e-02 -5.938260916304256e-02 -3.818134457570568e-01
            -5.929707631459105e-02 -3.817894069633107e-01 -3.003745981418178e-01 -1.435045235626086e-02 8.515670314367672e-02 -1.967877334415369e-02 8.345134614752583e-02 -2.126133321571358e-02
            -3.003093311318840e-01 -1.437681078704006e-02 -5.930928190638415e-02 -3.817367780898730e-01 8.345538108741242e-02 -2.132261384291674e-02 8.516195851757122e-02 -1.971422644178567e-02
591242500.0000000000 7.371557214723867e-02 -2.334109834135805e-02 6.446941586096629e-02 -1.733424474738174e-02 -1.883985639424244e-01 -3.363327587986967e-01 -2.901007658175213e-01 9.086718109322067e-02
            6.447511121833766e-02 -1.720556029992708e-02 7.371261578603247e-02 -2.337750666708775e-02 -2.900549013884257e-01 9.085562153716277e-02 -1.883705791818700e-01 -3.363063162762051e-01
            -1.883062021983114e-01 -3.362244016229392e-01 -2.899579509921192e-01 9.094036324909452e-02 6.959450929482695e-02 -1.577509984660288e-02 6.608230364668186e-02 -1.652375751598887e-02
            -2.900994980397527e-01 9.082651744073336e-02 -1.883579417945088e-01 -3.363080662483163e-01 6.598420991243313e-02 -1.657034107998038e-02 6.961214195414897e-02 -1.568649251156583e-02
592075000.0000000000 6.457070626102669e-02 -8.602446442829762e-03 5.651989401806515e-02 -1.509679993663194e-03 -2.926595842058121e-01 -2.478259289182408e-01 -2.430477368551833e-01 1.880975952412872e-01
            5.651098907073761e-02 -1.378041775290569e-03 6.462199062073898e-02 -8.556761827268130e-03 -2.430071930742093e-01 1.881152665645103e-01 -2.925877133224392e-01 -2.479063337563895e-01
            -2.926152527586225e-01 -2.478732342781999e-01 -2.430228142633351e-01 1.881342112368192e-01 6.084248963171787e-02 -1.939235523648470e-03 5.596689339381809e-02 -1.138355309189102e-03
            -2.430610690328246e-01 1.880680769125009e-01 -2.926396765516039e-01 -2.478924604888134e-01 5.592155848367188e-02 -1.205434999480136e-03 6.078774523555186e-02 -1.991968404141995e-03
592907500.0000000000 6.749377493313219e-02 8.347893426015133e-03 6.087437482611031e-02 1.616171640064165e-02 -3.579121754725543e-01 -1.293104102310247e-01 -1.630956264565724e-01 2.636812027233366e-01
            6.091446837010836e-02 1.616837501141793e-02 6.743814067573603e-02 8.306489880532919e-03 -1.631452738618857e-01 2.635481808601359e-01 -3.579015268428686e-01 -1.292497016132614e-01
            -3.577998054723414e-01 -1.292540280229974e-01 -1.631149692733530e-01 2.636727536915942e-01 6.385830524102809e-02 1.439888951228832e-02 5.849707166743452e-02 1.718679102649717e-02
            -1.631176029979637e-01 2.636335544689551e-01 -3.578233441274578e-01 -1.292848318055770e-01 5.853380663018228e-02 1.718688544018746e-02 6.386628871884155e-02 1.439645466470739e-02
593740000.0000000000 8.058103449644767e-02 1.879738482451775e-02 7.583664288149113e-02 2.672813087454093e-02 -3.769855221734017e-01 2.535457942199872e-03 -6.040278185436840e-02 3.056443011007189e-01
            7.574312982248502e-02 2.677478318075550e-02 8.058679762627571e-02 1.880255800578854e-02 -6.046907285908874e-02 3.057225828464482e-01 -3.769890359988731e-01 2.602157423146618e-03
            -3.770392362454394e-01 2.579369611587435e-03 -6.043634324483380e-02 3.056484174892730e-01 7.744473470182785e-02 2.462359428690272e-02 7.238464645987253e-02 2.940656350403096e-02
            -6.045458411629349e-02 3.056622828099680e-01 -3.770527867265670e-01 2.564175309212358e-03 7.243182680573133e-02 2.939663142260228e-02 7.733479572823093e-02 2.466860768077217e-02
594572500.0000000000 9.681895433159969e-02 1.781630956970100e-02 9.401962649475334e-02 2.532844934110865e-02 -3.503017077264386e-01 1.307338299191438e-01 5.020833590157341e-02 3.080957541753486e-01
            9.393464734926672e-02 2.535669844176165e-02 9.682760560207768e-02 1.783382036417232e-02 5.017625375652006e-02 3.080186599747655e-01 -3.503500829778503e-01 1.307082231253254e-01
            -3.503491231684913e-01 1.307340233964053e-01 5.020262696374925e-02 3.081540857158928e-01 9.458586615871442e-02 2.335588235162960e-02 9.055339722886076e-02 2.976241374556916e-02
            5.017679400713639e-02 3.081187394511137e-01 -3.502733722887859e-01 1.307543044408933e-01 9.052193892647857e-02 2.975056958252095e-02 9.456871782042270e-02 2.336367033772718e-02
595405000.0000000000 1.081659855824238e-01 6.483257478314680e-03 1.070362232529812e-01 1.275592467495026e-02 -2.829076573261477e-01 2.413252482429711e-01 1.538121901496308e-01 2.718574656255162e-01
            1.069508740475229e-01 1.278727322485014e-02 1.082533482945744e-01 6.440551265469835e-03 1.538169253939030e-01 2.718476393276495e-01 -2.829474964433735e-01 2.412662478144852e-01
            -2.828705895813152e-01 2.413185983047803e-01 1.538279511402833e-01 2.718287168455905e-01 1.070219091389481e-01 1.111753174466516e-02 1.042224844022495e-01 1.869599975297822e-02
            1.538123195219283e-01 2.718556286596093e-01 -2.829082685135108e-01 2.413278460519149e-01 1.042015021870219e-01 1.868758651063125e-02 1.069447173304144e-01 1.114040126561885e-02
596237500.0000000000 1.090507063080883e-01 -9.504888355414824e-03 1.091396942000975e-01 -4.961442550914931e-03 -1.826316700889534e-01 3.226691211424130e-01 2.382060751354804e-01 2.030734373336188e-01
            1.091514367671163e-01 -5.052861467544472e-03 1.090008951606366e-01 -9.467293270323900e-03 2.380641979517860e-01 2.030659886476990e-01 -1.826567422891682e-01 3.226883213341474e-01
            -1.826678351023717e-01 3.226352675278816e-01 2.381698957634048e-01 2.030064386182929e-01 1.087449742165100e-01 -6.425438261542419e-03 1.073386015898274e-01 2.019547648278283e-03
            2.382215052797774e-01 2.029809882795889e-01 -1.827164342446895e-01 3.226758195634162e-01 1.074130724715094e-01 1.977861016051264e-03 1.087824588401683e-01 -6.516610510524289e-03
597070000.0000000000 9.889487778696718e-02 -2.225384260792071e-02 9.978137397418417e-02 -1.999020342771800e-02 -6.027602200295003e-02 3.655363529714721e-01 2.946208339272510e-01 1.101060360353462e-01
            9.967909887859211e-02 -1.989171098658095e-02 9.893804883269894e-02 -2.224986503932420e-02 2.945972848591377e-01 1.100185547003025e-01 -6.021265749203159e-02 3.654747193613433e-01
            -6.024454326925687e-02 3.654855329168253e-01 2.945877018593185e-01 1.100364709759639e-01 9.885329100308575e-02 -2.148099822196876e-02 9.892216625320784e-02 -1.228934376524586e-02
            2.947076201489984e-01 1.100220306117740e-01 -6.028067140812561e-02 3.654959077622022e-01 9.896797313496918e-02 -1.226181418834851e-02 9.884914973223684e-02 -2.149098053964431e-02
597902500.0000000000 8.249787101462903e-02 -2.515298772893304e-02 8.304549835393248e-02 -2.535752010796910e-02 7.040502066808305e-02 3.633130965501570e-01 3.171212659084424e-01 2.661443575350539e-03
            8.294161090155498e-02 -2.533018589987008e-02 8.243923940043915e-02 -2.521747219942759e-02 3.172774190240188e-01 2.619907889438017e-03 7.043075619779940e-02 3.632745307217649e-01
            7.049425773882041e-02 3.633353230739356e-01 3.171654780331788e-01 2.632913215407720e-03 8.132698705480908e-02 -2.690526809017387e-02 8.325289470028442e-02 -1.721715971136189e-02
            3.171027792191641e-01 2.572030746904016e-03 7.041353740304014e-02 3.633390140022080e-01 8.322849946264400e-02 -1.720716937886775e-02 8.135596738446575e-02 -2.688273527043924e-02
598735000.0000000000 6.764807460898191e-02 -1.626672880110993e-02 6.691650409592102e-02 -1.867911701857777e-02 1.924570402164266e-01 3.148547846311355e-01 3.017949406376161e-01 -1.080818962279367e-01
            6.697077733349872e-02 -1.870853082673901e-02 6.761738672571259e-02 -1.621878726857624e-02 3.017379586127940e-01 -1.080579326995590e-01 1.924957074003970e-01 3.148553952831069e-01
            1.924914034765203e-01 3.148230694739312e-01 3.017317161307477e-01 -1.080072112915390e-01 6.431957290514032e-02 -1.986034991156189e-02 6.833980545214262e-02 -9.838834255518793e-03
            3.017847048096478e-01 -1.081031954771551e-01 1.924676053342461e-01 3.147983405981956e-01 6.824908602328045e-02 -9.787587210660529e-03 6.435708655642317e-02 -1.981010255654662e-02
599567500.0000000000 6.223481103490682e-02 8.387109869391447e-04 5.941585526167824e-02 -3.289925320825001e-03 2.886276671844393e-01 2.260326403708932e-01 2.476808982028493e-01 -2.084713924496939e-01
            5.944531486942612e-02 -3.291253664814323e-03 6.221471839948044e-02 8.785288850807611e-04 2.477407148858281e-01 -2.084793544036382e-01 2.885810588522850e-01 2.261546601334531e-01
            2.886989160486210e-01 2.260941371322648e-01 2.477141714733634e-01 -2.084484697619806e-01 5.586992279977559e-02 -3.469216386877027e-03 6.235637574267752e-02 6.211839888789700e-03
            2.477702841976292e-01 -2.084400652640806e-01 2.886195933683983e-01 2.260912106934839e-01 6.226302851801867e-02 6.179567423315522e-03 5.585118298336759e-02 -3.511673637816625e-03
600400000.0000000000 6.957408517940515e-02 1.766128116337883e-02 6.403004012902305e-02 1.268656150296685e-02 3.462198240723056e-01 1.103373750263130e-01 1.600882364244323e-01 -2.841471762765173e-01
            6.400127063337768e-02 1.265774205521718e-02 6.959054256616271e-02 1.766945851259526e-02 1.600993748700319e-01 -2.841177187042319e-01 3.462226923807691e-01 1.103777741042599e-01
            3.462141449403289e-01 1.103612071348272e-01 1.600566440377771e-01 -2.840808936521137e-01 6.006096152664806e-02 1.398900340117091e-02 6.905280960900100e-02 2.251990231101965e-02
            1.600610714896616e-01 -2.840594017512747e-01 3.462794061835380e-01 1.103861824693988e-01 6.894437610279944e-02 2.264331473561629e-02 5.999779429073528e-02 1.394914330329949e-02
601232500.0000000000 8.628827763577365e-02 2.566077686540885e-02 7.779049759127189e-02 2.117637448368305e-02 3.595724547467420e-01 -1.585690999595194e-02 5.052749173612581e-02 -3.234211185504507e-01
            7.781676374831153e-02 2.116460604899602e-02 8.625256107022355e-02 2.569010520025558e-02 5.056251540704274e-02 -3.234036122487743e-01 3.595575487533488e-01 -1.589893185354203e-02
            3.596241371791194e-01 -1.586590650067731e-02 5.056230094726748e-02 -3.233644541369487e-01 7.395537897356123e-02 2.419754476476290e-02 8.533481823857497e-02 3.068157231893884e-02
            5.051302233709759e-02 -3.233147899246542e-01 3.594733635208912e-01 -1.591024776491737e-02 8.536900361739316e-02 3.061694504633167e-02 7.392591437875561e-02 2.416320293364441e-02
602065000.0000000000 1.043069128361062e-01 2.107507288753604e-02 9.329197191444900e-02 1.826194596704615e-02 3.295476684913020e-01 -1.369525487639004e-01 -6.532429675146810e-02 -3.210539484561438e-01
            9.325950630958527e-02 1.826561624203821e-02 1.043564090432025e-01 2.104154812349820e-02 -6.529907699281431e-02 -3.210419944396009e-01 3.295885287893052e-01 -1.370246415936101e-01
            3.295096264867990e-01 -1.369794312066679e-01 -6.533031328424853e-02 -3.210370459065543e-01 9.044696454849632e-02 2.260024486874853e-02 1.034147768015694e-01 2.628291476914934e-02
            -6.531619760869294e-02 -3.210040066990126e-01 3.295756194278994e-01 -1.369558950302409e-01 1.034525783035386e-01 2.637818983466222e-02 9.046005206171832e-02 2.258041733809766e-02
602897500.0000000000 1.152895209142516e-01 6.138812473973279e-03 1.026833494983528e-01 5.906199289098676e-03 2.615336536747903e-01 -2.400708763532467e-01 -1.721528177942857e-01 -2.788741713899031e-01
            1.025647342935621e-01 5.963247526401791e-03 1.152542000233257e-01 5.995223016499023e-03 -1.721725332285574e-01 -2.788872578404806e-01 2.615013940256010e-01 -2.401645524282257e-01
            2.615598705770571e-01 -2.401217450540807e-01 -1.721248913501567e-01 -2.788745939427022e-01 1.013636963838090e-01 1.104588740704947e-02 1.148740456982454e-01 1.148282865320633e-02
            -1.721915091319090e-01 -2.788216228740241e-01 2.615349784448104e-01 -2.400377378796043e-01 1.148593612521807e-01 1.138945355720120e-02 1.013381156240405e-01 1.099130407794743e-02
603730000.0000000000 1.143613184313181e-01 -1.252796314434990e-02 1.014327188109965e-01 -9.430535176284106e-03 1.630228530263446e-01 -3.144758307178306e-01 -2.578173672062025e-01 -2.034996477606184e-01
            1.014074398021702e-01 -9.428682696653458e-03 1.143110989266076e-01 -1.256265808442463e-02 -2.577707528816985e-01 -2.035308493533453e-01 1.629215669776022e-01 -3.144176859991750e-01
            1.629733138731238e-01 -3.144701492214461e-01 -2.578284267642633e-01 -2.035728612639100e-01 1.016671771833073e-01 -4.393941169235357e-03 1.144838115725736e-01 -7.343113207864524e-03
            -2.578154513013767e-01 -2.035958018668383e-01 1.629204134503188e-01 -3.143978265332723e-01 1.145378824105690e-01 -7.287954948610389e-03 1.016441065569087e-01 -4.449575157678617e-03
604562500.0000000000 1.017696943815777e-01 -2.637711602016498e-02 8.998744830286862e-02 -2.031329001908860e-02 4.428639689124273e-02 -3.509814612500300e-01 -3.135282612371912e-01 -1.038827554376966e-01
            9.005013596611483e-02 -2.027982312503600e-02 1.017852480865163e-01 -2.632040133422665e-02 -3.135185876836340e-01 -1.038503654751760e-01 4.435384850363976e-02 -3.510076891002739e-01
            4.434526589443670e-02 -3.509543014605508e-01 -3.135604763142868e-01 -1.038342260671630e-01 9.145200978072311e-02 -1.615093170375108e-02 1.027621246201488e-01 -2.164310505980839e-02
            -3.134412514441065e-01 -1.037604289701747e-01 4.425197735967539e-02 -3.509691166760615e-01 1.028346629929461e-01 -2.165421098636328e-02 9.147068747209761e-02 -1.618379794966463e-02
605395000.0000000000 8.323448400531705e-02 -2.897503386627375e-02 7.382876890692233e-02 -2.087983409460455e-02 -8.057662205072540e-02 -3.439848853275497e-01 -3.329686782399474e-01 9.986315484179708e-03
            7.389277691265778e-02 -2.085987045518026e-02 8.324680924754528e-02 -2.898394891036715e-02 -3.329817937718730e-01 9.954047232506053e-03 -8.059210921892127e-02 -3.439719863690756e-01
            -8.053234987696693e-02 -3.439408429028911e-01 -3.329390657490838e-01 9.983984232964347e-03 7.571582679291582e-02 -1.784939467016576e-02 8.473048427247380e-02 -2.510222069821107e-02
            -3.329424260332990e-01 9.966966355615716e-03 -8.063811436722886e-02 -3.439466538050668e-01 8.467855919214234e-02 -2.512569443027892e-02 7.560190098656636e-02 -1.785923037097552e-02
606227500.0000000000 6.740787999848952e-02 -1.902293399205541e-02 6.087797635998315e-02 -1.022774101165997e-02 -1.951177527945596e-01 -2.926252417963108e-01 -3.119849094693963e-01 1.257456699098105e-01
            6.083830674456856e-02 -1.020379503777548e-02 6.741516885733791e-02 -1.898984141461852e-02 -3.120220677556280e-01 1.257092451861427e-01 -1.950881787687966e-01 -2.927731425830966e-01
            -1.950994278545675e-01 -2.927538503206402e-01 -3.119938781976010e-01 1.256778730848688e-01 6.232427953531695e-02 -8.131730943791503e-03 6.926941681265449e-02 -1.609890582418636e-02
            -3.119949588636787e-01 1.257183148240191e-01 -1.950925634397649e-01 -2.926903464216654e-01 6.921145035862215e-02 -1.611793447145681e-02 6.236323880558564e-02 -8.104212082736758e-03
607060000.0000000000 6.202087173781502e-02 -1.208270841830811e-03 5.828424680638584e-02 6.812127443590625e-03 -2.830100490149363e-01 -2.043494358057264e-01 -2.507284034372481e-01 2.287432578688293e-01
            5.820132544480997e-02 6.790391585485686e-03 6.205368588853735e-02 -1.302413283170944e-03 -2.506869822480385e-01 2.286638831331063e-01 -2.831024963777853e-01 -2.042826819466425e-01
            -2.830153181551931e-01 -2.043396138446720e-01 -2.507567388070657e-01 2.286073819271961e-01 5.888712997133333e-02 8.628437408432903e-03 6.382947624712482e-02 5.742408235554392e-04
            -2.507509262092679e-01 2.286396953782280e-01 -2.829630106332174e-01 -2.043236204067086e-01 6.380416579158167e-02 5.491283631374886e-04 5.886043574085829e-02 8.490760725322196e-03
607892500.0000000000 6.959685320857856e-02 1.541350122852066e-02 6.755301163862334e-02 2.170734125322793e-02 -3.330907437788171e-01 -9.215911435852098e-02 -1.555858942978081e-01 3.038691963316459e-01
            6.762328553365475e-02 2.167460906434504e-02 6.954346958990366e-02 1.542285913501385e-02 -1.555483425567831e-01 3.038361459096146e-01 -3.331115997236707e-01 -9.219951321535062e-02
            -3.330835134935191e-01 -9.219171382900335e-02 -1.555989037440947e-01 3.038156587465024e-01 6.745090015637127e-02 2.380909415118983e-02 7.109680985383461e-02 1.614863912851833e-02
            -1.555618862240992e-01 3.038577197555322e-01 -3.331028964956841e-01 -9.225206823364995e-02 7.102037884612110e-02 1.615327908050079e-02 6.746840561008247e-02 2.380005570790599e-02
608725000.0000000000 8.576896596687839e-02 2.274807309032774e-02 8.450528508544479e-02 2.677088682829227e-02 -3.409726181193672e-01 2.793285758564075e-02 -3.958656291306807e-02 3.398407693907254e-01
            8.446903620031145e-02 2.676553680784327e-02 8.576440894879730e-02 2.261876153158906e-02 -3.958743798150961e-02 3.398601387159206e-01 -3.410250633707498e-01 2.795355498378268e-02
            -3.409759869423384e-01 2.792242001999608e-02 -3.958984760866702e-02 3.398396526448945e-01 8.399245619901599e-02 2.989524571204393e-02 8.677586461515364e-02 2.261568363821830e-02
            -3.953192401156538e-02 3.398702433726996e-01 -3.408608663518357e-01 2.792774798431507e-02 8.673037834992169e-02 2.265408658804945e-02 8.394942034664755e-02 2.992135143187189e-02
609557500.0000000000 1.024757742498497e-01 1.779919647546336e-02 1.006312109682140e-01 1.975318238789231e-02 -3.083181917528452e-01 1.417773967172863e-01 8.095915120358141e-02 3.325744081407396e-01
            1.006305294639319e-01 1.979824797907230e-02 1.024239719764370e-01 1.779488101445749e-02 8.090841129032141e-02 3.325244383117613e-01 -3.083422607192933e-01 1.417381834600188e-01
            -3.083265580563948e-01 1.417864973028525e-01 8.099032882605525e-02 3.324729721698762e-01 1.005062895905909e-01 2.398835107959358e-02 1.027174501287017e-01 1.688164719597117e-02
            8.092833691441960e-02 3.325306681363622e-01 -3.083360805336970e-01 1.417931794194091e-01 1.027753065977660e-01 1.687133397043322e-02 1.005031975589610e-01 2.399332586006776e-02
610390000.0000000000 1.116597257574575e-01 3.409483164755800e-03 1.084523488921685e-01 4.199549494282065e-03 -2.400926336488760e-01 2.374195671723188e-01 1.905387197169278e-01 2.843922918485689e-01
            1.084788251436005e-01 4.190419654416932e-03 1.116394996307083e-01 3.430187353593254e-03 1.905352203828749e-01 2.843797131331040e-01 -2.401372328046111e-01 2.373892080605096e-01
            -2.400956755144265e-01 2.374353995940887e-01 1.906155432075898e-01 2.843510651301291e-01 1.094150576764176e-01 9.194601833634011e-03 1.108807901088827e-01 2.070428984431688e-03
            1.905723147972984e-01 2.843389312252617e-01 -2.400875272485850e-01 2.374390978078847e-01 1.109775761022497e-01 2.045368997334153e-03 1.093551002522919e-01 9.206089243575704e-03
611222500.0000000000 1.092910850573181e-01 -1.345165456372698e-02 1.045059596817405e-01 -1.275712615467853e-02 -1.437834974351418e-01 3.047165694954753e-01 2.769669345654324e-01 2.025724324226048e-01
            1.045092961461867e-01 -1.275362402275107e-02 1.093842489359190e-01 -1.342664263222942e-02 2.769887236427255e-01 2.025917975601897e-01 -1.437536843239732e-01 3.047327034080345e-01
            -1.437387894205756e-01 3.046593985046524e-01 2.770229734301995e-01 2.025193650251183e-01 1.067918377997342e-01 -7.631408481044955e-03 1.076799926776790e-01 -1.488121449979041e-02
            2.769720354155452e-01 2.025725505835660e-01 -1.437188224876837e-01 3.047665558578810e-01 1.077771898583411e-01 -1.484734945136602e-02 1.068048070929439e-01 -7.689413111402201e-03
612055000.0000000000 9.662413352181429e-02 -2.453839098598714e-02 9.065095367254464e-02 -2.331975842167822e-02 -2.930395684417431e-02 3.353308782931598e-01 3.314834515475381e-01 9.632809247493659e-02
            9.063552705937930e-02 -2.322535917370112e-02 9.655467171084245e-02 -2.460987494724860e-02 3.313949083055704e-01 9.628483168769691e-02 -2.928471736866995e-02 3.353514784703269e-01
            -2.925169341351126e-02 3.353133499393972e-01 3.313732962311948e-01 9.634702310707219e-02 9.397946356107953e-02 -1.869568275828857e-02 9.415421865961014e-02 -2.591940320477559e-02
            3.314515529377531e-01 9.624714365307854e-02 -2.932239480370658e-02 3.353411732671797e-01 9.411541573610489e-02 -2.592602220450347e-02 9.394525022947743e-02 -1.875638704505663e-02
612887500.0000000000 7.939000658619649e-02 -2.473103847660131e-02 7.317636570206554e-02 -2.214953182847440e-02 8.940535904867049e-02 3.236649033431452e-01 3.472834870837207e-01 -2.347005253105578e-02
            7.316422338622797e-02 -2.206959792335910e-02 7.937349657180996e-02 -2.470858995006079e-02 3.472846381727533e-01 -2.348182072245841e-02 8.944256512028710e-02 3.236790993026272e-01
            8.944525655009257e-02 3.236805846314733e-01 3.472769013935795e-01 -2.354875806163225e-02 7.717283979498903e-02 -1.869500748421845e-02 7.634402796805677e-02 -2.546948812386697e-02
            3.472924037994035e-01 -2.354267605169902e-02 8.939322158510382e-02 3.236634183250108e-01 7.631460855131750e-02 -2.549610106039664e-02 7.716070546652277e-02 -1.872842207364351e-02
613720000.0000000000 6.637560480480466e-02 -1.322803294253866e-02 6.066277937045141e-02 -9.589877582701706e-03 1.962081070274505e-01 2.702517694900970e-01 3.205411467416928e-01 -1.436338139685128e-01
            6.065322462313693e-02 -9.702989291126006e-03 6.646118506081748e-02 -1.327817377981257e-02 3.205137139160300e-01 -1.437163336969109e-01 1.962278033398980e-01 2.702829414819639e-01
            1.962147826359765e-01 2.703097456163834e-01 3.205171287090490e-01 -1.436687280110223e-01 6.448417742565317e-02 -7.360574369790616e-03 6.310556546957800e-02 -1.348502608853647e-02
            3.205787324066907e-01 -1.436813702456184e-01 1.961919983059861e-01 2.703008444841049e-01 6.299638591746735e-02 -1.349426012097277e-02 6.449919687058671e-02 -7.295134129812603e-03
614552500.0000000000 6.423283398129898e-02 4.016348190750609e-03 5.954875146078713e-02 7.977618710820835e-03 2.758196124984795e-01 1.829598441380753e-01 2.521591496172736e-01 -2.484280035023147e-01
            5.957077652685244e-02 7.990732503047290e-03 6.424665710457395e-02 3.988529606277364e-03 2.520775435571646e-01 -2.485120536101221e-01 2.759724739853857e-01 1.829270180758786e-01
            2.759621835821833e-01 1.828924137244063e-01 2.521711830559892e-01 -2.484222866358297e-01 6.272538255608064e-02 9.715303138368601e-03 6.109738839624707e-02 4.232182793657707e-03
            2.520640253749472e-01 -2.483524999288184e-01 2.758984953663420e-01 1.829524532958819e-01 6.106705196335782e-02 4.264332296549478e-03 6.269058338298882e-02 9.693932425937210e-03
615385000.0000000000 7.411706016873351e-02 1.818094529905535e-02 7.059384512140669e-02 2.191867520428055e-02 3.187113017315462e-01 7.488379655544873e-02 1.497797217297326e-01 -3.224638161244972e-01
            7.057266806350275e-02 2.187656910610254e-02 7.413541766211289e-02 1.817512265664147e-02 1.497535595658995e-01 -3.223963089434321e-01 3.187140516058765e-01 7.489292219012303e-02
            3.186740511289564e-01 7.482212971421807e-02 1.497364614169030e-01 -3.224770297735166e-01 7.287565485718869e-02 2.363317870894949e-02 7.135196358436693e-02 1.875109270462543e-02
            1.498111464655257e-01 -3.224692789870216e-01 3.187007431824875e-01 7.491872067779159e-02 7.122824990094972e-02 1.882449200643217e-02 7.286020090209343e-02 2.363730190884576e-02
616217500.0000000000 9.086070136388776e-02 2.242529765550042e-02 8.782862561859528e-02 2.509266529140664e-02 3.215942279579514e-01 -3.879536712064252e-02 2.782566251481996e-02 -3.549213204785130e-01
            8.784031893527951e-02 2.503494458741167e-02 9.080302055344752e-02 2.236202574231596e-02 2.785233070537524e-02 -3.548933921803438e-01 3.216169977702074e-01 -3.884616497301254e-02
            3.216239273431573e-01 -3.885557647894169e-02 2.781007199523629e-02 -3.548719249994569e-01 8.966065482189235e-02 2.748435296162423e-02 8.844892787490863e-02 2.287683039012659e-02
            2.779150287424158e-02 -3.549261996651965e-01 3.215628421359720e-01 -3.883704438687548e-02 8.844162927815227e-02 2.277217633381960e-02 8.967402146321435e-02 2.741270816820908e-02
617050000.0000000000 1.060315263545253e-01 1.462281557096960e-02 1.029072694091585e-01 1.621094780403589e-02 2.866324552229598e-01 -1.452270237627928e-01 -9.687857271280313e-02 -3.424560838403933e-01
            1.029133940873880e-01 1.614494088043149e-02 1.060917996738946e-01 1.457613345672170e-02 -9.682788934463368e-02 -3.424482205493638e-01 2.866365892746004e-01 -1.452704760978615e-01
            2.866801484956389e-01 -1.452890226093385e-01 -9.679968627463156e-02 -3.425078902325545e-01 1.047444593299072e-01 1.948909346935154e-02 1.038727629005718e-01 1.468739037360895e-02
            -9.686814144907543e-02 -3.424451582197682e-01 2.866548098630594e-01 -1.453077170961494e-01 1.039208476619662e-01 1.473968642863050e-02 1.047636004941470e-01 1.954160158011956e-02
617882500.0000000000 1.126702330727881e-01 -1.019835141671032e-03 1.087202347797413e-01 -3.725931309436458e-04 2.187719805594755e-01 -2.333909192260504e-01 -2.087045755502404e-01 -2.884502705198509e-01
            1.086880893078792e-01 -3.543127759837820e-04 1.126258193414377e-01 -9.942095899476136e-04 -2.086720374040636e-01 -2.884732961330423e-01 2.187460086916715e-01 -2.334361334779198e-01
            2.188070551350146e-01 -2.333663582743221e-01 -2.086907717757772e-01 -2.884400415396700e-01 1.113453293811153e-01 3.877316832657837e-03 1.104497196571051e-01 -1.439121104785299e-03
            -2.086991887415427e-01 -2.884313942652266e-01 2.187352159792058e-01 -2.333922837111938e-01 1.104609663932085e-01 -1.486767193748971e-03 1.112790046317686e-01 3.867692128717886e-03
618715000.0000000000 1.075525945135315e-01 -1.742493188638801e-02 1.025531514674564e-01 -1.684747688786795e-02 1.249623788477305e-01 -2.938843512140748e-01 -2.955487477812240e-01 -2.003185565189357e-01
            1.025164455354334e-01 -1.677460138369555e-02 1.075904442120661e-01 -1.739401640468671e-02 -2.955643484484815e-01 -2.003044260193397e-01 1.250008739116344e-01 -2.937886920502054e-01
            1.250892860039342e-01 -2.938825885391440e-01 -2.954738768428731e-01 -2.003193987445229e-01 1.064004654750370e-01 -1.233518292984107e-02 1.052018643378313e-01 -1.819122608882666e-02
            -2.955661576576707e-01 -2.002760089013816e-01 1.250047859168969e-01 -2.938561283149934e-01 1.051555155407239e-01 -1.814064779475802e-02 1.064425885993472e-01 -1.238876618374805e-02
619547500.0000000000 9.314954631753145e-02 -2.678395346460795e-02 8.712038339657439e-02 -2.552534277742692e-02 1.519338709984273e-02 -3.186206435591659e-01 -3.481888465804022e-01 -8.775345338564193e-02
            8.703493435716166e-02 -2.556830326457829e-02 9.322214983704352e-02 -2.676653958386267e-02 -3.481813790481361e-01 -8.772213434658338e-02 1.518515132792980e-02 -3.185191137343361e-01
            1.517128894493359e-02 -3.185672243316094e-01 -3.482116546428681e-01 -8.778387880401865e-02 9.234384867846590e-02 -2.153329976274178e-02 9.028314768386461e-02 -2.779593092958618e-02
            -3.482291625999533e-01 -8.779314318555863e-02 1.524216970951898e-02 -3.185630310084342e-01 9.025302368844421e-02 -2.772205953828937e-02 9.234395328300440e-02 -2.154591737214584e-02
620380000.0000000000 7.594099343689513e-02 -2.461381182922720e-02 6.948455716104289e-02 -2.222082368946545e-02 -9.696754834189203e-02 -3.027913123786816e-01 -3.601614494065988e-01 3.762721075759310e-02
            6.946644660162700e-02 -2.221522402855121e-02 7.600012516873828e-02 -2.467182396769706e-02 -3.601369159404023e-01 3.766148531443200e-02 -9.702117096424601e-02 -3.028351696582107e-01
            -9.694784186147748e-02 -3.027461505768736e-01 -3.601286358573477e-01 3.764412070946576e-02 7.564756383157485e-02 -1.929183229782825e-02 7.266062728571461e-02 -2.543747459371015e-02
            -3.601211027083727e-01 3.769440739836543e-02 -9.700458600688201e-02 -3.027699708133738e-01 7.267579708542364e-02 -2.552967551381092e-02 7.564905229283277e-02 -1.929580759043860e-02
621212500.0000000000 6.420128737012619e-02 -1.182350955095026e-02 5.811651342871355e-02 -8.276962134709895e-03 -1.957823822533467e-01 -2.478198105328860e-01 -3.274710442872701e-01 1.615272902623562e-01
            5.811817411549174e-02 -8.215451330097706e-03 6.419656019396967e-02 -1.191234950412137e-02 -3.274488727921916e-01 1.615365829590798e-01 -1.957822603495103e-01 -2.478295307955383e-01
            -1.958522908834495e-01 -2.478681793201497e-01 -3.274589026030506e-01 1.615399852307519e-01 6.468925015814074e-02 -6.715187198074992e-03 6.094081248828555e-02 -1.241081451735175e-02
            -3.274955296872647e-01 1.615054806800292e-01 -1.958720569187444e-01 -2.478547647415736e-01 6.089327121856486e-02 -1.247487438545557e-02 6.469187535318541e-02 -6.712876238774267e-03
622045000.0000000000 6.370756210743510e-02 5.273567015536588e-03 5.877550990580652e-02 9.592866970521034e-03 -2.674889589111143e-01 -1.620041643687439e-01 -2.522201733098426e-01 2.674325411575110e-01
            5.873389036939342e-02 9.638992527057747e-03 6.366161552711753e-02 5.279062581268147e-03 -2.521261264730543e-01 2.674116852239656e-01 -2.675241499269873e-01 -1.620389883342524e-01
            -2.675070803917652e-01 -1.620010058239231e-01 -2.522168838431416e-01 2.674791326824151e-01 6.485772264883337e-02 9.863624707700485e-03 6.072526343715726e-02 4.811483652785635e-03
            -2.521036239883427e-01 2.673793210073963e-01 -2.675824399600112e-01 -1.620549536365157e-01 6.067814693394312e-02 4.860093325438145e-03 6.497172176807513e-02 9.900710960190707e-03
622877500.0000000000 7.441772706735662e-02 1.800704523659710e-02 7.083144459791468e-02 2.233991849560021e-02 -3.036391894688960e-01 -5.853909649936821e-02 -1.432809344795540e-01 3.399984375618235e-01
            7.081687979217062e-02 2.237899324153441e-02 7.435362509662254e-02 1.804695456075786e-02 -1.431603399588421e-01 3.399962966015559e-01 -3.036508347025865e-01 -5.847548243840141e-02
            -3.035956503826231e-01 -5.842997545438126e-02 -1.431729209990828e-01 3.400063345686151e-01 7.611499840483406e-02 2.198262153133798e-02 7.169734086010142e-02 1.751114906081833e-02
            -1.430978336865295e-01 3.399588104619554e-01 -3.036001445921554e-01 -5.842325112251659e-02 7.165815308634088e-02 1.740563991983098e-02 7.617770608776481e-02 2.183332619177117e-02
623710000.0000000000 9.034190579216869e-02 2.061254210770604e-02 8.784830058943667e-02 2.393470777016755e-02 -3.019942360953391e-01 4.892358235941065e-02 -1.572897977978925e-02 3.689393261107020e-01
            8.787484346523212e-02 2.399243021421677e-02 9.021282788250938e-02 2.057070292798886e-02 -1.584270361038871e-02 3.689172809565937e-01 -3.018344108161654e-01 4.892103389059964e-02
            -3.019374312822840e-01 4.894067866584669e-02 -1.584568493536419e-02 3.689096712357365e-01 9.220479905722531e-02 2.341487158776967e-02 8.786524705077456e-02 1.934636212550260e-02
            -1.574028775938452e-02 3.689662874810051e-01 -3.019316168924246e-01 4.895970995309008e-02 8.789176987181251e-02 1.930803278799682e-02 9.212650754093747e-02 2.348399923862877e-02
624542500.0000000000 1.033270324943895e-01 1.211843623926121e-02 1.013361620445649e-01 1.414235331268940e-02 -2.648898130685089e-01 1.481472519649031e-01 1.127839864317900e-01 3.516308403017537e-01
            1.013609231607553e-01 1.413004264512810e-02 1.032875618718426e-01 1.216655816480667e-02 1.128600477455565e-01 3.516517694174466e-01 -2.649138818010386e-01 1.481311094605300e-01
            -2.648557388494048e-01 1.481989033185071e-01 1.128701463207203e-01 3.516300428605026e-01 1.050077343797786e-01 1.410107805393087e-02 1.008021455859066e-01 1.000962162339665e-02
            1.127763632070740e-01 3.516564361527235e-01 -2.649455745941837e-01 1.481336609961761e-01 1.008093032284767e-01 1.008623585742858e-02 1.050111028497906e-01 1.402184472821605e-02
625375000.0000000000 1.071961405481011e-01 -2.577991166109641e-03 1.048880841075114e-01 -1.905489372146276e-03 -1.971464284614879e-01 2.288634457909848e-01 2.269474064548829e-01 2.917310764505718e-01
            1.048009510297366e-01 -1.877761233239665e-03 1.071218518734934e-01 -2.499703565321637e-03 2.269567646332475e-01 2.918284431482421e-01 -1.972070729232583e-01 2.287943917035205e-01
            -1.971532342738159e-01 2.289965051141247e-01 2.269974823465551e-01 2.919049366956003e-01 1.085372495564478e-01 -1.172387822119900e-03 1.042125631102561e-01 -5.346071854172092e-03
            2.269684284661930e-01 2.918176891043978e-01 -1.971492187919237e-01 2.288550156668403e-01 1.041387393916441e-01 -5.323456408142202e-03 1.085294784754487e-01 -1.167080839633908e-03
626207500.0000000000 1.002364082029523e-01 -1.595328510353157e-02 9.692150048578335e-02 -1.631906315558319e-02 -1.058214902742412e-01 2.821785192406503e-01 3.142879614051048e-01 1.972293160942385e-01
            9.694022631356790e-02 -1.623873587080223e-02 1.001437413269106e-01 -1.595700257380972e-02 3.142282479643245e-01 1.971682245547374e-01 -1.058220367996753e-01 2.822410028981494e-01
            -1.057643179074016e-01 2.821900330036493e-01 3.142633882894904e-01 1.972056545982202e-01 1.011726357319137e-01 -1.494250850073225e-02 9.634164857891253e-02 -1.909113306114351e-02
            3.143181105031554e-01 1.972097956648831e-01 -1.058020895885180e-01 2.821969720978704e-01 9.634325847214661e-02 -1.915552258394420e-02 1.012255000012406e-01 -1.497958854969571e-02
627040000.0000000000 8.577501329691931e-02 -2.132090778268706e-02 8.105204856409129e-02 -2.174928820005627e-02 -7.965816602280386e-04 3.004571112091854e-01 3.650864231529974e-01 7.788782484120833e-02
            8.105198339396859e-02 -2.176397804942674e-02 8.577740569617209e-02 -2.124752314524016e-02 3.651596544027042e-01 7.781803576370938e-02 -7.502168946824097e-04 3.004474495035266e-01
            -7.653580239174427e-04 3.005032761475239e-01 3.650984657350331e-01 7.791829414120589e-02 8.645269513651446e-02 -2.044170465053436e-02 8.092674889758045e-02 -2.437823072793956e-02
            3.650327099509860e-01 7.793903216410254e-02 -8.402212696045742e-04 3.004287132454830e-01 8.088950665015507e-02 -2.443061227271162e-02 8.646123094450069e-02 -2.042925280302945e-02
627872500.0000000000 7.086210948341783e-02 -1.532602792490900e-02 6.513999433409361e-02 -1.515782105945375e-02 1.040970920737699e-01 2.800407565822678e-01 3.723413563890835e-01 -5.338105777651569e-02
            6.514225096238241e-02 -1.519181476328092e-02 7.088255856240522e-02 -1.520093839408623e-02 3.723128217055991e-01 -5.343192358598590e-02 1.040561589069885e-01 2.801769482412905e-01
            1.040750220214848e-01 2.800157106908274e-01 3.723274644208817e-01 -5.342505610828480e-02 7.170500136743387e-02 -1.448956421863786e-02 6.550502211700278e-02 -1.776681735572925e-02
            3.724561388110432e-01 -5.351079018535451e-02 1.040748166398520e-01 2.801628787987202e-01 6.556554173197794e-02 -1.787247956206690e-02 7.172848831053509e-02 -1.439726860213887e-02
628705000.0000000000 6.353064724129463e-02 -3.003788196281551e-04 5.736745479050420e-02 7.749729178059327e-04 1.940532425609288e-01 2.237197728496787e-01 3.327897947657785e-01 -1.808456380537619e-01
            5.729910424111713e-02 7.994484659198368e-04 6.362620216843080e-02 -3.417419006300090e-04 3.327952430648530e-01 -1.809840821405466e-01 1.939711079700304e-01 2.237431282232352e-01
            1.939839095858808e-01 2.237136988474220e-01 3.328420171200950e-01 -1.809686700296202e-01 6.463914228569763e-02 1.066294560237686e-04 5.820926414364797e-02 -2.397221369148563e-03
            3.328775941079938e-01 -1.809134173878969e-01 1.940197056804550e-01 2.237127065041068e-01 5.820544193455367e-02 -2.398129917234825e-03 6.473624008879782e-02 1.887575676575621e-04
629537500.0000000000 6.806224694420678e-02 1.622168914790215e-02 6.205550170382188e-02 1.831202332544904e-02 2.567189873350403e-01 1.403490432012225e-01 2.496354600375465e-01 -2.872019673965819e-01
            6.206539860363763e-02 1.827623406471028e-02 6.804618567971157e-02 1.618365565179525e-02 2.496779217647003e-01 -2.871710953224794e-01 2.566879050257798e-01 1.402228447905992e-01
            2.567177213023840e-01 1.402776947071014e-01 2.496976987479036e-01 -2.871113460460826e-01 6.955763569292929e-02 1.587609718937313e-02 6.323320593346479e-02 1.424364158839283e-02
            2.496834546603238e-01 -2.871957658645000e-01 2.566602952682603e-01 1.403126160813090e-01 6.320886174985295e-02 1.428978362326692e-02 6.959589182472468e-02 1.589465646972198e-02
630370000.0000000000 8.240462080994568e-02 2.609412014827648e-02 7.707376391155295e-02 2.874527290373797e-02 2.856913841147374e-01 4.254103182660274e-02 1.337994276415422e-01 -3.568379304312894e-01
            7.703709323418020e-02 2.869888949111572e-02 8.229522693859739e-02 2.612060577051293e-02 1.338038108593363e-01 -3.568789649193316e-01 2.856348857885916e-01 4.264130005361227e-02
            2.855962633542257e-01 4.251914067379513e-02 1.337349895909689e-01 -3.568968033695932e-01 8.388094250148413e-02 2.445069757480308e-02 7.803524900802133e-02 2.368708858073502e-02
            1.337459314513715e-01 -3.569055015853959e-01 2.856732374907645e-01 4.254610331473043e-02 7.804822909590427e-02 2.363506463509733e-02 8.389415474088227e-02 2.438889827074976e-02
631202500.0000000000 9.975543634541105e-02 2.463647787279637e-02 9.518127184736760e-02 2.726805034657759e-02 2.799940732990761e-01 -5.708283931685833e-02 1.426571386459976e-03 -3.808680702259256e-01
            9.520624951393765e-02 2.721937394307024e-02 9.970253692729136e-02 2.463796741354834e-02 1.455336621331099e-03 -3.808316359846652e-01 2.799175689449064e-01 -5.709149497676898e-02
            2.799746025960956e-01 -5.706404451862175e-02 1.450779671717253e-03 -3.809156920852730e-01 1.005899665600614e-01 2.143059417385130e-02 9.538318179374919e-02 2.093325090932233e-02
            1.448055236666218e-03 -3.808848765901635e-01 2.799616605473954e-01 -5.703868763675365e-02 9.546675664089407e-02 2.091956244177934e-02 1.005904726238625e-01 2.144540890427002e-02
632035000.0000000000 1.120336144410476e-01 1.269435147487985e-02 1.081136446121440e-01 1.463447192586187e-02 2.419711825569507e-01 -1.480256388286977e-01 -1.297760678223544e-01 -3.577225285751882e-01
            1.081287284526155e-01 1.462514433298077e-02 1.121003194602528e-01 1.273913784431595e-02 -1.296998815884244e-01 -3.577378062176368e-01 2.419993282502555e-01 -1.480150885278461e-01
            2.420152960202918e-01 -1.480798620753410e-01 -1.297544171514473e-01 -3.577527792017507e-01 1.116507742658184e-01 8.303877858068005e-03 1.070498110153858e-01 7.485117105126718e-03
            -1.297576613972851e-01 -3.577021115563357e-01 2.419906808213307e-01 -1.480946656453143e-01 1.070252319450847e-01 7.464735061223954e-03 1.116199279633805e-01 8.227778698335035e-03
632867500.0000000000 1.142704644018191e-01 -4.065248399965966e-03 1.101578625480453e-01 -2.777563859698159e-03 1.760856232959271e-01 -2.212838258985940e-01 -2.445882371951374e-01 -2.919746143470642e-01
            1.101795673002047e-01 -2.760787388055747e-03 1.141882583880252e-01 -4.018832302244564e-03 -2.446166044133194e-01 -2.920711135061847e-01 1.760905965349862e-01 -2.212086663124361e-01
            1.760436677373544e-01 -2.211500845405416e-01 -2.446890616234566e-01 -2.918859915076506e-01 1.117032507527566e-01 -9.227595117984171e-03 1.073720214121779e-01 -1.034647026530917e-02
            -2.446477664849686e-01 -2.919391799745453e-01 1.761081404755960e-01 -2.211648086080086e-01 1.074449361038892e-01 -1.036428028068061e-02 1.117596857741071e-01 -9.317067286293432e-03
633700000.0000000000 1.055273503765456e-01 -1.794084111425459e-02 1.008457236381321e-01 -1.736572295485371e-02 8.855651653944353e-02 -2.678971256033307e-01 -3.308111929522911e-01 -1.915431115528339e-01
            1.008805930824803e-01 -1.735916966955950e-02 1.055196626681607e-01 -1.796635716575049e-02 -3.308379333224740e-01 -1.914655092425422e-01 8.854998962966235e-02 -2.679687426443964e-01
            8.862988591697989e-02 -2.679550099483150e-01 -3.309503714810195e-01 -1.915037936613080e-01 1.006757785547151e-01 -2.306851401149717e-02 9.606256866694773e-02 -2.478814027144410e-02
            -3.308353637738622e-01 -1.915873118402550e-01 8.860213895766829e-02 -2.679624250905392e-01 9.614512312727030e-02 -2.475729299866591e-02 1.006243320942280e-01 -2.298730738998270e-02
634532500.0000000000 9.016961195202358e-02 -2.287658258263734e-02 8.462324252641455e-02 -2.229058194543885e-02 -1.063050228599885e-02 -2.812610295794182e-01 -3.788315139448081e-01 -6.689549525373620e-02
            8.458564172859780e-02 -2.231986948390807e-02 9.021935977999826e-02 -2.289762102934662e-02 -3.788401439233902e-01 -6.691301065247693e-02 -1.062626656876828e-02 -2.813150569660035e-01
            -1.062217571492530e-02 -2.813894971755922e-01 -3.789164905295084e-01 -6.695612485017538e-02 8.311304648952632e-02 -2.672302047855484e-02 7.785073478364493e-02 -2.878644877575284e-02
            -3.788234916048110e-01 -6.694096887319299e-02 -1.052505676163148e-02 -2.813364997554184e-01 7.783540495597170e-02 -2.871647648505275e-02 8.321523386383203e-02 -2.680873492940991e-02
635365000.0000000000 7.574914400022245e-02 -1.662856291339753e-02 6.922964345927167e-02 -1.544936556365389e-02 -1.082498755867149e-01 -2.581261088263683e-01 -3.815112333541316e-01 6.852695087161008e-02
            6.928289075161213e-02 -1.542250472874431e-02 7.579584402193759e-02 -1.663400588595313e-02 -3.815928694514480e-01 6.854709005312566e-02 -1.082620187326823e-01 -2.580770658709613e-01
            -1.081902254254341e-01 -2.580234852498176e-01 -3.815293851018930e-01 6.857530070181091e-02 6.732629999662360e-02 -1.827622947998722e-02 6.103957126505769e-02 -1.996762185792995e-02
            -3.815255683704612e-01 6.857319953890760e-02 -1.082807803433350e-01 -2.580671017881940e-01 6.104557647217163e-02 -1.998930456912328e-02 6.725191659219444e-02 -1.831561178783699e-02
636197500.0000000000 6.950137326565152e-02 -2.432129410233470e-03 6.258897427865574e-02 -1.887169188230955e-04 -1.902153465017152e-01 -2.015250960399059e-01 -3.360886384848306e-01 1.983721683268276e-01
            6.248918900630180e-02 -2.000794239025992e-04 6.950038768534188e-02 -2.405388275642999e-03 -3.360051101205611e-01 1.983347647289837e-01 -1.901612999805057e-01 -2.015850034117044e-01
            -1.901654532452474e-01 -2.015710212295957e-01 -3.360904822481502e-01 1.983292453172608e-01 6.082636518640754e-02 -1.528042894656975e-03 5.382351136181263e-02 -2.548904204931008e-03
            -3.361274941321889e-01 1.983203247413158e-01 -1.902311474639220e-01 -2.014919092192747e-01 5.381326540594360e-02 -2.524491466113612e-03 6.073804532621067e-02 -1.613998344285312e-03
637030000.0000000000 7.456596685271494e-02 1.192371679310248e-02 6.789718543104763e-02 1.544240607226793e-02 -2.453399463642584e-01 -1.209561301310425e-01 -2.466156384536419e-01 3.044382170710295e-01
            6.780462796157311e-02 1.549614130022674e-02 7.454788775819811e-02 1.197111994018754e-02 -2.466390322428065e-01 3.045257954889366e-01 -2.453156766985701e-01 -1.208616940176962e-01
            -2.453737239833861e-01 -1.209129257465275e-01 -2.465985349192948e-01 3.044993857302294e-01 6.678000389270074e-02 1.506105912892405e-02 5.949436526364089e-02 1.527646755439784e-02
            -2.464871021570432e-01 3.045255496184515e-01 -2.454012198642551e-01 -1.208535222500260e-01 5.943906470897066e-02 1.529539519728753e-02 6.675932710127135e-02 1.502029250978009e-02
637862500.0000000000 8.799095819325298e-02 1.881261586518818e-02 8.211063155237781e-02 2.349479870616872e-02 -2.684258773993293e-01 -2.834600446165983e-02 -1.250845793141487e-01 3.718396339985549e-01
            8.218131022980450e-02 2.347358415625140e-02 8.805792638980103e-02 1.876467200349021e-02 -1.250102701237044e-01 3.718976545178218e-01 -2.684324870017206e-01 -2.837496384212184e-02
            -2.683737381092009e-01 -2.824648216503136e-02 -1.250069866616940e-01 3.719088894852389e-01 8.205330692017011e-02 2.333236042800922e-02 7.490479212707457e-02 2.480886161331317e-02
            -1.250233832612388e-01 3.718778343484118e-01 -2.683631945631378e-01 -2.838748130009254e-02 7.489347696054502e-02 2.486460459235711e-02 8.200668793829671e-02 2.328538630033870e-02
638695000.0000000000 1.025421449808095e-01 1.477965619540853e-02 9.788353071992610e-02 2.009525169745956e-02 -2.589516684193622e-01 6.453588235851976e-02 1.176817184218287e-02 3.919781187525694e-01
            9.793330299130586e-02 2.002238346603989e-02 1.024636969084506e-01 1.482594322567605e-02 1.179481179021986e-02 3.919987884268715e-01 -2.589886377328177e-01 6.451339127750591e-02
            -2.590266643749901e-01 6.457542362700082e-02 1.174813931278103e-02 3.919910326788962e-01 9.849277563336753e-02 1.964243321960352e-02 9.219192828045333e-02 2.217030969534673e-02
            1.178728920016117e-02 3.919795749372011e-01 -2.590517585899200e-01 6.452917708731155e-02 9.222841081640526e-02 2.216815576486740e-02 9.857071268300187e-02 1.965785402645074e-02
639527500.0000000000 1.107405029044726e-01 2.074519856800265e-03 1.076138792593208e-01 7.193099565259874e-03 -2.197972529901264e-01 1.481143015892724e-01 1.458847337428287e-01 3.638282258943004e-01
            1.076085951974536e-01 7.186174672023584e-03 1.106764866853622e-01 2.073336539094986e-03 1.460439841889371e-01 3.639201227439604e-01 -2.198193417943355e-01 1.480720677596967e-01
            -2.197205870450020e-01 1.480700295250906e-01 1.460359820365838e-01 3.638775886863794e-01 1.083862725930104e-01 6.152271059538981e-03 1.028578426428565e-01 9.386307387264828e-03
            1.459735545994141e-01 3.638044013036991e-01 -2.198624620691072e-01 1.481348710067614e-01 1.030099071767142e-01 9.357616416370305e-03 1.084294627817987e-01 6.153319392940709e-03
640360000.0000000000 1.083459794120097e-01 -1.322310649639507e-02 1.066034774340998e-01 -8.692862127208011e-03 -1.549175092431098e-01 2.137183444130038e-01 2.622441097827828e-01 2.923176419342010e-01
            1.065418342393780e-01 -8.687439696786977e-03 1.084471524266904e-01 -1.330384449799374e-02 2.622234364280459e-01 2.922355595086722e-01 -1.548886738737599e-01 2.137960804882050e-01
            -1.549154570240354e-01 2.137860029887943e-01 2.622467430553643e-01 2.922132859050965e-01 1.070929448969751e-01 -1.044865875704491e-02 1.026012293245269e-01 -6.952412509161847e-03
            2.622701114177871e-01 2.923081815604598e-01 -1.548631657057174e-01 2.137299844746687e-01 1.026297911094818e-01 -6.956749162719206e-03 1.070854210857180e-01 -1.047351947794959e-02
641192500.0000000000 9.630659196031227e-02 -2.374836782399297e-02 9.544944149979269e-02 -2.000893464128836e-02 -7.085390826108308e-02 2.535150077689607e-01 3.478898279199065e-01 1.856417399233845e-01
            9.539794965749401e-02 -2.006808245684671e-02 9.636842943980500e-02 -2.376920772402095e-02 3.479357323410793e-01 1.855888914290987e-01 -7.086840896703536e-02 2.536119137989228e-01
            -7.087891171098112e-02 2.535326000763126e-01 3.478018856990183e-01 1.855858936510137e-01 9.506504163501606e-02 -2.231445878809007e-02 9.170850806932711e-02 -1.876384453792836e-02
            3.478310134567477e-01 1.855056922902670e-01 -7.090978424468700e-02 2.535789356162548e-01 9.157818661102601e-02 -1.875228925161634e-02 9.510004147137034e-02 -2.224804553621381e-02
642025000.0000000000 7.982822493791203e-02 -2.384442416706749e-02 7.948483723373322e-02 -2.127070248079910e-02 2.249617605185873e-02 2.612153811191627e-01 3.929133265009583e-01 5.492577622512908e-02
            7.947742910933334e-02 -2.113261304193914e-02 7.983678313489687e-02 -2.388639969750750e-02 3.929080825378449e-01 5.494432905783033e-02 2.243432283583225e-02 2.611153355459517e-01
            2.245996545796456e-02 2.611336225731365e-01 3.929449761171630e-01 5.493408175725118e-02 7.807560570026141e-02 -2.340101374898542e-02 7.546974423731785e-02 -2.009155593914605e-02
            3.928536063612965e-01 5.485727434033130e-02 2.240258739875032e-02 2.611601961620093e-01 7.549495144851696e-02 -1.998687376239074e-02 7.805995500579145e-02 -2.339491031482727e-02
642857500.0000000000 6.685176716351217e-02 -1.303407015338233e-02 6.684696303113817e-02 -1.124685819944087e-02 1.120346410756723e-01 2.344508393223154e-01 3.902725132446599e-01 -8.513430076486597e-02
            6.694640151633596e-02 -1.140102428910224e-02 6.684567702889962e-02 -1.297484391240717e-02 3.901858993669697e-01 -8.518850528822708e-02 1.120664452981596e-01 2.345019992404022e-01
            1.120466589805413e-01 2.344919890225372e-01 3.901968200934607e-01 -8.507551561197410e-02 6.417529292375126e-02 -1.285543206639606e-02 6.249677947486418e-02 -9.838239216499570e-03
            3.902222724431574e-01 -8.515293108007793e-02 1.120643448198944e-01 2.345146991668122e-01 6.251641187768532e-02 -9.861508728285142e-03 6.423480475834925e-02 -1.279012077482857e-02
643690000.0000000000 6.400696027359945e-02 3.977176919958229e-03 6.428846858336440e-02 4.742452126883257e-03 1.850358629950103e-01 1.780478246482626e-01 3.377760630934801e-01 -2.170757818233990e-01
            6.427328498962018e-02 4.782884827001303e-03 6.403572177396626e-02 3.957397987892059e-03 3.377553649848649e-01 -2.169260371577103e-01 1.849502444079602e-01 1.779857498937278e-01
            1.850099615094120e-01 1.779844857453139e-01 3.377368224239145e-01 -2.170022267701688e-01 6.068556312572803e-02 4.436302337301334e-03 5.976163944066674e-02 6.812318262366502e-03
            3.377924737852943e-01 -2.169621816561373e-01 1.850085574238208e-01 1.779377733506618e-01 5.978026383994184e-02 6.824353214693197e-03 6.067290116332075e-02 4.432618247852392e-03
644522500.0000000000 7.285474666788347e-02 1.875088878029229e-02 7.334990409346161e-02 1.846064709169359e-02 2.318238955980373e-01 1.009500752421426e-01 2.412003597283698e-01 -3.220964931241349e-01
            7.330206668159207e-02 1.847058075512911e-02 7.287765353737079e-02 1.878297876916411e-02 2.412296682244095e-01 -3.221383557669492e-01 2.318520458904146e-01 1.010262555306640e-01
            2.319117865167933e-01 1.010073160667621e-01 2.412092721794419e-01 -3.221542485727907e-01 6.933865511721951e-02 1.973065238375084e-02 6.905187297317142e-02 2.124757749780926e-02
            2.412328758812988e-01 -3.221544569080194e-01 2.319066752428794e-01 1.009298828532983e-01 6.906789282528737e-02 2.126620964438019e-02 6.933853710534080e-02 1.976341037839307e-02
645355000.0000000000 8.897862419083356e-02 2.417239167999094e-02 8.944631875755171e-02 2.254157564152295e-02 2.488352764690717e-01 1.493391279870595e-02 1.139044986714969e-01 -3.858948888710459e-01
            8.954084894465113e-02 2.260359926746901e-02 8.890861399735227e-02 2.420015488886780e-02 1.138740702761420e-01 -3.859474388215172e-01 2.488798124028255e-01 1.495957707599526e-02
            2.489008315350053e-01 1.498560260706249e-02 1.139444864771311e-01 -3.858959365045395e-01 8.588306902398504e-02 2.567596396935767e-02 8.595648360509543e-02 2.598923721954210e-02
            1.139289709631508e-01 -3.859665704386242e-01 2.488730545085080e-01 1.489041353123139e-02 8.587932600979828e-02 2.601920110525431e-02 8.586988514067732e-02 2.562735765963610e-02
646187500.0000000000 1.043621949187628e-01 1.824355227262876e-02 1.047051502697963e-01 1.515409061832337e-02 2.364393425624187e-01 -7.013901393613386e-02 -2.665794689871478e-02 -4.010197914898890e-01
            1.047183918678462e-01 1.516065850842105e-02 1.043735790532811e-01 1.825551473620604e-02 -2.665797165449410e-02 -4.010724427337727e-01 2.365657058962501e-01 -7.005824225383268e-02
            2.365631368113076e-01 -7.010855951534913e-02 -2.658143241224896e-02 -4.010075537708405e-01 1.019866506847094e-01 1.978083945701425e-02 1.019168919806419e-01 1.861777313965804e-02
            -2.655323054434425e-02 -4.009779122216766e-01 2.364253970591627e-01 -7.011834648673279e-02 1.018820224451035e-01 1.867681720717646e-02 1.020271976063193e-01 1.975305073412810e-02
647020000.0000000000 1.120938087118524e-01 4.120681636528630e-03 1.118049231547147e-01 -6.591937549674285e-04 1.970441141280407e-01 -1.456364540482132e-01 -1.625801273723922e-01 -3.673197770698376e-01
            1.117591160671666e-01 -5.561768220140236e-04 1.120544410286341e-01 4.059508970469425e-03 -1.625898160779082e-01 -3.673532016024596e-01 1.970829030526905e-01 -1.456562527861056e-01
            1.971099806799126e-01 -1.456867838830671e-01 -1.625958354630871e-01 -3.673180389559916e-01 1.104495601425812e-01 5.093896746727920e-03 1.093767638919950e-01 2.657483470571734e-03
            -1.626263451558534e-01 -3.673495981230289e-01 1.971056638922888e-01 -1.456681789370599e-01 1.093191111356797e-01 2.689071709917429e-03 1.105018230927966e-01 5.083864812621139e-03
647852500.0000000000 1.088561352808288e-01 -1.137874617189445e-02 1.072758174106127e-01 -1.763101733238174e-02 1.345198157413544e-01 -2.039578565974800e-01 -2.789019111052087e-01 -2.899965524010302e-01
            1.072474679524280e-01 -1.752735366519693e-02 1.088339004859323e-01 -1.139610846028778e-02 -2.789070029456422e-01 -2.899478098749695e-01 1.345175382307159e-01 -2.039080966862511e-01
            1.345037949437690e-01 -2.039769511253378e-01 -2.789062891168959e-01 -2.899767601873318e-01 1.077158135256089e-01 -1.124693181954949e-02 1.048963855768576e-01 -1.464595599973834e-02
            -2.789579222255362e-01 -2.899989333776135e-01 1.344994901027521e-01 -2.039091627734109e-01 1.048285943234325e-01 -1.468303993203616e-02 1.076835051373173e-01 -1.126634367037243e-02
648685000.0000000000 9.629417380222495e-02 -2.076760226417105e-02 9.296749389137916e-02 -2.814834168296404e-02 5.481611119720864e-02 -2.373901667576581e-01 -3.630117906774765e-01 -1.777718545401889e-01
            9.294622481391931e-02 -2.816355815864031e-02 9.642280669654803e-02 -2.066436164378282e-02 -3.629592384506418e-01 -1.778186474886906e-01 5.485767385284651e-02 -2.373967102277495e-01
            5.481698645639903e-02 -2.373416289120270e-01 -3.629522665815991e-01 -1.777998847991831e-01 9.511456680901659e-02 -2.189530775198853e-02 9.029021028094483e-02 -2.523822710645166e-02
            -3.629557746624820e-01 -1.778208376521749e-01 5.483621006760685e-02 -2.373652375545862e-01 9.032499960820797e-02 -2.521592805033464e-02 9.516328955537069e-02 -2.186272324804970e-02
649517500.0000000000 8.075270470870817e-02 -1.940595988950064e-02 7.513855268837502e-02 -2.728989027906191e-02 -3.210142414875577e-02 -2.402702128056057e-01 -4.043950237668758e-01 -4.226241715802210e-02
            7.513300536161180e-02 -2.724596608299022e-02 8.074940581123154e-02 -1.945567652557051e-02 -4.044560066784308e-01 -4.229697437943960e-02 -3.199498676116112e-02 -2.402190949468019e-01
            -3.205221515881428e-02 -2.402935625785502e-01 -4.044523252108024e-01 -4.226789187106817e-02 7.895889748041074e-02 -2.168351674237469e-02 7.211570523565329e-02 -2.383604418929867e-02
            -4.044553334066148e-01 -4.224892244441587e-02 -3.202409426007970e-02 -2.402201234053320e-01 7.213815906411189e-02 -2.392323156616206e-02 7.902194227160092e-02 -2.168714247358365e-02
650350000.0000000000 6.994264179950500e-02 -7.691433807444566e-03 6.203841078696290e-02 -1.536990631083787e-02 -1.138109617629379e-01 -2.114070485408218e-01 -3.965546066894088e-01 1.012181543243078e-01
            6.200076846752007e-02 -1.534874248587252e-02 6.995135510954219e-02 -7.776291784942340e-03 -3.964611418593771e-01 1.012667499851874e-01 -1.137966670792667e-01 -2.113900408979262e-01
            -1.138187930865777e-01 -2.114144914943177e-01 -3.964993637393883e-01 1.011796823443821e-01 6.727336842174637e-02 -1.086946908685663e-02 5.896890257850994e-02 -1.096392600523978e-02
            -3.965440964415358e-01 1.012145183266226e-01 -1.137246307226112e-01 -2.114141430206352e-01 5.893000419026215e-02 -1.099317204914953e-02 6.721745009762126e-02 -1.088865232303401e-02
651182500.0000000000 6.978797059037176e-02 8.591752141432377e-03 5.987379607050913e-02 1.822026272744328e-03 -1.782936709356017e-01 -1.556869581451629e-01 -3.378461375635844e-01 2.341859747245811e-01
            5.988935780020323e-02 1.824531819339304e-03 6.985553298362776e-02 8.595705404708874e-03 -3.378750708602974e-01 2.342922174311577e-01 -1.783088970427750e-01 -1.556222034764366e-01
            -1.783092133732134e-01 -1.556319622576454e-01 -3.378063532972711e-01 2.342003526897426e-01 6.593917368517924e-02 4.876028128022175e-03 5.743735959913657e-02 7.493156819039881e-03
            -3.379079718221928e-01 2.342604238718919e-01 -1.782360273223909e-01 -1.556249971100738e-01 5.743957642396818e-02 7.513099584434384e-03 6.599194266139330e-02 4.853367155283532e-03
652015000.0000000000 8.079579129647536e-02 2.103210312962908e-02 6.934746741695330e-02 1.573250356624058e-02 -2.178237914749318e-01 -8.261627222528456e-02 -2.352465969179709e-01 3.380662253245200e-01
            6.929787964076350e-02 1.574669062910436e-02 8.085987015450599e-02 2.106925864617148e-02 -2.352183726247591e-01 3.380413156346779e-01 -2.177162207627277e-01 -8.257643302696346e-02
            -2.177561158012346e-01 -8.263615934465592e-02 -2.352301128075305e-01 3.381120268216476e-01 7.574079315288947e-02 1.704060326202027e-02 6.837288072196952e-02 2.232939041339179e-02
            -2.352369021968479e-01 3.380748481454492e-01 -2.177259150414516e-01 -8.261896930496951e-02 6.836506578645456e-02 2.228389878504667e-02 7.561352681966260e-02 1.704414122578950e-02
652847500.0000000000 9.747770013992596e-02 2.328343867763317e-02 8.495566649922788e-02 1.966276387167672e-02 -2.294777302844229e-01 -2.782049984453843e-03 -1.029576767423713e-01 3.984932469080303e-01
            8.502934803119984e-02 1.965641238446391e-02 9.741343943475046e-02 2.320705672390646e-02 -1.029419540896206e-01 3.985322910577485e-01 -2.294551573248768e-01 -2.717473152256648e-03
            -2.294657887613528e-01 -2.766760498472432e-03 -1.028148934684645e-01 3.985477375214890e-01 9.098464745876798e-02 1.938645970276928e-02 8.595588751599835e-02 2.637686161273846e-02
            -1.029397174204345e-01 3.985387141568738e-01 -2.294312816080167e-01 -2.813315208408931e-03 8.592251276999775e-02 2.631126420998738e-02 9.108281989633350e-02 1.926534139996057e-02
653680000.0000000000 1.117445094045823e-01 1.416261801407962e-02 9.884618951354633e-02 1.244936353079123e-02 -2.142848088338954e-01 7.483132219468601e-02 4.097840272129353e-02 4.090445446351331e-01
            9.886707950496511e-02 1.238761039252219e-02 1.116978307668033e-01 1.428903040148395e-02 4.107467335110319e-02 4.091078716095258e-01 -2.143000215695006e-01 7.486764191925051e-02
            -2.142797240943171e-01 7.481377933151892e-02 4.108027641276742e-02 4.090154454064170e-01 1.040058447083996e-01 1.062639324927965e-02 1.017575365402626e-01 1.822612147035751e-02
            4.105430114844940e-02 4.090616621682454e-01 -2.142374335376126e-01 7.482140322172240e-02 1.016812579510306e-01 1.823733130551812e-02 1.039785863273605e-01 1.065086372644077e-02
654512500.0000000000 1.171260976520990e-01 -1.720015010099820e-03 1.042687099931464e-01 -1.943610503875717e-03 -1.746592696673183e-01 1.426692318529925e-01 1.789290702828238e-01 3.701086717789618e-01
            1.042271690361597e-01 -1.995830738987884e-03 1.170555950126965e-01 -1.728379172666797e-03 1.788396672697080e-01 3.700778587990994e-01 -1.746638341942192e-01 1.426881646927415e-01
            -1.746237523304531e-01 1.426803318093390e-01 1.789460854308885e-01 3.701099421769856e-01 1.079854374431736e-01 -4.798806515633989e-03 1.085003793956406e-01 2.045261583527996e-03
            1.788311354486795e-01 3.700895590774090e-01 -1.746261613693659e-01 1.426275502205952e-01 1.084904847930504e-01 2.162633622206627e-03 1.079857133528166e-01 -4.729093383147014e-03
655345000.0000000000 1.112589654323317e-01 -1.732019035362146e-02 9.881129995280999e-02 -1.624612672331288e-02 -1.141875752553549e-01 1.935705052266177e-01 2.953476606291894e-01 2.870444152710785e-01
            9.894251901364728e-02 -1.617670029598488e-02 1.112094054337859e-01 -1.722625162855113e-02 2.954309674012131e-01 2.870483505289577e-01 -1.141876756878347e-01 1.935758682062355e-01
            -1.141839522805484e-01 1.934228568242908e-01 2.954099613000146e-01 2.871773116586525e-01 1.009264960655411e-01 -1.942165241229188e-02 1.032136007620556e-01 -1.441522433729043e-02
            2.953541732616018e-01 2.871160322518825e-01 -1.141905525393748e-01 1.934284160363388e-01 1.032627410190979e-01 -1.437606605583160e-02 1.008539220622419e-01 -1.937338257477881e-02
656177500.0000000000 9.698270468618275e-02 -2.567122009785645e-02 8.525081901684103e-02 -2.328176146286789e-02 -3.911887227676850e-02 2.203449081509252e-01 3.776879887724468e-01 1.691962472516046e-01
            8.521605282032187e-02 -2.334250887558500e-02 9.694493018521409e-02 -2.563681453497384e-02 3.776790409139742e-01 1.691808308473054e-01 -3.912344169978790e-02 2.203118633436939e-01
            -3.913639771166393e-02 2.203622985873081e-01 3.775995063364673e-01 1.692278381164436e-01 8.546881829900450e-02 -2.625652422815265e-02 8.861573869776772e-02 -2.354493087560787e-02
            3.776000512432076e-01 1.691356012373062e-01 -3.916094865286997e-02 2.204192548755584e-01 8.867532590422922e-02 -2.357061258185898e-02 8.552532427952285e-02 -2.617433783826448e-02
657010000.0000000000 8.085756193722898e-02 -2.272168009865349e-02 7.008460842192235e-02 -1.958148083040136e-02 4.098075127553482e-02 2.184222229790313e-01 4.152790396908351e-01 2.871452007271332e-02
            7.002475404397233e-02 -1.950475730205316e-02 8.087623505893689e-02 -2.274892132299818e-02 4.153368557485387e-01 2.870612380533971e-02 4.096426451415500e-02 2.183788670398779e-01
            4.087478462257316e-02 2.184529359114208e-01 4.152986362014433e-01 2.874520521585891e-02 6.875212297168171e-02 -2.146139656106446e-02 7.163291605854376e-02 -2.080136945905447e-02
            4.153388500069809e-01 2.875791972213630e-02 4.088985770393654e-02 2.184043481770276e-01 7.160802496371016e-02 -2.088784409842846e-02 6.873489605725042e-02 -2.143026291372154e-02
657842500.0000000000 7.093895997505122e-02 -1.017574283356216e-02 6.104017521617960e-02 -6.477371132209152e-03 1.142123115557418e-01 1.875905810706168e-01 4.016034839842119e-01 -1.179327183244665e-01
            6.106036781023785e-02 -6.416655834291833e-03 7.096980449024029e-02 -1.012212797179600e-02 4.015829868394193e-01 -1.179659008906096e-01 1.142251780907528e-01 1.875743824983478e-01
            1.141744230784188e-01 1.875248363449690e-01 4.015283316411898e-01 -1.179775378832865e-01 5.881790006976531e-02 -6.734691641372885e-03 6.066580641038796e-02 -7.576819615767362e-03
            4.016119983624379e-01 -1.179327094335884e-01 1.142460246904318e-01 1.876238585763700e-01 6.063176699362864e-02 -7.555831102774084e-03 5.877129477077328e-02 -6.835059181717431e-03
658675000.0000000000 7.194998762998545e-02 5.585598399886382e-03 6.322140167835488e-02 9.478807173102519e-03 1.700330201179132e-01 1.333329147874344e-01 3.362523512527307e-01 -2.516056076305020e-01
            6.324766858467840e-02 9.543677965090753e-03 7.203787019440415e-02 5.569820084140468e-03 3.363330662243479e-01 -2.515549364967493e-01 1.700499342194184e-01 1.332852411549194e-01
            1.700018806213070e-01 1.332412034837474e-01 3.363641933270493e-01 -2.515187549480697e-01 6.061129414343951e-02 1.098596205222996e-02 6.122159136775517e-02 9.662537907458678e-03
            3.362753099849258e-01 -2.516098657044093e-01 1.700756566365369e-01 1.332768428560068e-01 6.130263432096855e-02 9.692154139038466e-03 6.068059539018262e-02 1.100018385885070e-02
659507500.0000000000 8.314167464119500e-02 1.621264509846220e-02 7.548154288177902e-02 1.994626375140332e-02 2.021203807380811e-01 6.483162087707581e-02 2.277740332715709e-01 -3.533209173206567e-01
            7.555590849654904e-02 1.987996518218974e-02 8.318386170639486e-02 1.623766653132884e-02 2.276888299923116e-01 -3.533920803705642e-01 2.021065949704482e-01 6.493523374582590e-02
            2.022195265423933e-01 6.483794784215985e-02 2.276511374839441e-01 -3.533187036831875e-01 7.337775543116683e-02 2.318673943058847e-02 7.321786977554857e-02 2.200111248747867e-02
            2.276092214488934e-01 -3.533122016898764e-01 2.021622379335501e-01 6.489336074267893e-02 7.319050574616580e-02 2.193296779635797e-02 7.343571511057587e-02 2.320518724308027e-02
660340000.0000000000 9.839462733542582e-02 1.654263775309054e-02 9.162725355715255e-02 1.955170485447957e-02 2.089030883052483e-01 -8.225524161610605e-03 9.080926961822203e-02 -4.099881185722276e-01
            9.165425825944674e-02 1.958208393254150e-02 9.845207967038247e-02 1.657540475914542e-02 9.074981167092730e-02 -4.099672966052093e-01 2.090020057020336e-01 -8.278314322251101e-03
            2.089450499970821e-01 -8.236578917298802e-03 9.077931810756769e-02 -4.099937225662263e-01 9.057324548267087e-02 2.426828075899280e-02 9.015998776689686e-02 2.335381158780914e-02
            9.075664095386708e-02 -4.099711573662415e-01 2.089251453949133e-01 -8.260706705731572e-03 9.000800736652660e-02 2.341188506501087e-02 9.055401663274282e-02 2.424031924300183e-02
661172500.0000000000 1.099886914772522e-01 6.703720477696948e-03 1.037230829607073e-01 8.670242032192478e-03 1.914466464603060e-01 -7.814191657985735e-02 -5.609669799775233e-02 -4.156063852912446e-01
            1.036243304611438e-01 8.663117783519818e-03 1.099390558059947e-01 6.743199359067077e-03 -5.599015201400242e-02 -4.155342638386173e-01 1.914707372216082e-01 -7.815001998294314e-02
            1.914997488363642e-01 -7.817901907929299e-02 -5.607402556994498e-02 -4.155703541460558e-01 1.038380513199719e-01 1.440259083607871e-02 1.036088607215762e-01 1.339351987519319e-02
            -5.609002700020819e-02 -4.155851598048312e-01 1.914560586337409e-01 -7.820125945015420e-02 1.036055130026456e-01 1.333065225648748e-02 1.039090709661040e-01 1.430353953058257e-02
662005000.0000000000 1.121603650527017e-01 -8.279654687942751e-03 1.057112650423206e-01 -7.463691305263608e-03 1.521213800619478e-01 -1.381163338605686e-01 -1.952200910847531e-01 -3.712159818611534e-01
            1.056777424081302e-01 -7.468749598879619e-03 1.121706846185812e-01 -8.312142433694217e-03 -1.952392885175777e-01 -3.711976234353845e-01 1.520660617051770e-01 -1.381398999507331e-01
            1.521401369675476e-01 -1.381966526877514e-01 -1.951443414683971e-01 -3.712042859243134e-01 1.075038959839173e-01 -1.294994036931672e-03 1.074395136260700e-01 -2.746274384138779e-03
            -1.952324517045706e-01 -3.712043953508983e-01 1.521457936243394e-01 -1.381170726368728e-01 1.074066739315861e-01 -2.716004279374095e-03 1.075137929523517e-01 -1.357130464138966e-03
662837500.0000000000 1.039600992108131e-01 -2.135575544974924e-02 9.668816375458357e-02 -2.133821373141197e-02 9.443319415863398e-02 -1.816523036824872e-01 -3.113042743579092e-01 -2.826452941171674e-01
            9.669320943754169e-02 -2.132159816023561e-02 1.039516840969421e-01 -2.125462198848451e-02 -3.113015115988049e-01 -2.826381929562727e-01 9.431115617454555e-02 -1.816526925630918e-01
            9.439891118633216e-02 -1.816422441615207e-01 -3.113352701749630e-01 -2.826419809252136e-01 1.001519897432713e-01 -1.527286100860207e-02 9.990883841890706e-02 -1.760847894491261e-02
            -3.112940495177928e-01 -2.826541085326130e-01 9.432662945701668e-02 -1.817424228877726e-01 9.992530457076995e-02 -1.757510778161953e-02 1.001407723372388e-01 -1.526545891564463e-02
663670000.0000000000 8.898026211363592e-02 -2.575482818659946e-02 8.059249795252052e-02 -2.632314116338915e-02 2.431277990797230e-02 -2.022079855334141e-01 -3.913231214714084e-01 -1.592444236867190e-01
            8.049321530858451e-02 -2.631522733087387e-02 8.891620871769204e-02 -2.580052890789596e-02 -3.912403284618206e-01 -1.591947456196977e-01 2.439157442649121e-02 -2.022670726961461e-01
            2.433552981220397e-02 -2.021788005269786e-01 -3.912910936583957e-01 -1.592537624672668e-01 8.548666960425855e-02 -2.063076244133691e-02 8.447916001798798e-02 -2.396432607432247e-02
            -3.912574033836169e-01 -1.592622646886661e-01 2.432685424496248e-02 -2.022485934003299e-01 8.458779575536339e-02 -2.397115013619230e-02 8.548483736638848e-02 -2.066287594189782e-02
664502500.0000000000 7.439545328829349e-02 -1.931352333593381e-02 6.475448188241667e-02 -1.944242467443914e-02 -4.846798921946750e-02 -1.958872485152653e-01 -4.245152110806485e-01 -1.420171423365731e-02
            6.472818138694685e-02 -1.953192113942119e-02 7.437367920505397e-02 -1.920502778359618e-02 -4.245085569692158e-01 -1.421015890294370e-02 -4.849080137267571e-02 -1.958822493625859e-01
            -4.847948211558795e-02 -1.958750619746575e-01 -4.244313775771251e-01 -1.425841697174932e-02 7.109637550592668e-02 -1.477507201639011e-02 6.859873017230034e-02 -1.860375398937320e-02
            -4.245849264688834e-01 -1.429186114391908e-02 -4.847696067649451e-02 -1.957839965930055e-01 6.863137610350979e-02 -1.871085376637832e-02 7.110362783558800e-02 -1.477733537517769e-02
665335000.0000000000 6.772794267842967e-02 -4.471233308285937e-03 5.702213817961115e-02 -3.917214647052325e-03 -1.130361949999009e-01 -1.634375515234102e-01 -4.048161739721586e-01 1.348641462490073e-01
            5.699200900380394e-02 -3.960870801857239e-03 6.770145078661752e-02 -4.488095048195462e-03 -4.047777698632677e-01 1.349376099803637e-01 -1.130537066594274e-01 -1.634835051191489e-01
            -1.130901618591268e-01 -1.634941652484430e-01 -4.048124950091558e-01 1.350299786509879e-01 6.436264957179134e-02 -3.995662220761421e-04 6.010353349317753e-02 -4.112290989341237e-03
            -4.048409117144680e-01 1.349664657382868e-01 -1.130361835603068e-01 -1.634170534319443e-01 6.017007140169942e-02 -4.185164258469017e-03 6.430677839945161e-02 -4.360393590486341e-04
666167500.0000000000 7.258638892773532e-02 1.119800753689237e-02 6.133493694138217e-02 1.292233654512369e-02 -1.602747438755659e-01 -1.113436815678850e-01 -3.330218135283859e-01 2.683408508842273e-01
            6.127041010657210e-02 1.290618022918403e-02 7.256310755542669e-02 1.109000757482330e-02 -3.330193949273105e-01 2.683252908327209e-01 -1.602281282510530e-01 -1.112693336188830e-01
            -1.602336949931559e-01 -1.113320166859758e-01 -3.329515824794808e-01 2.683208477894475e-01 6.923471480733692e-02 1.489974610525920e-02 6.358663426374157e-02 1.226103782881720e-02
            -3.329724601937215e-01 2.683056873681536e-01 -1.602241887827690e-01 -1.113379723029787e-01 6.357174950286773e-02 1.220288042189830e-02 6.918820870497887e-02 1.485649324137614e-02
667000000.0000000000 8.654450748873711e-02 1.970576718604096e-02 7.528909648955234e-02 2.270524264721161e-02 -1.852285672423494e-01 -4.799658513096572e-02 -2.186497128462465e-01 3.675034311726060e-01
            7.536698154233680e-02 2.278112899318122e-02 8.658321049892295e-02 1.974039257100853e-02 -2.186596670116606e-01 3.674660258757649e-01 -1.852219216573515e-01 -4.805417946493397e-02
            -1.852553755291241e-01 -4.802208084370121e-02 -2.186203166184192e-01 3.674594064480686e-01 8.331513894999804e-02 2.300171842224446e-02 7.690499316906162e-02 2.221994571790082e-02
            -2.185976612532341e-01 3.675115625499220e-01 -1.852312670570238e-01 -4.808398238164548e-02 7.687597305396955e-02 2.218495721503647e-02 8.324672900469254e-02 2.304947939083651e-02
667832500.0000000000 1.026622481006551e-01 1.712674590345009e-02 9.202844324331812e-02 2.119730001165656e-02 -1.875149044996816e-01 1.787898959875437e-02 -7.769327652183765e-02 4.197751847407331e-01
            9.203956058645947e-02 2.113761253325157e-02 1.027095751282835e-01 1.709963473694948e-02 -7.778069789250266e-02 4.197353235663106e-01 -1.874582555430759e-01 1.775743314187846e-02
            -1.874777480252447e-01 1.784418930177368e-02 -7.761677529356224e-02 4.197862608292614e-01 9.942916321285468e-02 1.999672037703351e-02 9.318335833977309e-02 2.078270354842915e-02
            -7.772451584408913e-02 4.197744218604039e-01 -1.874321466262140e-01 1.777880110906515e-02 9.320657278436537e-02 2.074072345883037e-02 9.949931933917550e-02 1.986770111218417e-02
668665000.0000000000 1.132678196323712e-01 4.813495713574812e-03 1.035497477925664e-01 9.369545580996593e-03 -1.683114236380625e-01 7.983605521721129e-02 7.144791129861713e-02 4.202999299196375e-01
            1.034892739854279e-01 9.378655041761772e-03 1.132341829353221e-01 4.770349297160108e-03 7.140823903856626e-02 4.202386382917691e-01 -1.683909069787394e-01 7.979149586585209e-02
            -1.683921684220152e-01 7.980817950130206e-02 7.142595865817579e-02 4.203329212665314e-01 1.099499599973192e-01 6.949399609289405e-03 1.046324405161287e-01 9.189126116602902e-03
            7.144249289223838e-02 4.202950798039085e-01 -1.683971342490225e-01 7.984786385681603e-02 1.045892001157499e-01 9.219987234858996e-03 1.098799802343313e-01 6.948953555323925e-03
669497500.0000000000 1.133946613499198e-01 -1.143733212456437e-02 1.046807184510265e-01 -6.703322419417014e-03 -1.299367099823483e-01 1.320050122197132e-01 2.110898362883480e-01 3.705580322596477e-01
            1.046195794320429e-01 -6.758603062040307e-03 1.135062877692582e-01 -1.133535188822322e-02 2.111151082187979e-01 3.705556585921203e-01 -1.299158116523136e-01 1.320479315905671e-01
            -1.298549670898000e-01 1.320203724569909e-01 2.111111795710904e-01 3.705660070316489e-01 1.096865674899761e-01 -9.817213790438688e-03 1.057724779987152e-01 -7.073360330799744e-03
            2.111221316101154e-01 3.705644833906808e-01 -1.299188015079617e-01 1.320786710358223e-01 1.057734227800579e-01 -7.044969398228606e-03 1.097655330162510e-01 -9.833322786199120e-03
670330000.0000000000 1.033663460499437e-01 -2.395748450316128e-02 9.507693500862598e-02 -1.960180503164082e-02 -7.542786449841196e-02 1.683618927114928e-01 3.261830080786508e-01 2.766164657020942e-01
            9.510991503173553e-02 -1.965322047439757e-02 1.033370479533872e-01 -2.402023920615081e-02 3.261867731069052e-01 2.766105100172702e-01 -7.543736004105843e-02 1.683406003198901e-01
            -7.541564004895181e-02 1.683288440863434e-01 3.261758437678934e-01 2.766410302934335e-01 9.877205694298707e-02 -2.273782170614159e-02 9.609172787473653e-02 -2.024934699313456e-02
            3.261687567828431e-01 2.766197050897974e-01 -7.541510689989939e-02 1.683400281036101e-01 9.607423303767083e-02 -2.020880897536139e-02 9.882954208735709e-02 -2.277332642423810e-02
671162500.0000000000 8.749146469164108e-02 -2.692564927554790e-02 7.944242107273042e-02 -2.310491794836925e-02 -1.098315112930015e-02 1.829211109933785e-01 4.033052284128693e-01 1.483144494666488e-01
            7.939027935914215e-02 -2.315845049063144e-02 8.741274057069122e-02 -2.699342867646127e-02 4.032694879896851e-01 1.482636440230093e-01 -1.100089856400010e-02 1.829845101631268e-01
            -1.104208220826812e-02 1.829287271645507e-01 4.033107586204372e-01 1.483230685385911e-01 8.197469923922816e-02 -2.577299955756308e-02 8.000659540090621e-02 -2.394716300862042e-02
            4.033185968240753e-01 1.483270435861420e-01 -1.097427282307985e-02 1.829514825247180e-01 7.996786966002972e-02 -2.400105672972492e-02 8.199459564759236e-02 -2.579018867235526e-02
671995000.0000000000 7.345790562992223e-02 -1.882285361986984e-02 6.531102682262258e-02 -1.536193168128510e-02 5.426966624790491e-02 1.728987671937332e-01 4.319179693857216e-01 -4.920165068229500e-04
            6.535967145707020e-02 -1.537025189960322e-02 7.346939873761250e-02 -1.877675517477282e-02 4.319238074638167e-01 -5.532329559062377e-04 5.435264778261370e-02 1.729652881876256e-01
            5.429963382254636e-02 1.728892294355165e-01 4.319272248661981e-01 -5.066659534540505e-04 6.733898564959664e-02 -1.726302954102324e-02 6.521118419044203e-02 -1.621896062201223e-02
            4.319550381799460e-01 -4.620610101921915e-04 5.428911986093729e-02 1.728535249871217e-01 6.519753446950147e-02 -1.619827968767519e-02 6.730614567708970e-02 -1.727867461427244e-02
672827500.0000000000 6.831912279440346e-02 -3.447048780475725e-03 5.983147465901446e-02 -1.916897683123359e-04 1.103189892773937e-01 1.398726429311594e-01 4.063171362645637e-01 -1.514289680931610e-01
            5.989088817386296e-02 -2.709992469746022e-04 6.830166912918424e-02 -3.413257777636485e-03 4.063533622197930e-01 -1.514677913037545e-01 1.102973325150018e-01 1.398849025507565e-01
            1.102921590832418e-01 1.398820373820567e-01 4.063095991547785e-01 -1.514431854285625e-01 6.186628501890263e-02 -1.308779194288613e-03 5.927264394759958e-02 -5.136465784128646e-04
            4.062758342648309e-01 -1.514125358682782e-01 1.103366887360700e-01 1.398689724949600e-01 5.926694989388738e-02 -5.982056472310883e-04 6.194946903475111e-02 -1.300724307141864e-03
673660000.0000000000 7.486148701969983e-02 1.138454732629196e-02 6.591455928482999e-02 1.465417956789191e-02 1.492412241386710e-01 9.035371483632686e-02 3.284368934500816e-01 -2.840419567584148e-01
            6.596864861658745e-02 1.476437648985835e-02 7.481452235452397e-02 1.141208184770253e-02 3.284190549248890e-01 -2.840293857280735e-01 1.492764969703860e-01 9.027425613910574e-02
            1.492915203073362e-01 9.033935532329909e-02 3.283772648108248e-01 -2.840119659384231e-01 6.843506061995439e-02 1.421551201910156e-02 6.516478564868312e-02 1.520667503112116e-02
            3.284524359656132e-01 -2.840666414572739e-01 1.492209000886667e-01 9.035037649470944e-02 6.512361930483379e-02 1.509505797664280e-02 6.839108059209720e-02 1.403372251352552e-02
674492500.0000000000 8.939740743752767e-02 1.812403611324703e-02 8.020921474739169e-02 2.170326929497647e-02 1.676994363689488e-01 3.253339933331190e-02 2.089372801261192e-01 -3.802880558331476e-01
            8.019129476672467e-02 2.172484400583478e-02 8.937026023282146e-02 1.819790728321589e-02 2.089621028665296e-01 -3.802492847223441e-01 1.676003349309476e-01 3.252817322373853e-02
            1.677244249244027e-01 3.244715957175938e-02 2.089852807516189e-01 -3.802981692588500e-01 8.330474454488988e-02 2.096923251913877e-02 7.980085642260570e-02 2.294395842257303e-02
            2.089363283615379e-01 -3.802812203107364e-01 1.677478500863193e-01 3.248473760781691e-02 7.981032275118352e-02 2.297466520727589e-02 8.330711148221681e-02 2.096274265632642e-02
675325000.0000000000 1.047462307374660e-01 1.388737686781736e-02 9.545300704991955e-02 1.767129392007866e-02 1.658877253260267e-01 -2.632387373820658e-02 6.443209433321447e-02 -4.283174502970656e-01
            9.539013258722238e-02 1.764989049842115e-02 1.046867275301261e-01 1.375033955596445e-02 6.440105311057971e-02 -4.282774770514747e-01 1.659714653105070e-01 -2.634378060686369e-02
            1.658982776067193e-01 -2.636238792010760e-02 6.437826807142794e-02 -4.283573742955951e-01 9.876269062794860e-02 1.628965134472480e-02 9.589269619952252e-02 1.916816330494770e-02
            6.435439929562857e-02 -4.282532106410490e-01 1.659502618979973e-01 -2.630494758992467e-02 9.579065329971109e-02 1.918059337424239e-02 9.889005250264096e-02 1.626045820492658e-02
676157500.0000000000 1.136365233222621e-01 6.587243561465873e-04 1.041794574355226e-01 4.800908249116505e-03 1.453996110301007e-01 -8.055032472511990e-02 -8.663759545704379e-02 -4.238878500963957e-01
            1.041993614254054e-01 4.892180929819094e-03 1.135860818329449e-01 6.329171965723707e-04 -8.658523906235867e-02 -4.238617173208466e-01 1.453194219527356e-01 -8.055145037016830e-02
            1.454295578635622e-01 -8.055774757136139e-02 -8.660413079058490e-02 -4.238358537421528e-01 1.073331542720879e-01 2.513104803999939e-03 1.054448581991950e-01 6.075055175552270e-03
            -8.670281392797566e-02 -4.238937298108141e-01 1.454147703199885e-01 -8.053907280716871e-02 1.054581417537303e-01 6.091932800924610e-03 1.073378918782306e-01 2.470497053767990e-03
676990000.0000000000 1.119425277809825e-01 -1.505508822174350e-02 1.024486389126826e-01 -1.062538469943230e-02 1.079956963815672e-01 -1.249211416144535e-01 -2.266614854595216e-01 -3.687963459069858e-01
            1.024444521465639e-01 -1.055073010141987e-02 1.120180191230520e-01 -1.504366558237737e-02 -2.267805611364691e-01 -3.688453397696759e-01 1.080221092021168e-01 -1.249471030669239e-01
            1.079920442503435e-01 -1.249894537861486e-01 -2.267195072056313e-01 -3.688705851521363e-01 1.046677906345249e-01 -1.362020683238982e-02 1.044263587571518e-01 -1.014772108312725e-02
            -2.267232400389311e-01 -3.688153981908296e-01 1.079616341171434e-01 -1.250457863054922e-01 1.044264240773247e-01 -1.012845796914386e-02 1.046720637045905e-01 -1.358754169298563e-02
677822500.0000000000 1.007979067584525e-01 -2.599191752503783e-02 9.119285836455489e-02 -2.118953311045606e-02 5.695980313741009e-02 -1.541128295530045e-01 -3.404852039504430e-01 -2.695087063012977e-01
            9.120053784344263e-02 -2.121193564997620e-02 1.008450506900279e-01 -2.602022356194554e-02 -3.404567100441040e-01 -2.695376243011312e-01 5.699904520774454e-02 -1.541292116390975e-01
            5.697232786816075e-02 -1.541329301318538e-01 -3.404913325827408e-01 -2.696362774842019e-01 9.204274828599701e-02 -2.451305738512289e-02 9.298550846766016e-02 -2.199355150756415e-02
            -3.405217200149501e-01 -2.696010594408579e-01 5.702988205664666e-02 -1.540878669670465e-01 9.309953224774983e-02 -2.194839461671087e-02 9.203252793240396e-02 -2.443845797503566e-02
678655000.0000000000 8.527034986500764e-02 -2.720970088236313e-02 7.563532953914434e-02 -2.178317296890309e-02 -1.550430818651959e-03 -1.629041610108984e-01 -4.144338323003466e-01 -1.363797320110024e-01
            7.556742584751834e-02 -2.182909381838825e-02 8.532427837984076e-02 -2.722925909033866e-02 -4.143851872938447e-01 -1.363695949958018e-01 -1.556830603972089e-03 -1.629011089682955e-01
            -1.533119022280850e-03 -1.629470685627949e-01 -4.143856317670130e-01 -1.364156025066325e-01 7.497192486681213e-02 -2.453832893007412e-02 7.666112728685863e-02 -2.356770230373293e-02
            -4.143431682645883e-01 -1.363590104576383e-01 -1.524738505609946e-03 -1.629876626751664e-01 7.673399149117216e-02 -2.358955017955979e-02 7.493692464371457e-02 -2.445727085894071e-02
679487500.0000000000 7.297865490828725e-02 -1.797928714345126e-02 6.344794443369638e-02 -1.192651048382289e-02 -5.892901929445867e-02 -1.494571071410620e-01 -4.379665555056549e-01 1.571515118887756e-02
            6.347846503845736e-02 -1.180821037544026e-02 7.306303077000130e-02 -1.796110157286671e-02 -4.379798314068814e-01 1.582227647221430e-02 -5.897014116387956e-02 -1.494518287099790e-01
            -5.902925471123973e-02 -1.494504047380265e-01 -4.380050545981603e-01 1.579929616809681e-02 6.160458214574701e-02 -1.322682730436943e-02 6.304598313724931e-02 -1.402733364350212e-02
            -4.379141193215512e-01 1.585581233181477e-02 -5.896973120062169e-02 -1.493841523491770e-01 6.310710532416205e-02 -1.399913782935021e-02 6.161487288472076e-02 -1.328809770492463e-02
680320000.0000000000 7.027938301118730e-02 -3.042131811192977e-03 6.096825184424604e-02 3.650367419372037e-03 -1.061338479679500e-01 -1.162431884125946e-01 -4.062067472945270e-01 1.678845335631164e-01
            6.106229190194127e-02 3.656265248230799e-03 7.025578310641722e-02 -3.024924329774155e-03 -4.061799946043076e-01 1.677979612039681e-01 -1.061353051604945e-01 -1.162324814618198e-01
            -1.061610119384225e-01 -1.162287668146752e-01 -4.062619467733687e-01 1.678848148221869e-01 5.876721589044279e-02 4.185544730542688e-03 5.921300464804105e-02 1.962447032392738e-03
            -4.061722725962325e-01 1.678813561254028e-01 -1.061850989852018e-01 -1.162158766242585e-01 5.918127935127679e-02 1.951032612747240e-03 5.872837674308872e-02 4.218428335468754e-03
681152500.0000000000 7.815165298385909e-02 9.532622014510909e-03 6.953341288680882e-02 1.705039675147437e-02 -1.369125065065488e-01 -6.989042926864207e-02 -3.224037378877401e-01 2.991203155941817e-01
            6.953077705182119e-02 1.693524753756502e-02 7.812594474401882e-02 9.478237437960672e-03 -3.224567168614749e-01 2.991275691669165e-01 -1.369473378163550e-01 -6.983220239160967e-02
            -1.369345692687819e-01 -6.982423459479035e-02 -3.223688746851759e-01 2.990851102817250e-01 6.786710960777050e-02 1.915315930045866e-02 6.680952707552171e-02 1.632539802050487e-02
            -3.223464479144618e-01 2.990529876055862e-01 -1.368608606292331e-01 -6.987629235571369e-02 6.687585901954501e-02 1.637128884117963e-02 6.785110741302065e-02 1.916336825395017e-02
681985000.0000000000 9.240436495631496e-02 1.331166318392376e-02 8.478338109685096e-02 2.115379970457850e-02 -1.492054722779359e-01 -1.789807697825289e-02 -1.981760338993726e-01 3.919387175783453e-01
            8.478372304978384e-02 2.119098067178184e-02 9.234645589621129e-02 1.330525103163007e-02 -1.981533465352532e-01 3.919360483150678e-01 -1.491951155784890e-01 -1.788608682288281e-02
            -1.491666911447369e-01 -1.791072436060934e-02 -1.981649189534700e-01 3.918974328459428e-01 8.429427554908732e-02 2.470309723200862e-02 8.183541584261156e-02 2.197969146453367e-02
            -1.981359824607938e-01 3.919310258477416e-01 -1.492115952445810e-01 -1.792558257531064e-02 8.185412743258816e-02 2.200438040573985e-02 8.424106977828622e-02 2.477313717439214e-02
682817500.0000000000 1.053711158309698e-01 6.472693647979403e-03 9.902819783809444e-02 1.438339924876918e-02 -1.438529114835390e-01 3.359712236260031e-02 -5.052600855607160e-02 4.354468965715793e-01
            9.898952523964208e-02 1.437813520433381e-02 1.054116990514052e-01 6.499507200025151e-03 -5.056411510763527e-02 4.355144826922769e-01 -1.438671437000132e-01 3.352456477011995e-02
            -1.437890554773595e-01 3.357551591389220e-02 -5.048027004035998e-02 4.354178090627169e-01 1.001010629579617e-01 1.844222328991131e-02 9.658398210446408e-02 1.630199968816356e-02
            -5.055026082409388e-02 4.353778992172060e-01 -1.438321283707737e-01 3.359023450243927e-02 9.660637143785429e-02 1.638851716912638e-02 1.000432649577902e-01 1.835754774674232e-02
683650000.0000000000 1.107504727212158e-01 -7.398073014867973e-03 1.054737234056592e-01 -4.584505761050951e-05 -1.222870077736184e-01 7.988661511151295e-02 1.019176117655235e-01 4.258625883852256e-01
            1.054007392988510e-01 -2.608967686357826e-05 1.107959506439067e-01 -7.324939980841552e-03 1.019738210460814e-01 4.259319890563991e-01 -1.222617054703728e-01 7.987269869697398e-02
            -1.222320026483524e-01 7.982424012223474e-02 1.019343300235551e-01 4.259061431963247e-01 1.078369952409463e-01 3.824542173662441e-03 1.039614097427653e-01 2.514363945169866e-03
            1.020095166146306e-01 4.258654302743904e-01 -1.223039583321171e-01 7.987884761676464e-02 1.039818353196448e-01 2.553906716754330e-03 1.079382485687514e-01 3.769604759426254e-03
684482500.0000000000 1.057995134030255e-01 -2.173130028168601e-02 1.011677757211475e-01 -1.541826477966449e-02 -8.644317307766905e-02 1.165727201054872e-01 2.419013669134003e-01 3.655733476049148e-01
            1.011967718443168e-01 -1.543639495438978e-02 1.057380449461094e-01 -2.181683134477584e-02 2.419221047394912e-01 3.656596800500672e-01 -8.637562713293323e-02 1.166522764866122e-01
            -8.633772383357873e-02 1.165827149994990e-01 2.419215668384581e-01 3.656126967071793e-01 1.045788531342990e-01 -1.235915829398877e-02 1.006294235472521e-01 -1.272491757151131e-02
            2.419556835901123e-01 3.655869301784626e-01 -8.642428645317388e-02 1.165959580584087e-01 1.005917920539329e-01 -1.269589045145289e-02 1.045684506226037e-01 -1.218313680315193e-02
685315000.0000000000 9.239633550500506e-02 -2.969495953364329e-02 8.799169971658310e-02 -2.468239550294631e-02 -3.938292092923189e-02 1.387190542532750e-01 3.538607823682071e-01 2.612465544374244e-01
            8.802953648977317e-02 -2.474935324500453e-02 9.226690379034966e-02 -2.983826892412788e-02 3.538514263726078e-01 2.612277325796029e-01 -3.930208112636172e-02 1.387413210387529e-01
            -3.938024592250008e-02 1.387566711484297e-01 3.538593010048722e-01 2.611997791817910e-01 9.170329224123688e-02 -2.220327861664819e-02 8.816166916215167e-02 -2.230436680027798e-02
            3.539141284272411e-01 2.612465282327578e-01 -3.932095140458950e-02 1.387791098530521e-01 8.810041551950717e-02 -2.233089191858545e-02 9.168984504586078e-02 -2.221296743192712e-02
686147500.0000000000 7.663276863589331e-02 -2.730376195293794e-02 7.193100851803559e-02 -2.334801817382930e-02 1.289603002251279e-02 1.421537024411163e-01 4.240988082367106e-01 1.236298462253624e-01
            7.188812277728455e-02 -2.326189085782948e-02 7.658502343832554e-02 -2.728582975688703e-02 4.241072382081621e-01 1.236739560064822e-01 1.285274578029733e-02 1.421132577901412e-01
            1.281124356774595e-02 1.421178110771532e-01 4.240896086887870e-01 1.236301438241187e-01 7.576476779313529e-02 -2.141617812509029e-02 7.200189213383958e-02 -2.147550836881855e-02
            4.241084421796144e-01 1.236740423437011e-01 1.282719350819462e-02 1.422032610164605e-01 7.206986035265728e-02 -2.150687766449529e-02 7.558866847310076e-02 -2.138800940979389e-02
686980000.0000000000 6.608755987366081e-02 -1.517886894227223e-02 6.049441466666174e-02 -1.191848210308540e-02 6.221411874538860e-02 1.257918336832811e-01 4.424623196355851e-01 -3.136912040656314e-02
            6.042007976049842e-02 -1.197241710978818e-02 6.607987034166868e-02 -1.517818589189152e-02 4.424239838749034e-01 -3.129435448096188e-02 6.220018904153576e-02 1.258028107790700e-01
            6.212560564054406e-02 1.257752259960974e-01 4.424365125349224e-01 -3.136633273198502e-02 6.421421273324418e-02 -1.017007667380094e-02 6.020759265153759e-02 -1.041548878447507e-02
            4.425181072875264e-01 -3.134766006144475e-02 6.220980819991218e-02 1.258068581406341e-01 6.031281749163461e-02 -1.041664293627489e-02 6.416293584247693e-02 -1.022715775017293e-02
687812500.0000000000 6.593442109953515e-02 7.383309264387052e-04 5.930260193477650e-02 3.826248203842221e-03 1.007517704444454e-01 9.292721147232186e-02 4.046624417058858e-01 -1.839410533395006e-01
            5.930756712557347e-02 3.732893880343087e-03 6.600124530453286e-02 7.462337896751126e-04 4.047563458337000e-01 -1.838681390212780e-01 1.006325696461383e-01 9.298684517455297e-02
            1.006447355830553e-01 9.299928698370519e-02 4.046924610905628e-01 -1.840021677459853e-01 6.301208082656128e-02 5.560780868254250e-03 5.854542559705730e-02 5.517945955683737e-03
            4.046917472599681e-01 -1.839291348785946e-01 1.006091986866294e-01 9.299115804629113e-02 5.850688602667792e-02 5.500179989324134e-03 6.304071299259961e-02 5.541111053030385e-03
688645000.0000000000 7.605838118621737e-02 1.254449865498789e-02 6.841013717272500e-02 1.585855941029325e-02 1.236398185439990e-01 5.020951091679981e-02 3.152283567325043e-01 -3.132873054158073e-01
            6.845693710275717e-02 1.591241699976404e-02 7.612281324679851e-02 1.253184982961717e-02 3.153205456225651e-01 -3.133798419633937e-01 1.236104200848543e-01 5.016164713633700e-02
            1.236702732735860e-01 5.014363463518624e-02 3.152828968917709e-01 -3.134007705603023e-01 7.257049318936867e-02 1.781911957691768e-02 6.738683537557404e-02 1.841364556330366e-02
            3.152935633499533e-01 -3.134189469633669e-01 1.236368751138879e-01 5.019367482738396e-02 6.742289794607234e-02 1.840622829140335e-02 7.259720102769746e-02 1.784132439263000e-02
689477500.0000000000 9.100110932144478e-02 1.464537246924986e-02 8.281626486956489e-02 1.864235535063120e-02 1.301696911832451e-01 4.116986671750865e-03 1.867106986782248e-01 -4.027260624100758e-01
            8.281422434878644e-02 1.864384797292658e-02 9.106378746987216e-02 1.482050116185766e-02 1.867677228021788e-01 -4.026615510658791e-01 1.301819257186235e-01 4.201777065385444e-03
            1.302171991423467e-01 4.172568552880242e-03 1.868360554992763e-01 -4.026679227818534e-01 8.757344740989721e-02 2.038686800947781e-02 8.200256450659224e-02 2.217552926147280e-02
            1.867446959315820e-01 -4.026806449461839e-01 1.301297614310970e-01 4.185846588486622e-03 8.206366031025020e-02 2.209653576874483e-02 8.745658187707583e-02 2.044124748989740e-02
690310000.0000000000 1.032221888105024e-01 6.549395485553403e-03 9.471708769098060e-02 1.132114251473989e-02 1.213471941891129e-01 -4.001394971468127e-02 3.636297458508947e-02 -4.416319865523815e-01
            9.470938633219544e-02 1.120635642654638e-02 1.031535350448488e-01 6.572140813697505e-03 3.629745257535335e-02 -4.416977282183216e-01 1.214005707592375e-01 -4.008316765331157e-02
            1.214086740651516e-01 -4.003872525028396e-02 3.630412946636147e-02 -4.416905883660999e-01 1.001153995188194e-01 1.241613153760704e-02 9.486624897088455e-02 1.555729205198154e-02
            3.635776412324136e-02 -4.416511122696533e-01 1.213787829045703e-01 -4.000112768723806e-02 9.494056218371233e-02 1.546286079263171e-02 1.000916337617059e-01 1.253381337058807e-02
691142500.0000000000 1.067084382669796e-01 -7.392866237424162e-03 9.840415779362748e-02 -2.001116662059742e-03 9.885836387737910e-02 -7.851228765277408e-02 -1.175972255195748e-01 -4.271171488255399e-01
            9.830659156352019e-02 -1.930753716372873e-03 1.066439546544179e-01 -7.466583409516111e-03 -1.176053174468461e-01 -4.271205319422939e-01 9.888102894754064e-02 -7.853590105071932e-02
            9.879831203902015e-02 -7.855275650865537e-02 -1.176174828836068e-01 -4.271848775849545e-01 1.042645187179864e-01 -1.624048164686217e-03 9.980000534623867e-02 2.478594830232586e-03
            -1.175683543917476e-01 -4.271372678790458e-01 9.892719239285487e-02 -7.852962842949043e-02 9.985215177983961e-02 2.544134397971983e-03 1.040909188763713e-01 -1.651447749825104e-03
691975000.0000000000 9.995562024431941e-02 -2.008948478602238e-02 9.194445346146841e-02 -1.425107105024566e-02 6.441181051442808e-02 -1.072876546922395e-01 -2.574581743601383e-01 -3.614066104107274e-01
            9.189065792508461e-02 -1.431762742109503e-02 9.987543885369883e-02 -2.011264682297627e-02 -2.574036421082843e-01 -3.613019325674701e-01 6.444433086374503e-02 -1.073307863514346e-01
            6.441385135409013e-02 -1.072939405327620e-01 -2.574769208798378e-01 -3.613555899019140e-01 9.767001925812242e-02 -1.484442437361632e-02 9.466828029495243e-02 -1.021831313929478e-02
            -2.574216752066034e-01 -3.613780922963556e-01 6.446567771071048e-02 -1.072364744816709e-01 9.458226634479699e-02 -1.026353852812465e-02 9.765494939043512e-02 -1.482826783333735e-02
692807500.0000000000 8.600556562979428e-02 -2.501241736336354e-02 7.854885947537542e-02 -1.898157076002581e-02 2.155659931635470e-02 -1.219842717950297e-01 -3.672727109224675e-01 -2.513864374295961e-01
            7.856508551533371e-02 -1.907284916117678e-02 8.606196047841844e-02 -2.507856797080769e-02 -3.673142466271668e-01 -2.514786355919412e-01 2.158212856087280e-02 -1.219967666315585e-01
            2.159166243288981e-02 -1.219143933469703e-01 -3.672710675704907e-01 -2.514030079139405e-01 8.380574102920946e-02 -2.040524041921831e-02 8.202282050046053e-02 -1.596373811904240e-02
            -3.672951601899493e-01 -2.514306783955541e-01 2.159137520448966e-02 -1.219838237691859e-01 8.199176620410466e-02 -1.596685883101222e-02 8.369496707356031e-02 -2.043226446656059e-02
693640000.0000000000 7.203236399132443e-02 -1.928973930579337e-02 6.476998225322633e-02 -1.323090473360221e-02 -2.370331924996980e-02 -1.196046644342322e-01 -4.331859632002205e-01 -1.090771488831251e-01
            6.484904000387776e-02 -1.324434864443453e-02 7.212502368719510e-02 -1.925259975880455e-02 -4.332501054299613e-01 -1.091667086326761e-01 -2.367200324656078e-02 -1.195777706011538e-01
            -2.364623096663407e-02 -1.195501149170217e-01 -4.331350432666473e-01 -1.091319849677622e-01 6.927317454625383e-02 -1.516268546833728e-02 6.852270100903723e-02 -1.144823820420635e-02
            -4.332854173943911e-01 -1.090887060775130e-01 -2.364106061955149e-02 -1.195334569598284e-01 6.841982551570013e-02 -1.136551988400203e-02 6.926093959342333e-02 -1.512504224266847e-02
694472500.0000000000 6.536169229560831e-02 -5.132198218166658e-03 5.812743652438471e-02 7.116400727426200e-04 -6.387327017051231e-02 -1.004028074558327e-01 -4.452176812803332e-01 4.854569701355459e-02
            5.811880389475237e-02 6.867474830270386e-04 6.527424076786741e-02 -5.086919823082211e-03 -4.451228007552628e-01 4.857465987665267e-02 -6.391840186573804e-02 -1.004383611475579e-01
            -6.385777627899478e-02 -1.003742859810199e-01 -4.452332894238512e-01 4.856569616454121e-02 6.187555683049466e-02 -9.820465616072068e-04 6.131927284561105e-02 1.737763866057097e-03
            -4.451661161112657e-01 4.862569320318911e-02 -6.389614070522583e-02 -1.003732294654165e-01 6.127025242607354e-02 1.763885325987633e-03 6.184707854292047e-02 -1.024877018711000e-03
695305000.0000000000 6.977753411741366e-02 1.045629882368751e-02 6.243768505770314e-02 1.614320344040545e-02 -9.269405436374197e-02 -6.885119057388218e-02 -4.004603993289165e-01 2.007997723688817e-01
            6.250065017612343e-02 1.616786287199838e-02 6.972152502392806e-02 1.044501114231503e-02 -4.004622773878658e-01 2.008205325847741e-01 -9.268919480328953e-02 -6.881858945421708e-02
            -9.257435451410143e-02 -6.884388459929752e-02 -4.004876966442587e-01 2.007645348682902e-01 6.577625143092126e-02 1.487619710612795e-02 6.487509079725708e-02 1.689848950185075e-02
            -4.004528612262398e-01 2.008894466635768e-01 -9.275410501946055e-02 -6.882173033515332e-02 6.487709603270642e-02 1.692488210015260e-02 6.578466991084334e-02 1.488223059147742e-02
696137500.0000000000 8.354762443734290e-02 1.960612056027084e-02 7.605618351800740e-02 2.529346160110928e-02 -1.075033503248623e-01 -3.103119047393598e-02 -3.050815719584292e-01 3.269512592980890e-01
            7.599185791367728e-02 2.517374903804621e-02 8.351629137295141e-02 1.956600264547103e-02 -3.051164417217731e-01 3.269354334144813e-01 -1.073953898215139e-01 -3.105560785717272e-02
            -1.074602434644441e-01 -3.103364973757531e-02 -3.051789995563065e-01 3.269607573310293e-01 7.935511991316273e-02 2.441274916912868e-02 7.793513613636134e-02 2.637534336953280e-02
            -3.050962883202217e-01 3.269630646939105e-01 -1.074265295972736e-01 -3.107401700756465e-02 7.793888924138619e-02 2.639270513139520e-02 7.939417285681943e-02 2.434175876162447e-02
696970000.0000000000 1.001004906180600e-01 1.774583802565799e-02 9.226018721617672e-02 2.351912826044753e-02 -1.086521152565185e-01 7.589684460881848e-03 -1.727427315185369e-01 4.112206588008412e-01
            9.234973583303863e-02 2.354588919987415e-02 1.001274112994089e-01 1.773450547187572e-02 -1.727760580488653e-01 4.111194726397174e-01 -1.086714192342777e-01 7.503520724295572e-03
            -1.086495992999714e-01 7.441522223221387e-03 -1.728111119199401e-01 4.111425805540980e-01 9.613223428262840e-02 2.286739557684903e-02 9.416830364012965e-02 2.542538678293898e-02
            -1.726998042741084e-01 4.111543093483382e-01 -1.086976249976600e-01 7.543604204609395e-03 9.409733831061344e-02 2.540954264536298e-02 9.606683103258774e-02 2.292113528570816e-02
697802500.0000000000 1.118685376082772e-01 5.827489432590474e-03 1.037624269217875e-01 1.190069243737791e-02 -9.776949538425653e-02 4.331945655018200e-02 -2.089361788800747e-02 4.445324743179705e-01
            1.037548022146983e-01 1.186129597967057e-02 1.118267353173631e-01 5.791524960194779e-03 -2.090467481105188e-02 4.446021903154696e-01 -9.773198758724617e-02 4.328907837478103e-02
            -9.782562667030263e-02 4.337032194168835e-02 -2.083427473929779e-02 4.445894444051866e-01 1.080861234539908e-01 1.094880228608804e-02 1.061904002689007e-01 1.437647390310146e-02
            -2.083639613177228e-02 4.445482049585520e-01 -9.776132723231243e-02 4.337840744340587e-02 1.061665752207076e-01 1.435875987694776e-02 1.080908890246263e-01 1.094872142327198e-02
698635000.0000000000 1.135367521104528e-01 -1.080439861806057e-02 1.052037216656051e-01 -4.258491620042880e-03 -7.611524122682602e-02 7.370262458217616e-02 1.324624712928596e-01 4.247233178883865e-01
            1.052376483556667e-01 -4.286581888096546e-03 1.134748985049355e-01 -1.080299111773421e-02 1.325952104331296e-01 4.246857357744003e-01 -7.615520726610149e-02 7.376473281471264e-02
            -7.612763576111135e-02 7.365853509483318e-02 1.325030185425549e-01 4.246861298225968e-01 1.098061612587999e-01 -5.881645009491097e-03 1.086196660065938e-01 -1.588332407397777e-03
            1.326229658959943e-01 4.246540399058022e-01 -7.605624223916445e-02 7.369166185361406e-02 1.087379027453482e-01 -1.584554224611492e-03 1.098852174940914e-01 -5.920669388191233e-03
699467500.0000000000 1.045711409400656e-01 -2.464595702770720e-02 9.607280896352495e-02 -1.768776387935863e-02 -4.475215111809844e-02 9.524319007204146e-02 2.705694950845636e-01 3.542748481960588e-01
            9.610460433328394e-02 -1.756464881404499e-02 1.045336363220810e-01 -2.471516277896291e-02 2.705639716361956e-01 3.542194281209921e-01 -4.489406620683831e-02 9.526284061780732e-02
            -4.479476593966852e-02 9.533752789929599e-02 2.705400730095582e-01 3.543174658851492e-01 1.005962725901018e-01 -2.010961713425103e-02 1.007798201641567e-01 -1.537964672112815e-02
            2.705743588996349e-01 3.542870271670078e-01 -4.486296073050206e-02 9.529632530370426e-02 1.007556687200910e-01 -1.534294414275532e-02 1.005699051093596e-01 -2.016562537157415e-02
700300000.0000000000 8.890145897579675e-02 -2.955242467226553e-02 8.044847586363438e-02 -2.193153120126057e-02 -7.103529259177746e-03 1.041956299762326e-01 3.772684110685584e-01 2.405476168773504e-01
            8.041893324800040e-02 -2.191737921221788e-02 8.891762477814216e-02 -2.970277774544780e-02 3.772795846297516e-01 2.404530772397796e-01 -7.156810309758761e-03 1.041369032821702e-01
            -7.162903741894140e-03 1.041404698383234e-01 3.772278500532031e-01 2.404201653894519e-01 8.438788064568491e-02 -2.515666705147159e-02 8.601903614749219e-02 -2.083988461457659e-02
            3.772554209458345e-01 2.403474463505576e-01 -7.155785632876063e-03 1.042134293261262e-01 8.607760337630477e-02 -2.091123485810554e-02 8.432277477648409e-02 -2.517089843409319e-02
701132500.0000000000 7.403327014104856e-02 -2.348282734472653e-02 6.561049536556589e-02 -1.503517981430268e-02 3.124385594800382e-02 9.801257578942027e-02 4.388792887561289e-01 9.536194690646646e-02
            6.560470734055547e-02 -1.503981870526096e-02 7.399137255461938e-02 -2.358879764298032e-02 4.388877860262314e-01 9.538232703532451e-02 3.117981054526388e-02 9.791563838400379e-02
            3.127215359348262e-02 9.793641553820895e-02 4.388517985295628e-01 9.538220563587649e-02 6.874389077649255e-02 -1.860559388673934e-02 7.151452359569323e-02 -1.538296531352986e-02
            4.388938550640765e-01 9.537238755649782e-02 3.121899274551811e-02 9.792679042391546e-02 7.147705994708248e-02 -1.543090130756099e-02 6.871442169784989e-02 -1.859693600971908e-02
701965000.0000000000 6.715570187171853e-02 -9.319994375733965e-03 5.901836655393501e-02 -1.808028153165369e-05 6.341579220719182e-02 7.741239810320875e-02 4.457361998398072e-01 -6.350231017372074e-02
            5.905362367009866e-02 -1.069853842559579e-04 6.709247015609181e-02 -9.351845973625044e-03 4.457149179326382e-01 -6.351714257186653e-02 6.342409411585741e-02 7.741664457081263e-02
            6.349996481912075e-02 7.739276078413675e-02 4.456993881140252e-01 -6.349393270325923e-02 6.124089292816817e-02 -3.546247197170178e-03 6.449325386099926e-02 -1.982948892867566e-03
            4.457123552068687e-01 -6.347764554716630e-02 6.347483448299839e-02 7.744365819914645e-02 6.452342836052043e-02 -1.936495763937487e-03 6.124109753659905e-02 -3.518182013732328e-03
702797500.0000000000 7.134059494683770e-02 5.571827398653357e-03 6.382372402646616e-02 1.554933001264749e-02 8.446632871849233e-02 4.741885165009534e-02 3.957813662916633e-01 -2.150120690370393e-01
            6.377997626354233e-02 1.547289548709610e-02 7.133392526420602e-02 5.551906456216525e-03 3.957542688153136e-01 -2.149398691383258e-01 8.429976610907672e-02 4.737987952516859e-02
            8.430450944484508e-02 4.738858421321752e-02 3.957856529264104e-01 -2.149741659812079e-01 6.549063822307065e-02 1.273612131303351e-02 6.830351500649852e-02 1.255555040685615e-02
            3.957491676024722e-01 -2.149303046968273e-01 8.430868333999013e-02 4.738934296567694e-02 6.834375004849759e-02 1.259919196301006e-02 6.536341526819917e-02 1.265025502183766e-02
703630000.0000000000 8.425482731387876e-02 1.329210000069037e-02 7.750411212534002e-02 2.404751424932756e-02 9.230328735200743e-02 1.392620970222529e-02 2.959208130052785e-01 -3.385382904858451e-01
            7.746352660779571e-02 2.401065285880793e-02 8.426729607984340e-02 1.331242792296838e-02 2.958676149779806e-01 -3.385338757799873e-01 9.237202388168342e-02 1.390570653554284e-02
            9.233437913008585e-02 1.391596970576539e-02 2.958632757839962e-01 -3.385208982603167e-01 7.923378008124843e-02 2.165959601386124e-02 8.078981965421218e-02 2.053459044022153e-02
            2.958569259443226e-01 -3.384640308351646e-01 9.234128386229970e-02 1.395145346851336e-02 8.080332839674362e-02 2.059129571466385e-02 7.923878612950623e-02 2.166732708233328e-02
704462500.0000000000 9.898692807567669e-02 1.037858438444825e-02 9.313915389091790e-02 2.147580830022779e-02 8.871296997804026e-02 -1.847710563897544e-02 1.602220093102368e-01 -4.188425643151439e-01
            9.310852354455464e-02 2.145431224702072e-02 9.905777060833762e-02 1.048570383642561e-02 1.602491405194816e-01 -4.189311215733787e-01 8.870660161746705e-02 -1.848406251581296e-02
            8.865037456062316e-02 -1.846255793501164e-02 1.602434325713244e-01 -4.189106916552714e-01 9.518921508734481e-02 1.948068824677668e-02 9.534103634035103e-02 1.818158804731090e-02
            1.602310957810756e-01 -4.188792875264724e-01 8.863721172743236e-02 -1.846505535861334e-02 9.532689049014682e-02 1.820258249542206e-02 9.521713140945119e-02 1.945488559523213e-02
705295000.0000000000 1.080187350233731e-01 -1.542525801120998e-03 1.031798655585908e-01 9.706925668868615e-03 7.527241852806577e-02 -4.697890452249603e-02 6.480851434317350e-03 -4.476447658150320e-01
            1.031399381828240e-01 9.759692573690420e-03 1.080108071925169e-01 -1.525389473050389e-03 6.460676702222791e-03 -4.475916494488668e-01 7.532254838109824e-02 -4.690425974895138e-02
            7.530407840792555e-02 -4.691553168843773e-02 6.411053070289274e-03 -4.475894598951616e-01 1.058056902819364e-01 7.411108857911971e-03 1.045994914290354e-01 6.872468000411467e-03
            6.501635793042982e-03 -4.475934441360227e-01 7.530783694684962e-02 -4.693056194755699e-02 1.047102108905793e-01 6.865385653642497e-03 1.057825716043878e-01 7.493248796627532e-03
706127500.0000000000 1.070507445618943e-01 -1.671268250932724e-02 1.030927095965053e-01 -5.477054036850582e-03 5.350232426373953e-02 -6.946427342065797e-02 -1.473149875507576e-01 -4.227267711178255e-01
            1.031568734988453e-01 -5.414889495447656e-03 1.069596894364905e-01 -1.673244943408498e-02 -1.473630557851521e-01 -4.226616572593451e-01 5.353280525727010e-02 -6.945764561943954e-02
            5.347635012135443e-02 -6.955682578362866e-02 -1.474371866026855e-01 -4.226750621152194e-01 1.060003007342760e-01 -8.535528804431879e-03 1.043581497979628e-01 -7.725936147023825e-03
            -1.472955729905703e-01 -4.226717794432264e-01 5.352332333119466e-02 -6.955190213953905e-02 1.043419386250990e-01 -7.761207798326598e-03 1.059887059909528e-01 -8.496706897869554e-03
706960000.0000000000 9.624762494874822e-02 -2.797530718841665e-02 9.319214720001373e-02 -1.677599321395355e-02 2.478320714162357e-02 -8.336074385559475e-02 -2.840606101632537e-01 -3.471752132141995e-01
            9.318136194978886e-02 -1.677377187643967e-02 9.622533369629478e-02 -2.789718527168248e-02 -2.840654534103058e-01 -3.471934064202928e-01 2.464743745762807e-02 -8.340444762556190e-02
            2.474177633869792e-02 -8.345513257820486e-02 -2.840612595494523e-01 -3.472195991765007e-01 9.579464572147266e-02 -2.087088499027043e-02 9.449084520257531e-02 -1.872331119176480e-02
            -2.840694956648467e-01 -3.471901443857117e-01 2.466462439680198e-02 -8.341150585677302e-02 9.445336988068048e-02 -1.872523290710771e-02 9.582457020966523e-02 -2.086543157414399e-02
707792500.0000000000 8.048923030772265e-02 -2.980797007783226e-02 7.823932776838566e-02 -1.860978461231231e-02 -7.792266162910544e-03 -8.576337390871888e-02 -3.876467749150940e-01 -2.287576531486374e-01
            7.820697993022195e-02 -1.865117663631703e-02 8.051623931264922e-02 -2.967901357543429e-02 -3.876915146470381e-01 -2.286207661833941e-01 -7.745022587328249e-03 -8.578753216912656e-02
            -7.819878012275161e-03 -8.565648543008478e-02 -3.876708692023332e-01 -2.287250504699120e-01 7.998033929444004e-02 -2.368005115239552e-02 7.982215924596783e-02 -2.045809141575591e-02
            -3.876821403756263e-01 -2.286676469233203e-01 -7.773492885708005e-03 -8.570530424722014e-02 7.984487240401829e-02 -2.042128927800030e-02 7.993409709181711e-02 -2.373899087671117e-02
708625000.0000000000 6.701248478073049e-02 -2.084928361410672e-02 6.564992476075468e-02 -9.862343760124669e-03 -3.865737932365585e-02 -7.502634960244034e-02 -4.442261969546042e-01 -8.030933260732820e-02
            6.568800011123085e-02 -9.812513144308891e-03 6.710484330125133e-02 -2.079136515532442e-02 -4.442584126303993e-01 -8.026498303219860e-02 -3.863519684512427e-02 -7.495738676165990e-02
            -3.870335630395418e-02 -7.500329025243548e-02 -4.442534982553616e-01 -8.033528410527169e-02 6.586006111280072e-02 -1.554028426214979e-02 6.756810356488456e-02 -1.191624461740790e-02
            -4.443035569670790e-01 -8.032921752788411e-02 -3.865179777819672e-02 -7.495886672088674e-02 6.758139785851540e-02 -1.196969590438271e-02 6.600451104353573e-02 -1.563244757909843e-02
709457500.0000000000 6.258960557554172e-02 -5.321109802157772e-03 6.228096650001210e-02 5.382242334024134e-03 -6.201063413690287e-02 -5.329957445448302e-02 -4.451081011724694e-01 7.964158664913305e-02
            6.230241356959104e-02 5.392818562788653e-03 6.258149175005924e-02 -5.367936398500096e-03 -4.451047784373884e-01 7.957022301720233e-02 -6.202153198297541e-02 -5.333947946383322e-02
            -6.198107269456030e-02 -5.322500604120659e-02 -4.450798481471079e-01 7.960795201106392e-02 6.083240735646605e-02 -3.163605804564852e-04 6.416437419110159e-02 2.793964333548613e-03
            -4.449802961485775e-01 7.952718336368030e-02 -6.199922115102136e-02 -5.328609508375433e-02 6.414414101912332e-02 2.819763554963835e-03 6.083000507779939e-02 -3.216947172523095e-04
710290000.0000000000 6.909870110299621e-02 8.999486602332015e-03 7.002747045930748e-02 1.920984874766870e-02 -7.432341451417687e-02 -2.561092794250113e-02 -3.892108119215051e-01 2.294366348741445e-01
            7.005139479377810e-02 1.923110954605001e-02 6.908927262490526e-02 9.076718107554230e-03 -3.892199669252998e-01 2.294723593189751e-01 -7.430100772108308e-02 -2.559423646565161e-02
            -7.428862494616309e-02 -2.560609822092853e-02 -3.891442110127508e-01 2.294418886269693e-01 6.696588110814700e-02 1.427205491444744e-02 7.169447415086093e-02 1.612111975918989e-02
            -3.892334780869580e-01 2.294257658338859e-01 -7.428062531373933e-02 -2.557636898418468e-02 7.167331024726037e-02 1.605679234195356e-02 6.691393160386006e-02 1.436013046762989e-02
711122500.0000000000 8.297739445648825e-02 1.533614287969658e-02 8.527196662037451e-02 2.451876329887837e-02 -7.550190822620009e-02 2.697981701620666e-03 -2.846735174617505e-01 3.494413474425392e-01
            8.530850303735651e-02 2.456161950223076e-02 8.303988118375924e-02 1.537227244235512e-02 -2.847090290048179e-01 3.493730422873915e-01 -7.538013153513178e-02 2.695163633611805e-03
            -7.545362073344175e-02 2.707388054151084e-03 -2.847186233203972e-01 3.494223701855324e-01 8.080097754344050e-02 2.110753371368499e-02 8.644272527021005e-02 2.107860068522035e-02
            -2.847698034230098e-01 3.493730440586423e-01 -7.545414646595797e-02 2.674872077538825e-03 8.647728776486582e-02 2.107590941817410e-02 8.084328536983190e-02 2.103316890951091e-02
711955000.0000000000 9.712691395291799e-02 1.116202893288966e-02 1.005752956382179e-01 1.878310734528710e-02 -6.740850100310017e-02 2.791868203926933e-02 -1.463677036850896e-01 4.250369143217484e-01
            1.006205682109479e-01 1.878126989136720e-02 9.706951054042992e-02 1.115240299374855e-02 -1.462341906350673e-01 4.249713747201309e-01 -6.743842569721870e-02 2.800826019492059e-02
            -6.742161418465850e-02 2.798350540912437e-02 -1.463123819764059e-01 4.250532303580489e-01 9.532671924457511e-02 1.703289182291421e-02 1.010468351764671e-01 1.501581838230825e-02
            -1.463355226504402e-01 4.250049263224970e-01 -6.733742868780414e-02 2.799986586399495e-02 1.011282632009582e-01 1.498866148091647e-02 9.536762767809642e-02 1.694061198464971e-02
712787500.0000000000 1.046192140839456e-01 -1.040215468853819e-03 1.087809205866258e-01 4.484272196940303e-03 -5.231199398882293e-02 4.858204683612424e-02 8.482253608095399e-03 4.486148903005375e-01
            1.087630018199016e-01 4.581916131048806e-03 1.046151795942742e-01 -9.684663811639589e-04 8.493508264077214e-03 4.485775961268402e-01 -5.228413982631028e-02 4.877113386310967e-02
            -5.226404435431237e-02 4.866661018164524e-02 8.468276530517498e-03 4.486185780090322e-01 1.033165947663525e-01 4.545311393149626e-03 1.085822342799525e-01 6.947937009369339e-04
            8.470328867037712e-03 4.486529359023108e-01 -5.226733437130917e-02 4.864289897617002e-02 1.085852194005892e-01 7.398189803632519e-04 1.033825728172567e-01 4.575740783771821e-03
713620000.0000000000 1.023445544668858e-01 -1.496804308949756e-02 1.062986235078760e-01 -1.181959503804563e-02 -3.125275101798072e-02 6.339688274290513e-02 1.617918667485109e-01 4.187698423779474e-01
            1.062914830700731e-01 -1.173227517482084e-02 1.022259779016849e-01 -1.492103257652902e-02 1.617598085162169e-01 4.187144301184241e-01 -3.125298629249752e-02 6.349897098230602e-02
            -3.117904845781888e-02 6.345357226931364e-02 1.618039382505682e-01 4.186716243329571e-01 1.012480834715859e-01 -9.984456913407986e-03 1.054927920844161e-01 -1.540369831903511e-02
            1.618045133539742e-01 4.186607838969605e-01 -3.117381184244895e-02 6.341362866966557e-02 1.054672542562166e-01 -1.544018686940451e-02 1.012118614374328e-01 -9.939929251998263e-03
714452500.0000000000 9.114462130241331e-02 -2.367034381217614e-02 9.415919986008207e-02 -2.303234995871017e-02 -5.745072076182982e-03 7.011487458124460e-02 2.964442133073741e-01 3.384424921154552e-01
            9.415235630661502e-02 -2.298649159262570e-02 9.116475265410680e-02 -2.366377132163406e-02 2.964718953247506e-01 3.384735035278983e-01 -5.787481195654184e-03 7.013632265838575e-02
            -5.812238188900534e-03 7.006846865846722e-02 2.964100377607054e-01 3.384755197576574e-01 8.996381961955156e-02 -1.944247797733138e-02 9.284437803013144e-02 -2.619824710324086e-02
            2.963794793387401e-01 3.383875956192113e-01 -5.668712899840495e-03 7.009230661828672e-02 9.279956233026609e-02 -2.628201328079439e-02 8.997741143522622e-02 -1.954088324412998e-02
715285000.0000000000 7.684029153359548e-02 -2.284456917688015e-02 7.784639933952037e-02 -2.405190693691477e-02 2.105921206093305e-02 6.645610018382370e-02 3.962595516531960e-01 2.158550172646929e-01
            7.785207090836421e-02 -2.399443667346534e-02 7.679714721283319e-02 -2.280247628227016e-02 3.962876126367924e-01 2.160457321726400e-01 2.109406793872631e-02 6.648135383774902e-02
            2.111606250444555e-02 6.638820310377466e-02 3.962381691677331e-01 2.160333198280784e-01 7.498192916475611e-02 -1.920945277606238e-02 7.610315488991853e-02 -2.676664177001709e-02
            3.962606904815764e-01 2.160447193651117e-01 2.104265439690029e-02 6.634054647798608e-02 7.609537429405389e-02 -2.681818957505065e-02 7.498371405629892e-02 -1.916457350218016e-02
716117500.0000000000 6.644059000381294e-02 -1.239586246721516e-02 6.484825590242665e-02 -1.455637346303140e-02 4.433267191052747e-02 5.204574959670341e-02 4.477778476834511e-01 6.511326300307167e-02
            6.484323494406198e-02 -1.448190004049052e-02 6.642016570848397e-02 -1.233786974421814e-02 4.477368805401465e-01 6.518883567641370e-02 4.430228140612276e-02 5.207113448405191e-02
            4.431368244606355e-02 5.203947052650677e-02 4.477266520743972e-01 6.509523414560643e-02 6.378867806361926e-02 -8.739825917078102e-03 6.299330382078790e-02 -1.686656261145279e-02
            4.478509498567478e-01 6.517331624242745e-02 4.429904144918907e-02 5.209147283528610e-02 6.304310221060555e-02 -1.689606866072029e-02 6.376224044892700e-02 -8.687231874217606e-03
716950000.0000000000 6.568527317821389e-02 2.690019529673409e-03 6.135357569206340e-02 6.032462651427156e-04 5.909107990790234e-02 2.997651512580026e-02 4.428287181774622e-01 -9.491975217176975e-02
            6.140278465947215e-02 6.371635042916181e-04 6.561691887815105e-02 2.706837322018329e-03 4.428326926942145e-01 -9.500418013638623e-02 5.916184118932705e-02 2.978937609078086e-02
            5.907082549324844e-02 2.982663916264082e-02 4.428437007682733e-01 -9.494470016510238e-02 6.235353269698653e-02 6.690248536408597e-03 5.938492851305684e-02 -1.239994590445181e-03
            4.428451469372445e-01 -9.494188292770368e-02 5.913428242574699e-02 2.988369263981299e-02 5.943932569798389e-02 -1.246757783230669e-03 6.223029546030458e-02 6.633002360381601e-03
717782500.0000000000 7.508340348119494e-02 1.462801129914100e-02 6.849387641251836e-02 1.382179361273397e-02 6.341433128280161e-02 4.845995732983541e-03 3.816280551022606e-01 -2.428814919208791e-01
            6.851644317967735e-02 1.386280071292825e-02 7.510109414149127e-02 1.462076419386088e-02 3.815904639061565e-01 -2.428317053745603e-01 6.346200330611018e-02 4.852319256192058e-03
            6.339220612242172e-02 4.809348450029884e-03 3.816101541479366e-01 -2.428531630164839e-01 7.155287385333529e-02 1.936828385726688e-02 6.685994329392349e-02 1.207370167121926e-02
            3.815801747681805e-01 -2.428307542098251e-01 6.340370573625380e-02 4.833540255830194e-03 6.671669181530351e-02 1.198435924303531e-02 7.157908746747167e-02 1.929556609865149e-02
718615000.0000000000 9.012646479610754e-02 1.754916262246519e-02 8.202438212069532e-02 1.860198718173896e-02 5.814007800309397e-02 -1.819190630580533e-02 2.730666510181116e-01 -3.590386241262193e-01
            8.202793130605170e-02 1.860112623339613e-02 9.018782780606178e-02 1.752995342118808e-02 2.730137443881498e-01 -3.591822028167497e-01 5.816954319364193e-02 -1.817558430656218e-02
            5.811347567360284e-02 -1.815576747028570e-02 2.730416768068054e-01 -3.590778726698969e-01 8.693273961978848e-02 2.265446447134890e-02 8.041499048720070e-02 1.676578884767063e-02
            2.730508852145236e-01 -3.591451905976795e-01 5.818342501961332e-02 -1.817101684408462e-02 8.032574126225012e-02 1.682498481938146e-02 8.687246425315610e-02 2.265588250077034e-02
719447500.0000000000 1.033157878427057e-01 9.934330347626356e-03 9.472754848548179e-02 1.336153393553734e-02 4.604779387744479e-02 -3.668432541116298e-02 1.321690660307285e-01 -4.301699077869859e-01
            9.463556815168725e-02 1.326497149474094e-02 1.034256115606590e-01 1.001558617039684e-02 1.322099672872084e-01 -4.301179831563850e-01 4.604093500002424e-02 -3.671413411890823e-02
            4.601768342014985e-02 -3.662401997887647e-02 1.321325229539485e-01 -4.301425989530654e-01 1.006338294890775e-01 1.514034784909055e-02 9.305630229797578e-02 1.122586566358951e-02
            1.322069660442039e-01 -4.301274711671810e-01 4.601563727339857e-02 -3.669212648589312e-02 9.305886304294463e-02 1.117620865994381e-02 1.005551650242734e-01 1.520488203743670e-02
720280000.0000000000 1.086956974673511e-01 -4.164201499795562e-03 1.004324708867198e-01 1.153599200216256e-03 2.921653943068621e-02 -4.968995652922466e-02 -2.354178728681575e-02 -4.488447544248628e-01
            1.003656177652021e-01 1.144990022437681e-03 1.087640911136421e-01 -4.144647675461206e-03 -2.350251038203876e-02 -4.488774823614094e-01 2.919897393688069e-02 -4.975157633438971e-02
            2.918794275191508e-02 -4.965617192349266e-02 -2.357510447486013e-02 -4.488085915209553e-01 1.062472837088296e-01 6.113886194432629e-04 9.839748255219985e-02 -1.315467229018026e-03
            -2.350431200429028e-02 -4.488106372987700e-01 2.916200180891715e-02 -4.961247738437792e-02 9.837145970357482e-02 -1.310868292352179e-03 1.062432070533911e-01 5.375436865773174e-04
721112500.0000000000 1.037964565029484e-01 -1.829301271910731e-02 9.646052434665234e-02 -1.154912838427519e-02 8.964219831205524e-03 -5.659888436928553e-02 -1.761607747620042e-01 -4.137409683937032e-01
            9.645612422149191e-02 -1.161875941095572e-02 1.037303950134974e-01 -1.826071963311391e-02 -1.762525128215597e-01 -4.137514736781200e-01 9.019269326254837e-03 -5.651728774303893e-02
            9.032419911894308e-03 -5.651504423667512e-02 -1.761410266303801e-01 -4.137486632520964e-01 1.010098070810115e-01 -1.433294426514282e-02 9.356336411944587e-02 -1.433048927101755e-02
            -1.761745555113245e-01 -4.138172915786880e-01 8.955308512201702e-03 -5.651260715219912e-02 9.365831538487289e-02 -1.429700864732548e-02 1.010526174058559e-01 -1.436937410432867e-02
721945000.0000000000 9.090899390018874e-02 -2.589916275692398e-02 8.493249135573883e-02 -1.843582743631674e-02 -1.304444135199015e-02 -5.566197229011407e-02 -3.084830020272984e-01 -3.284670103398862e-01
            8.484934385157943e-02 -1.841879249192255e-02 9.092756357839531e-02 -2.587159173587773e-02 -3.085109879648212e-01 -3.285707066882924e-01 -1.305671386806203e-02 -5.576673147320856e-02
            -1.302760493744593e-02 -5.564166431810900e-02 -3.085051300611678e-01 -3.285010155629721e-01 8.741120700650930e-02 -2.261335651085610e-02 8.099350734696115e-02 -2.097700417582523e-02
            -3.085109450198922e-01 -3.285541810555928e-01 -1.309232237399834e-02 -5.567782721261082e-02 8.099394297984219e-02 -2.096190021143900e-02 8.734600995954318e-02 -2.263745741002619e-02
722777500.0000000000 7.637939739020357e-02 -2.323404527843925e-02 7.137742574575083e-02 -1.570980802558633e-02 -3.373091026352407e-02 -4.589304734116817e-02 -4.042321571796237e-01 -2.020219809370024e-01
            7.152430771713315e-02 -1.564398525041761e-02 7.624424437383862e-02 -2.315699918061631e-02 -4.042682270601404e-01 -2.019811219027273e-01 -3.378523306963297e-02 -4.599457149123963e-02
            -3.378950148588353e-02 -4.597695466073790e-02 -4.041619353367527e-01 -2.020823975674759e-01 7.139326681393822e-02 -1.997157000432585e-02 6.637330391173381e-02 -1.754778226732496e-02
            -4.041992414974339e-01 -2.020963164378878e-01 -3.367882244434597e-02 -4.595797285335438e-02 6.640619934372635e-02 -1.764902894211784e-02 7.137328436958952e-02 -1.989910989188221e-02
723610000.0000000000 6.731705341146303e-02 -1.156504096747522e-02 6.311580755522207e-02 -4.499424655294871e-03 -4.874645537469883e-02 -2.824568724623500e-02 -4.499656501429730e-01 -4.897127099919810e-02
            6.310982299245445e-02 -4.411650672020553e-03 6.725986431846395e-02 -1.153848232271823e-02 -4.499242367242751e-01 -4.906161792250192e-02 -4.881969959621322e-02 -2.818744575574209e-02
            -4.875120138803819e-02 -2.824253224193919e-02 -4.499166049679061e-01 -4.898545282374286e-02 6.090718179757009e-02 -7.504545205077866e-03 5.725212209388156e-02 -5.029136101387855e-03
            -4.499486980106486e-01 -4.896957629814350e-02 -4.872171249033787e-02 -2.808907297384058e-02 5.731496669719569e-02 -4.941335105855938e-03 6.088935463862170e-02 -7.471853510301888e-03
724442500.0000000000 6.829019649403666e-02 2.855855653008335e-03 6.461096810284213e-02 9.604290224284277e-03 -5.450470098513119e-02 -6.043177264071801e-03 -4.388151400636497e-01 1.108168647811293e-01
            6.455794859243752e-02 9.661160033910897e-03 6.831574351015018e-02 2.927570956420629e-03 -4.387112664398172e-01 1.107676548351776e-01 -5.454130848534022e-02 -5.993106447099679e-03
            -5.458330434584519e-02 -5.988363140729431e-03 -4.387992485914929e-01 1.107709663386069e-01 6.100472102935101e-02 8.862420202314977e-03 5.847575681403670e-02 1.081094116838027e-02
            -4.387583372926106e-01 1.108944352872379e-01 -5.454598148141294e-02 -5.974524154764802e-03 5.839163780051123e-02 1.080393829997713e-02 6.108627878404933e-02 8.780004659338928e-03
725275000.0000000000 7.867104362799394e-02 1.281252147157752e-02 7.502300794991860e-02 1.928409142049370e-02 -5.060926144649850e-02 1.551261825051557e-02 -3.720421780216485e-01 2.557262225006934e-01
            7.504066507431754e-02 1.927018850849451e-02 7.857778187809845e-02 1.276033235888149e-02 -3.720227371809963e-01 2.557813683385599e-01 -5.058419323182461e-02 1.551143166924434e-02
            -5.060338091152018e-02 1.541002966662680e-02 -3.720390306497398e-01 2.557977609975948e-01 7.170168731418457e-02 2.077322529059961e-02 6.944899119486166e-02 2.224974764621297e-02
            -3.720319961885009e-01 2.558394669485840e-01 -5.068664182916822e-02 1.541368720690125e-02 6.950910717172687e-02 2.223058827322433e-02 7.172510153296770e-02 2.076994608441635e-02
726107500.0000000000 9.288087091647877e-02 1.318629104914920e-02 8.927145143875058e-02 1.955697912154023e-02 -3.949070088763627e-02 3.240723686935279e-02 -2.597818276138986e-01 3.676711927443750e-01
            8.928438298713005e-02 1.945176936385301e-02 9.291786098138674e-02 1.325240836613947e-02 -2.598195309596878e-01 3.675399278509728e-01 -3.935244949262284e-02 3.249600526425791e-02
            -3.938992829877504e-02 3.245977894063697e-02 -2.597881498738542e-01 3.675763635105134e-01 8.718949875407042e-02 2.292727548617907e-02 8.488766549925972e-02 2.377614648166008e-02
            -2.598459797513625e-01 3.675947182424859e-01 -3.942427211957230e-02 3.247505515958295e-02 8.493821062900615e-02 2.377137744951208e-02 8.718319846405606e-02 2.294560203322131e-02
726940000.0000000000 1.036439361116945e-01 3.993305412803932e-03 1.001562531951323e-01 1.041142452390739e-02 -2.384545272794092e-02 4.355729131437503e-02 -1.171355394891780e-01 4.334243764806319e-01
            1.001297387559108e-01 1.038304272571081e-02 1.037051609492291e-01 4.009823172008133e-03 -1.171291304215982e-01 4.334448913492639e-01 -2.388722434672818e-02 4.351821325551335e-02
            -2.390059710125835e-02 4.354820354273825e-02 -1.171557707529350e-01 4.334139243690331e-01 1.000136367567441e-01 1.468464550330742e-02 9.739055439063700e-02 1.529592831222840e-02
            -1.171186027893327e-01 4.334200243745830e-01 -2.388827087056181e-02 4.347022959139852e-02 9.739778743507864e-02 1.529888692712225e-02 1.000130422197353e-01 1.462210123491440e-02
727772500.0000000000 1.057797009687793e-01 -1.016259548398350e-02 1.024476407851561e-01 -3.677270602524327e-03 -6.144575784151235e-03 4.873305148208935e-02 3.866414810398180e-02 4.469498392294590e-01
            1.024227235866316e-01 -3.618494790693010e-03 1.057036143473978e-01 -1.010369178897194e-02 3.862834112982388e-02 4.468377600991559e-01 -6.175571179626660e-03 4.872186665665640e-02
            -6.189406712349448e-03 4.874850827280243e-02 3.864082804855546e-02 4.468787870317845e-01 1.042478271656705e-01 3.394399656257381e-04 1.013365248389831e-01 1.168202547707222e-03
            3.863320222623554e-02 4.468713595346450e-01 -6.201181052577514e-03 4.877713317908664e-02 1.012476192851301e-01 1.156852630150343e-03 1.041820098898622e-01 3.586791244229838e-04
728605000.0000000000 9.786006064270628e-02 -2.235627095299882e-02 9.490687457606614e-02 -1.580682661384761e-02 1.248333898338061e-02 4.784026217634053e-02 1.899094943757723e-01 4.068794621302042e-01
            9.496700993175174e-02 -1.592082961875997e-02 9.786732887654366e-02 -2.231859063068604e-02 1.898933090633714e-01 4.068553656975986e-01 1.253534541963258e-02 4.782715641963921e-02
            1.251466514123559e-02 4.778065358156434e-02 1.899188440822158e-01 4.068644253436917e-01 9.812663471681775e-02 -1.304592194396642e-02 9.491543939896285e-02 -1.175993752606898e-02
            1.898564056115408e-01 4.067994925580281e-01 1.254849796821208e-02 4.777469717742516e-02 9.497964242878804e-02 -1.172331879422219e-02 9.809106392187159e-02 -1.300881594222125e-02
729437500.0000000000 8.358432367380993e-02 -2.649386481733913e-02 8.108675499384561e-02 -2.023460426265849e-02 3.048478271708719e-02 3.995354565919873e-02 3.192683093273283e-01 3.171166204064034e-01
            8.100242309444103e-02 -2.036637005381348e-02 8.355430532891622e-02 -2.655728265205355e-02 3.193085802932794e-01 3.171633140482509e-01 3.050758649465052e-02 3.990009285699299e-02
            3.048125383443582e-02 3.995755662724355e-02 3.192772090118708e-01 3.171399366890874e-01 8.462946623200228e-02 -1.900869620750169e-02 8.172804512205768e-02 -1.716646412728692e-02
            3.192489043727762e-01 3.171428747008084e-01 3.045757811359596e-02 3.994339080526820e-02 8.168049211776242e-02 -1.713437404535544e-02 8.467285527369646e-02 -1.901426600264103e-02
730270000.0000000000 6.961671030426343e-02 -2.020084635140097e-02 6.734559353151806e-02 -1.437692538364363e-02 4.463443713220407e-02 2.476785578483584e-02 4.103295115241866e-01 1.872336385242062e-01
            6.734652539945753e-02 -1.447930868022041e-02 6.963686299846715e-02 -2.025471084227978e-02 4.103052736384972e-01 1.871625005115213e-01 4.463303028082825e-02 2.484848636093966e-02
            4.465597987412621e-02 2.475056564591681e-02 4.103653196139410e-01 1.872254814082908e-01 7.076677485062928e-02 -1.437585256639354e-02 6.807012769397332e-02 -1.229936707378411e-02
            4.103228261604539e-01 1.871836062133710e-01 4.464337599724861e-02 2.487199584973609e-02 6.808668717793151e-02 -1.227166450399614e-02 7.075583185963426e-02 -1.445006902551293e-02
731102500.0000000000 6.307229805326264e-02 -6.009084858011783e-03 6.076478621729087e-02 -7.826746380172095e-04 5.127711575343236e-02 4.335992056616354e-03 4.500610930626675e-01 3.268387527674284e-02
            6.079401952881536e-02 -7.141492967416773e-04 6.300540258821967e-02 -5.964144391842456e-03 4.501561502586687e-01 3.271886353224625e-02 5.133360067467851e-02 4.385825998379353e-03
            5.129263089066267e-02 4.351705877973130e-03 4.500837555389048e-01 3.273906826989807e-02 6.347070929788182e-02 -1.454114815783088e-03 6.117790959257535e-02 7.539677836740829e-04
            4.501658541459364e-01 3.274141851764334e-02 5.127551650134853e-02 4.405546820610584e-03 6.117843626744823e-02 7.309211021958098e-04 6.347506629144703e-02 -1.472893831715483e-03
731935000.0000000000 6.742972738870270e-02 9.270872538053329e-03 6.490577556831460e-02 1.405231926989089e-02 4.826706168595234e-02 -1.707774659176828e-02 4.328261010801856e-01 -1.258903630392274e-01
            6.481998678196754e-02 1.407083445062787e-02 6.740632799323060e-02 9.219340712148758e-03 4.327291235191094e-01 -1.259066721272433e-01 4.827331916360798e-02 -1.699239964847725e-02
            4.831099136965354e-02 -1.703642109738538e-02 4.327814600509233e-01 -1.259275220709905e-01 6.686823870886217e-02 1.300441811863753e-02 6.476632448754800e-02 1.521799345763384e-02
            4.328274714511690e-01 -1.259120342489732e-01 4.827892961817978e-02 -1.700447405042175e-02 6.484374278382714e-02 1.515734392252348e-02 6.685678644689200e-02 1.305555147149890e-02
732767500.0000000000 8.055893500693935e-02 1.796813057796887e-02 7.771634347417532e-02 2.254462174631162e-02 3.663031940185756e-02 -3.441422602484048e-02 3.610928733130473e-01 -2.674848641355912e-01
            7.766080073894155e-02 2.258878830901615e-02 8.062191286688744e-02 1.804865240668040e-02 3.609894049713168e-01 -2.675623065158387e-01 3.664473963797279e-02 -3.444938998584380e-02
            3.663847022640858e-02 -3.446175889729160e-02 3.610631109969601e-01 -2.675344827634041e-01 7.927047949617745e-02 2.156916174983542e-02 7.725269600589890e-02 2.362053081962770e-02
            3.611135499952148e-01 -2.675125982037683e-01 3.663045385251689e-02 -3.451200705998123e-02 7.724093278030542e-02 2.367332224487385e-02 7.925718324407738e-02 2.164484704658269e-02
733600000.0000000000 9.626178205046775e-02 1.626968576743514e-02 9.286219032063529e-02 2.083875764020978e-02 1.988521735231095e-02 -4.509561604400489e-02 2.456933409075990e-01 -3.744616131995958e-01
            9.284349499702338e-02 2.082243232753156e-02 9.626191550188982e-02 1.621354434002173e-02 2.456122469341815e-01 -3.743646359139137e-01 1.991592621310374e-02 -4.507006772780405e-02
            1.995426049046051e-02 -4.518756108081962e-02 2.456561749247419e-01 -3.743750187049786e-01 9.439534211818872e-02 1.975794583333789e-02 9.223760281900152e-02 2.194199749885990e-02
            2.457266793345155e-01 -3.744165016623159e-01 1.998229855637501e-02 -4.512938452782308e-02 9.222274644513283e-02 2.199229883947212e-02 9.441031810306645e-02 1.976886896964132e-02
734432500.0000000000 1.070536544922439e-01 5.107640985931996e-03 1.030046319138436e-01 9.958316042371521e-03 1.548286535983915e-03 -4.865460103693986e-02 1.018496234491122e-01 -4.348359572606308e-01
            1.030873372058836e-01 9.902833714255467e-03 1.070103802131929e-01 5.096504304520933e-03 1.018652675424881e-01 -4.348916219256808e-01 1.581441678636657e-03 -4.871237896804222e-02
            1.549680407880809e-03 -4.869374771992980e-02 1.018959350245630e-01 -4.348609959426081e-01 1.048368623647623e-01 8.347288659583799e-03 1.024061412544526e-01 1.095917514885851e-02
            1.019000439983485e-01 -4.348528756381605e-01 1.584725650454150e-03 -4.862911563801714e-02 1.024534770989202e-01 1.097303169662350e-02 1.048395958660654e-01 8.312682986550747e-03
735265000.0000000000 1.082209503780044e-01 -1.014257436406518e-02 1.040524398042379e-01 -4.790092139746353e-03 -1.635540053768661e-02 -4.610959481778804e-02 -5.324441105471579e-02 -4.431188535988037e-01
            1.040592385713656e-01 -4.786625272813890e-03 1.082946345315629e-01 -1.010049705567553e-02 -5.330904964039590e-02 -4.431481343509969e-01 -1.632242175949136e-02 -4.611491465525461e-02
            -1.631095524941572e-02 -4.607645074662045e-02 -5.331412238483434e-02 -4.431514588285939e-01 1.055250006508748e-01 -7.354956820696282e-03 1.031795999169323e-01 -3.962331894196479e-03
            -5.326900836161031e-02 -4.430761610348112e-01 -1.628947588357998e-02 -4.608520268396740e-02 1.032367216642031e-01 -4.019270067348746e-03 1.055487427859476e-01 -7.436863688686046e-03
736097500.0000000000 9.965609757011164e-02 -2.235883041482887e-02 9.536639492406421e-02 -1.650843887394035e-02 -3.282743036905521e-02 -3.781680760529221e-02 -2.025567898630169e-01 -3.983983855017880e-01
            9.534588955852753e-02 -1.652078520986911e-02 9.972668911862001e-02 -2.244343552515407e-02 -2.024824342277733e-01 -3.984336494044582e-01 -3.275581470622849e-02 -3.770610084573798e-02
            -3.284595436409569e-02 -3.775054843370265e-02 -2.024649318586874e-01 -3.984353350002569e-01 9.598225667545196e-02 -2.028505589173743e-02 9.402278310255978e-02 -1.596407642809938e-02
            -2.024007044087212e-01 -3.983426072355796e-01 -3.289255221478458e-02 -3.771195353954106e-02 9.399044494280361e-02 -1.604095830380985e-02 9.585993024425772e-02 -2.028476752752939e-02
736930000.0000000000 8.527918370615703e-02 -2.624054972150707e-02 8.109774267220449e-02 -1.962379368544389e-02 -4.623010458583313e-02 -2.339481628714178e-02 -3.282833065623901e-01 -3.047441393988001e-01
            8.114926114289579e-02 -1.973016900839922e-02 8.541898128517397e-02 -2.620716364815268e-02 -3.283024813756950e-01 -3.048173563935050e-01 -4.621118106607446e-02 -2.344994087842213e-02
            -4.622528747668456e-02 -2.338756706566177e-02 -3.282324432063132e-01 -3.047352553430858e-01 8.009504997921470e-02 -2.413048154093258e-02 7.902405224804798e-02 -1.915802564942909e-02
            -3.283214920381385e-01 -3.047756016601694e-01 -4.623006091160056e-02 -2.339541625539066e-02 7.912712048567526e-02 -1.919680514191914e-02 8.001972186653079e-02 -2.422026707855603e-02
737762500.0000000000 7.224518582244542e-02 -1.982879631327972e-02 6.843591761088207e-02 -1.269758285608605e-02 -5.366735049837956e-02 -3.697687430920300e-03 -4.145374502026077e-01 -1.722094541557343e-01
            6.848993270405565e-02 -1.275084875046931e-02 7.229254540976325e-02 -1.984178341087410e-02 -4.144234721547176e-01 -1.722488984733678e-01 -5.369495644488478e-02 -3.685427520065558e-03
            -5.367508679513695e-02 -3.711359277045864e-03 -4.144550396905300e-01 -1.722637468270113e-01 6.535287945876705e-02 -1.710833763086651e-02 6.545239208893398e-02 -1.176955007912306e-02
            -4.144789632429043e-01 -1.722539728692606e-01 -5.375815753458239e-02 -3.673076213546815e-03 6.541437199198785e-02 -1.173580290957123e-02 6.521820833595822e-02 -1.710707482019529e-02
738595000.0000000000 6.693802861772986e-02 -6.505968147547522e-03 6.380571792690887e-02 9.176792207088917e-04 -5.229407121465884e-02 1.865459409951714e-02 -4.486031714604104e-01 -1.721345651123005e-02
            6.386509919032293e-02 1.018282458553669e-03 6.688323719046955e-02 -6.431170754718719e-03 -4.486313520756167e-01 -1.724075201067115e-02 -5.227078279496337e-02 1.871477996122399e-02
            -5.224487134783253e-02 1.859037027596962e-02 -4.486494544239598e-01 -1.719904220154487e-02 5.856211097571184e-02 -2.402497030973587e-03 5.999547199050801e-02 3.077718544007138e-03
            -4.486480574566683e-01 -1.714910498927457e-02 -5.226485957915233e-02 1.870961705648193e-02 5.998424769980488e-02 2.957413474031692e-03 5.842757880943134e-02 -2.457024338748419e-03
739427500.0000000000 7.184841450227467e-02 6.698218167076842e-03 6.949869749781393e-02 1.420251483332543e-02 -4.109646585262181e-02 3.882273833217809e-02 -4.257903372107043e-01 1.397899956086613e-01
            6.956501773557013e-02 1.419227067326904e-02 7.185841248933342e-02 6.711454257176347e-03 -4.257760155848921e-01 1.398660314445308e-01 -4.118149499992724e-02 3.882738481407283e-02
            -4.108450139656607e-02 3.884387971678450e-02 -4.258011638058176e-01 1.397992062373029e-01 6.284022208186660e-02 1.278757988179502e-02 6.557881120384636e-02 1.776923515180907e-02
            -4.257860342181207e-01 1.398135726618069e-01 -4.099361672320040e-02 3.885328511831661e-02 6.564367418135507e-02 1.780656169693847e-02 6.282606396618967e-02 1.286326579108974e-02
740260000.0000000000 8.410307453532527e-02 1.298001833024939e-02 8.270903270383025e-02 2.015410730867649e-02 -2.239193854027996e-02 5.227238591985556e-02 -3.497053683819974e-01 2.779636875899482e-01
            8.269784945997030e-02 2.022558889796877e-02 8.414530856887240e-02 1.294289167673154e-02 -3.496675428844271e-01 2.778963493537705e-01 -2.241937660943950e-02 5.221358951823978e-02
            -2.246497444701413e-02 5.223233016036223e-02 -3.497199540396172e-01 2.778590407182988e-01 7.575589430557192e-02 2.111832589762999e-02 7.935552538554151e-02 2.535131222234660e-02
            -3.497813840784967e-01 2.779368399485066e-01 -2.239574291420131e-02 5.231382237781630e-02 7.932649170693060e-02 2.530702753463838e-02 7.581058717794355e-02 2.105767546862392e-02
741092500.0000000000 9.726093484820449e-02 9.426917906551204e-03 9.657678475353382e-02 1.604331486243173e-02 -7.062617651112192e-04 5.686441830799259e-02 -2.316244754002790e-01 3.801665519379462e-01
            9.661070373128462e-02 1.601641097872168e-02 9.731187364898691e-02 9.387950912945947e-03 -2.315977199690410e-01 3.801542403578782e-01 -7.023992990842372e-04 5.692590291145385e-02
            -6.421593797786740e-04 5.692459696495269e-02 -2.316544675280691e-01 3.801692959283478e-01 9.030287342460808e-02 1.892691213309035e-02 9.450179427217581e-02 2.218384455548627e-02
            -2.317107851455183e-01 3.801758639957510e-01 -7.498851931648045e-04 5.682360902319137e-02 9.453433502754939e-02 2.221711410273484e-02 9.031790803055245e-02 1.877508051623852e-02
741925000.0000000000 1.047332470268193e-01 -1.952618613588993e-03 1.043785731336256e-01 3.658331986631004e-03 2.043319156580631e-02 5.327861686642992e-02 -8.677922094950659e-02 4.356126468839060e-01
            1.043536231399029e-01 3.652879475352617e-03 1.047495309464177e-01 -1.927652390280723e-03 -8.677350981019898e-02 4.355782798270353e-01 2.045431144041511e-02 5.326722492808136e-02
            2.041650454131860e-02 5.332036567332023e-02 -8.680388441377211e-02 4.355518855257932e-01 9.939420042963523e-02 7.684706668167340e-03 1.038783353769472e-01 1.030159694409978e-02
            -8.680351783477405e-02 4.355298269288443e-01 2.042779805049160e-02 5.326090905859306e-02 1.039164971813404e-01 1.035291587870027e-02 9.933309081254954e-02 7.652498780608003e-03
742757500.0000000000 1.027059109907892e-01 -1.541899124367822e-02 1.023099307432099e-01 -1.081959598310704e-02 3.875391829767650e-02 4.295040350704210e-02 6.789168508052211e-02 4.387033903690293e-01
            1.022541938126612e-01 -1.076453205986824e-02 1.028102601896039e-01 -1.544988123548661e-02 6.789498151306385e-02 4.387381473584632e-01 3.875054298786781e-02 4.297263235533351e-02
            3.871774018560759e-02 4.295376149425148e-02 6.793215013639396e-02 4.387911397060139e-01 9.867039341626145e-02 -6.722198587928654e-03 1.033607172344439e-01 -4.548589808231238e-03
            6.795408016159801e-02 4.387382066832935e-01 3.871587476641190e-02 4.292446157548500e-02 1.034178323516720e-01 -4.578774977430647e-03 9.867479440526815e-02 -6.659002991486703e-03
743590000.0000000000 9.240529172274235e-02 -2.443414729660601e-02 9.125139841495637e-02 -2.071520648650272e-02 5.304535155794665e-02 2.700169545525273e-02 2.150291952212607e-01 3.890319990727652e-01
            9.112012499641677e-02 -2.064877535342313e-02 9.237233663655178e-02 -2.436401194389597e-02 2.149787510274425e-01 3.891068082868226e-01 5.301506915735407e-02 2.694492464861386e-02
            5.301359772989450e-02 2.688836895398986e-02 2.149231181210940e-01 3.890750102450000e-01 8.839957325908271e-02 -1.709590341661552e-02 9.353951114147945e-02 -1.550354798679776e-02
            2.149296116850829e-01 3.891645804191985e-01 5.307809432931465e-02 2.698234760085325e-02 9.350488240465503e-02 -1.552190540597549e-02 8.839840378181449e-02 -1.705670319568739e-02
744422500.0000000000 7.844360891895601e-02 -2.436064580047539e-02 7.626540473754750e-02 -2.102328245315515e-02 6.164573376319255e-02 5.936467122473914e-03 3.369171353017954e-01 2.913252737918927e-01
            7.624162250236868e-02 -2.097501180146060e-02 7.842466311990356e-02 -2.436487084189945e-02 3.369735702608096e-01 2.912705412820827e-01 6.170202864430597e-02 5.990238436370103e-03
            6.161470510762732e-02 5.914208469767332e-03 3.368926794724453e-01 2.913148526295051e-01 7.336664964412241e-02 -1.811362820208794e-02 7.897943218704181e-02 -1.703965677990502e-02
            3.369967675720679e-01 2.913162602996783e-01 6.164250099765708e-02 6.040180382452985e-03 7.905507034793638e-02 -1.706692797216582e-02 7.336705564237735e-02 -1.807815069811248e-02
745255000.0000000000 6.794904977222867e-02 -1.483300405908614e-02 6.458408171915282e-02 -1.139096297764042e-02 6.189917003794956e-02 -1.840008687693883e-02 4.175453614523354e-01 1.562368749720823e-01
            6.450203585661066e-02 -1.142703845465238e-02 6.786003236871614e-02 -1.488903362721467e-02 4.175704041166417e-01 1.562181487976498e-01 6.185687116517099e-02 -1.837582392676191e-02
            6.192455507845730e-02 -1.830606126792918e-02 4.176131414950338e-01 1.563203031720103e-01 6.115243081478832e-02 -8.758245410443165e-03 6.723378499133960e-02 -8.508369001447046e-03
            4.175748690437989e-01 1.562883427100412e-01 6.189072723132738e-02 -1.833960886758329e-02 6.718862168415693e-02 -8.589779895349973e-03 6.114515240408177e-02 -8.756307961524662e-03
746087500.0000000000 6.637441298778410e-02 -5.834919297195355e-04 6.204469946108384e-02 3.636451882814602e-03 5.187382868149925e-02 -4.226065333497067e-02 4.456516370329686e-01 1.016162450713924e-03
            6.205297857629645e-02 3.673745496071785e-03 6.632216727945996e-02 -5.879088739176915e-04 4.456032491849788e-01 1.055018983427024e-03 5.185817278374225e-02 -4.224162515373867e-02
            5.182766266233080e-02 -4.224056175243936e-02 4.455493153374405e-01 9.698097147360101e-04 5.775049405829689e-02 6.495202320784568e-03 6.428469600783668e-02 5.856486366915844e-03
            4.455734509200961e-01 1.068712196301111e-03 5.187300751573300e-02 -4.222808497016734e-02 6.432379276214739e-02 5.835174674500374e-03 5.776383911690897e-02 6.525068619962372e-03
746920000.0000000000 7.482332746116620e-02 1.112665711259742e-02 7.005921452156368e-02 1.663938321737095e-02 3.218451648405450e-02 -6.053400695404126e-02 4.168999843397820e-01 -1.535658156895328e-01
            7.015408710188954e-02 1.667895180808351e-02 7.482371293771573e-02 1.108609928632772e-02 4.169015902717823e-01 -1.536092951146640e-01 3.221945949007525e-02 -6.045201218797294e-02
            3.224524767515927e-02 -6.049539300415797e-02 4.169243862890824e-01 -1.536291377350746e-01 6.515209319415149e-02 2.039998835165036e-02 7.176375164503365e-02 1.838532804124490e-02
            4.169125956557329e-01 -1.536708543816170e-01 3.221504837272668e-02 -6.049775183351126e-02 7.181450800956356e-02 1.843724338297716e-02 6.523381652930620e-02 2.034547355159203e-02
747752500.0000000000 8.882818036244257e-02 1.431716928101935e-02 8.459221994261963e-02 2.119271632355498e-02 6.706905153632006e-03 -6.900937456001749e-02 3.366577787002586e-01 -2.873256867628899e-01
            8.462320373918485e-02 2.127485412480783e-02 8.886661676245687e-02 1.430495541897677e-02 3.366921452023236e-01 -2.872820204440169e-01 6.651615757466383e-03 -6.905327241517432e-02
            6.712170961340526e-03 -6.908067256279275e-02 3.366847777096453e-01 -2.873442363139683e-01 7.969677486982868e-02 2.596729900870775e-02 8.596753048697699e-02 2.273651453055963e-02
            3.366513504403104e-01 -2.873091334051652e-01 6.674396231274608e-03 -6.910005279084012e-02 8.600691961944730e-02 2.270966513404251e-02 7.958256885533657e-02 2.604926350018106e-02
748585000.0000000000 1.016680858341029e-01 7.445576951658377e-03 9.841791667440072e-02 1.537179506608915e-02 -1.961142734918483e-02 -6.703676429369243e-02 2.163654961463222e-01 -3.842553782287679e-01
            9.849843678386827e-02 1.539729913671331e-02 1.016904656151513e-01 7.432899626611145e-03 2.163807458696955e-01 -3.842255078810069e-01 -1.966185451552343e-02 -6.700551316649409e-02
            -1.959939093546336e-02 -6.701604459669847e-02 2.163693657387286e-01 -3.842428584811448e-01 9.389470996170229e-02 2.090532266585770e-02 9.954265745242161e-02 1.658882103604008e-02
            2.162857564690961e-01 -3.842500153994536e-01 -1.956414214937608e-02 -6.696957137668208e-02 9.953892518600947e-02 1.650582632484163e-02 9.389543803144215e-02 2.100031977401902e-02
749417500.0000000000 1.070463664810024e-01 -5.950771392594555e-03 1.053528173438099e-01 2.238449366217653e-03 -4.267743850472336e-02 -5.579099433698208e-02 7.129103054912379e-02 -4.341786228129311e-01
            1.053795816996639e-01 2.206495543531418e-03 1.070636303877446e-01 -5.913040284962717e-03 7.127806067233808e-02 -4.342542307881770e-01 -4.274709766545413e-02 -5.586888061706322e-02
            -4.279920598463345e-02 -5.590781477888845e-02 7.138881510250580e-02 -4.343088360928735e-01 1.014865139298340e-01 8.107639990203757e-03 1.060370877931521e-01 2.781135411189445e-03
            7.127793780145179e-02 -4.343157794870868e-01 -4.274292004438534e-02 -5.588321097384755e-02 1.061110162586902e-01 2.712944349279843e-03 1.014499341707071e-01 8.147594172725528e-03
750250000.0000000000 1.025352881604520e-01 -1.986971991625425e-02 1.024076891337396e-01 -1.209373535506364e-02 -6.066249500352868e-02 -3.789926189710151e-02 -8.202715663222515e-02 -4.323806829859194e-01
            1.023705154646082e-01 -1.212613752239930e-02 1.026100468679527e-01 -1.980246451118359e-02 -8.199636893252638e-02 -4.323813186486766e-01 -6.057469597203174e-02 -3.787188109053130e-02
            -6.062029591602022e-02 -3.794264664388464e-02 -8.202509977101567e-02 -4.322913602315988e-01 9.875582648494095e-02 -6.429625839581721e-03 1.021546001903980e-01 -1.227527341153452e-02
            -8.199879730466543e-02 -4.323676381627219e-01 -6.060034825652643e-02 -3.790253954837068e-02 1.022184467816552e-01 -1.222925608320082e-02 9.872076507435069e-02 -6.430872961588223e-03
751082500.0000000000 9.022643698092794e-02 -2.758108214134492e-02 9.117974633336905e-02 -2.105557506898008e-02 -7.196664685060065e-02 -1.474084113877327e-02 -2.261397888196831e-01 -3.782801603743159e-01
            9.116811209383442e-02 -2.107911448538764e-02 9.017774271162855e-02 -2.756143614498549e-02 -2.260423533222325e-01 -3.782208338510535e-01 -7.200171540058553e-02 -1.479626024379955e-02
            -7.201644520799390e-02 -1.475162613080809e-02 -2.262235859423162e-01 -3.782183932487054e-01 8.711594058365206e-02 -1.568538762559416e-02 8.952557596629193e-02 -2.158468570437788e-02
            -2.261675837645906e-01 -3.781762709492651e-01 -7.199722493037945e-02 -1.480661055529614e-02 8.944714711917726e-02 -2.156725745636068e-02 8.712822658362498e-02 -1.569475678635996e-02
751915000.0000000000 7.574357682022863e-02 -2.541986417010401e-02 7.707321199453450e-02 -2.060751990064359e-02 -7.528593850969932e-02 1.218204560051628e-02 -3.436541290493774e-01 -2.770973844505951e-01
            7.712689256084276e-02 -2.060550614798991e-02 7.581380217679713e-02 -2.539057190915136e-02 -3.436337747790519e-01 -2.769726335497075e-01 -7.521467714804640e-02 1.206986027603821e-02
            -7.527913281635540e-02 1.218585044067807e-02 -3.436682000381008e-01 -2.770877853831272e-01 7.200406649991505e-02 -1.509854452996192e-02 7.342649481746567e-02 -2.090588366610528e-02
            -3.437321270220344e-01 -2.770268263373452e-01 -7.523192227732778e-02 1.213146253042067e-02 7.340859625853235e-02 -2.068256071925629e-02 7.195745293383433e-02 -1.506993967571250e-02
752747500.0000000000 6.635326449578768e-02 -1.429267015439919e-02 6.722829125340010e-02 -1.112427112397322e-02 -6.825046312031696e-02 4.029997014774108e-02 -4.188499161036495e-01 -1.403174490220805e-01
            6.724686417281642e-02 -1.117068169608522e-02 6.630301956702955e-02 -1.434509410417185e-02 -4.188944101161087e-01 -1.403378556035577e-01 -6.830877116439227e-02 4.034438921490303e-02
            -6.833509484102364e-02 4.027832189105814e-02 -4.188283691683495e-01 -1.402612602628301e-01 6.090603263849782e-02 -4.569899387122205e-03 6.155999501902172e-02 -9.915478812256826e-03
            -4.188923442302888e-01 -1.403248061341305e-01 -6.825925409990743e-02 4.035955072556885e-02 6.151547095747400e-02 -9.976159696727386e-03 6.092174341028812e-02 -4.524188098706166e-03
753580000.0000000000 6.672753592735496e-02 2.143438187482754e-04 6.656936389915626e-02 2.234499360986907e-03 -4.993170109577598e-02 6.506338109594577e-02 -4.409099356788240e-01 1.440138504573156e-02
            6.656418666924516e-02 2.394333621614029e-03 6.675778899816574e-02 2.521323912754293e-04 -4.409574892057207e-01 1.437237901703730e-02 -4.997878750399776e-02 6.497101847628618e-02
            -5.002033058879902e-02 6.507202964643517e-02 -4.408754463501284e-01 1.429994566339404e-02 5.952757001846026e-02 1.087157158558168e-02 5.949723315899082e-02 5.863036988326418e-03
            -4.408956157806594e-01 1.433216034250405e-02 -5.001700148046812e-02 6.493310859233470e-02 5.947000033551078e-02 5.829179516049893e-03 5.947630251106530e-02 1.079831622622939e-02
754412500.0000000000 7.682369281947529e-02 1.079503869411292e-02 7.514576576672510e-02 1.232859023253625e-02 -2.250794522443048e-02 8.097968785438632e-02 -4.071102409624003e-01 1.662446670470857e-01
            7.516727196341379e-02 1.240412686641423e-02 7.666655963017735e-02 1.078084502625845e-02 -4.071078553549288e-01 1.662028987621923e-01 -2.249737966561525e-02 8.093409317389709e-02
            -2.258270040123085e-02 8.092329243739665e-02 -4.070936877026863e-01 1.661720120409114e-01 6.849824229322643e-02 2.326015932172714e-02 6.786469520580994e-02 1.871868306647213e-02
            -4.071113683096045e-01 1.661806926782688e-01 -2.251782057180486e-02 8.093035296768171e-02 6.796322788218891e-02 1.875231659055475e-02 6.843931964476520e-02 2.319272440185793e-02
755245000.0000000000 9.125120056464982e-02 1.212135940808170e-02 8.839868231236112e-02 1.380925326323302e-02 9.307814295356690e-03 8.466452163792244e-02 -3.232060313749208e-01 2.954873421952273e-01
            8.829614617127134e-02 1.389689479552329e-02 9.114708245412045e-02 1.224447859163556e-02 -3.231617336147581e-01 2.954995521428835e-01 9.336036314853070e-03 8.467716236953426e-02
            9.388775996829284e-03 8.464389885090208e-02 -3.231691695919190e-01 2.955214708988994e-01 8.333220442880036e-02 2.663788753125543e-02 8.222233811945992e-02 2.279102950853707e-02
            -3.232123942937843e-01 2.955329923302853e-01 9.293935666201006e-03 8.467478525859116e-02 8.226879839398907e-02 2.273814225202297e-02 8.319510686832822e-02 2.649779826011130e-02
756077500.0000000000 1.032260408445263e-01 3.743341420730969e-03 9.930842340626300e-02 6.014234408442955e-03 3.984180257768914e-02 7.610418910910689e-02 -2.011421263418718e-01 3.873183519974522e-01
            9.940448403847751e-02 5.920133572028388e-03 1.032464954123067e-01 3.735412379243389e-03 -2.010775086554734e-01 3.873173139062833e-01 3.982921887722794e-02 7.603343821893603e-02
            3.980971644046884e-02 7.614824681668762e-02 -2.011104707742109e-01 3.873303160419941e-01 9.641354602605900e-02 1.934946702265933e-02 9.517620132536880e-02 1.629384113525150e-02
            -2.010927130306052e-01 3.873366202076119e-01 3.981713360672097e-02 7.613888250597493e-02 9.505034529828574e-02 1.628786517870070e-02 9.644547202206410e-02 1.934402769378244e-02
756910000.0000000000 1.072576151211621e-01 -1.042156584626851e-02 1.027400057822597e-01 -7.489836017527129e-03 6.482726689167341e-02 5.771605652470400e-02 -5.588267078055523e-02 4.320426425579818e-01
            1.028189734148486e-01 -7.451595376730971e-03 1.072941387764406e-01 -1.031752400894372e-02 -5.590338239837157e-02 4.320302233927511e-01 6.481126042557250e-02 5.758795785849938e-02
            6.480032785623219e-02 5.761998183734480e-02 -5.589821375265863e-02 4.320419700108088e-01 1.016290761184738e-01 5.051589635171604e-03 1.004038365655996e-01 3.005075332038793e-03
            -5.592472903230956e-02 4.320343035747207e-01 6.482579667361250e-02 5.760000033554012e-02 1.003576394516074e-01 3.072788825169426e-03 1.017176833396096e-01 4.988793160231366e-03
757742500.0000000000 1.018064986055500e-01 -2.374448456311970e-02 9.702869669950577e-02 -2.017412651698152e-02 8.201565262262817e-02 3.211596781070618e-02 9.587998191985443e-02 4.249997472910148e-01
            9.701804524603319e-02 -2.024787798232179e-02 1.018106805049525e-01 -2.384057049993126e-02 9.594198238377698e-02 4.249430124603791e-01 8.200019778196545e-02 3.209416889360426e-02
            8.203853570452967e-02 3.204920174394375e-02 9.582918117351771e-02 4.250258131261341e-01 9.613899119567720e-02 -9.650785310364365e-03 9.527243001578466e-02 -1.067330039424024e-02
            9.584854919127474e-02 4.249889613412143e-01 8.207000901663375e-02 3.210250149650173e-02 9.517343557515123e-02 -1.066416339912754e-02 9.608615015793479e-02 -9.707023947444807e-03
758575000.0000000000 8.974796908670490e-02 -3.078035638826091e-02 8.464728697777056e-02 -2.664222365305382e-02 9.040158572280735e-02 1.768280421844531e-03 2.367728447855946e-01 3.663719983092784e-01
            8.456380391445054e-02 -2.669039831813532e-02 8.968574126348611e-02 -3.075308664248350e-02 2.368297758660706e-01 3.664433596471338e-01 9.036420389836683e-02 1.756558058145279e-03
            9.028035829885141e-02 1.792796245188636e-03 2.367734144207019e-01 3.663902474723803e-01 8.185026608833459e-02 -1.789070736790373e-02 8.177822852032221e-02 -1.794731464345241e-02
            2.368259419623947e-01 3.664319591896931e-01 9.025593832660754e-02 1.830394150353924e-03 8.180438665986432e-02 -1.791584314855698e-02 8.190842101807784e-02 -1.794620366163999e-02
759407500.0000000000 7.679060225214038e-02 -2.868346740616878e-02 7.151313568587778e-02 -2.415374339352181e-02 8.796527123893803e-02 -3.099238893783812e-02 3.494840459857818e-01 2.619522681597677e-01
            7.147647017330859e-02 -2.420636821611038e-02 7.674345207700545e-02 -2.864875266031533e-02 3.495648919359012e-01 2.619806862966529e-01 8.791450542600443e-02 -3.098767333482170e-02
            8.797962205178493e-02 -3.093039345372190e-02 3.495226406250147e-01 2.619680271390152e-01 6.470015679172712e-02 -1.529470413873073e-02 6.594089421113372e-02 -1.489347120370199e-02
            3.494820469503378e-01 2.619886154980547e-01 8.786669140580457e-02 -3.098699656476193e-02 6.591265129046418e-02 -1.483745840109427e-02 6.469806302297886e-02 -1.527311941451953e-02
760240000.0000000000 6.925134151471248e-02 -1.959348351710797e-02 6.371622669938111e-02 -1.441408573349109e-02 7.349362588014249e-02 -6.247178345712203e-02 4.189089259007800e-01 1.239819461062066e-01
            6.368500353201423e-02 -1.453011573232026e-02 6.938759337684038e-02 -1.965499374029199e-02 4.189346217879872e-01 1.239896168187413e-01 7.355622316699756e-02 -6.246159240328780e-02
            7.350385418910022e-02 -6.241960895833283e-02 4.188687287994926e-01 1.239131185149590e-01 5.218837958844733e-02 -2.413093354968999e-03 5.474903805829917e-02 -2.090500267609862e-03
            4.188498068250128e-01 1.239120279225237e-01 7.352048600118967e-02 -6.251427584293145e-02 5.479444478494128e-02 -2.084612547776564e-03 5.207803679712555e-02 -2.457475412217497e-03
761072500.0000000000 7.036253472675144e-02 -9.425390935490533e-03 6.447825224519796e-02 -3.540678822963143e-03 4.705526147330639e-02 -8.747563587477690e-02 4.351314056198463e-01 -2.962611138272206e-02
            6.449811673329277e-02 -3.553679083353260e-03 7.033916104946256e-02 -9.426698827488525e-03 4.351291802588528e-01 -2.958292252730574e-02 4.703097996476576e-02 -8.741717689002194e-02
            4.711794225079075e-02 -8.751673485435048e-02 4.350398470237786e-01 -2.964370277213528e-02 4.945329335856002e-02 1.557015227595228e-02 5.349067846913050e-02 1.522032457717217e-02
            4.350367684966893e-01 -2.960015299561480e-02 4.700790770794682e-02 -8.748865503557590e-02 5.351170043534606e-02 1.516705113779834e-02 4.950616943531320e-02 1.558447368435352e-02
761905000.0000000000 7.820671056804979e-02 -4.676940268441518e-03 7.222931280805851e-02 2.360214536085405e-03 1.199933401902326e-02 -1.007975468568246e-01 3.963415471539022e-01 -1.783460267478711e-01
            7.235936954523906e-02 2.356179460253818e-03 7.818740360961333e-02 -4.679484170559593e-03 3.963675680529335e-01 -1.783262582960319e-01 1.199573251671333e-02 -1.008691536427889e-01
            1.196020746447768e-02 -1.008114258726131e-01 3.963305380828251e-01 -1.782890657225869e-01 5.740691015289840e-02 3.127419253909718e-02 6.239884748540538e-02 2.968824295570468e-02
            3.963021559216132e-01 -1.783057641273731e-01 1.198859130374016e-02 -1.007596717094021e-01 6.233484007163441e-02 2.957174529459056e-02 5.739415062715855e-02 3.122799109328951e-02
762737500.0000000000 8.662776775390993e-02 -8.570343704351703e-03 8.128106044231080e-02 -4.458890206045150e-04 -2.582886709837355e-02 -9.981055309191524e-02 3.090266210250173e-01 -3.033346543737743e-01
            8.121852197301045e-02 -4.640211751722433e-04 8.667877854945547e-02 -8.641209079375283e-03 3.090639154615362e-01 -3.032863503757471e-01 -2.583093257042695e-02 -9.981416630606531e-02
            -2.592404977297837e-02 -9.980491879635482e-02 3.090294021447758e-01 -3.032301032938453e-01 7.170660988086454e-02 3.906868938024603e-02 7.694371354771670e-02 3.612399667624316e-02
            3.090586591413391e-01 -3.033462821963774e-01 -2.592161787458787e-02 -9.983732019258514e-02 7.691622512997344e-02 3.611629012437576e-02 7.160749390371270e-02 3.913829851280110e-02
763570000.0000000000 8.936671345236200e-02 -1.930241785853061e-02 8.484739339804043e-02 -1.043686744541884e-02 -6.073020497602711e-02 -8.497163591712381e-02 1.849521128020635e-01 -3.900283109661524e-01
            8.491849650786990e-02 -1.036060798779093e-02 8.929952023586217e-02 -1.932081222079483e-02 1.850107192476896e-01 -3.900213686087108e-01 -6.068120296232519e-02 -8.498343335603815e-02
            -6.070789100411902e-02 -8.499028310679327e-02 1.849988977412018e-01 -3.900242483474935e-01 8.585074055010058e-02 3.783569734193932e-02 9.068517136755611e-02 3.342332179870570e-02
            1.849888518834293e-01 -3.900652533422366e-01 -6.074168721321332e-02 -8.487299819490329e-02 9.072288415194070e-02 3.338700744556591e-02 8.576521076049731e-02 3.784310336981608e-02
764402500.0000000000 8.213322209958610e-02 -3.113754907542574e-02 7.898756878190043e-02 -2.184791080334344e-02 -8.796770717160156e-02 -5.887368955039936e-02 3.929755993951087e-02 -4.290916821529954e-01
            7.893908320429049e-02 -2.187986442441066e-02 8.217078897163506e-02 -3.114947804338403e-02 3.931799223778958e-02 -4.291391113913752e-01 -8.785650439161719e-02 -5.895278388701316e-02
            -8.790010538955524e-02 -5.886337042697335e-02 3.931033944247273e-02 -4.290502309936270e-01 9.453421275910227e-02 3.031073147863603e-02 9.879807692046792e-02 2.505886709689796e-02
            3.937732556546118e-02 -4.291301281440350e-01 -8.790557419439536e-02 -5.885934553478518e-02 9.879103218195315e-02 2.505054945007937e-02 9.457648852908850e-02 3.032220317183102e-02
765235000.0000000000 6.615255149897058e-02 -3.683244327669993e-02 6.432739821875598e-02 -2.794717270815231e-02 -1.047882779123671e-01 -2.483721038453300e-02 -1.110099985600459e-01 -4.161110777465920e-01
            6.436040007009844e-02 -2.786862901590039e-02 6.623777298558382e-02 -3.684259517915523e-02 -1.110615303997479e-01 -4.160854145778300e-01 -1.047928355105230e-01 -2.488689357908347e-02
            -1.048169770344852e-01 -2.487780523563408e-02 -1.110148034820136e-01 -4.160846166490046e-01 9.621296939337501e-02 2.201120380740294e-02 9.946749165858665e-02 1.629979139647559e-02
            -1.110419061712298e-01 -4.161061009947199e-01 -1.048570173008907e-01 -2.486258744493275e-02 9.949268168111268e-02 1.634086202335842e-02 9.622990550448730e-02 2.195971187820126e-02
766067500.0000000000 4.730025263745204e-02 -3.110443418963153e-02 4.620279047904482e-02 -2.300318958502902e-02 -1.094116000851756e-01 1.381509850599071e-02 -2.482043452009412e-01 -3.517429892644044e-01
            4.622792714301827e-02 -2.309373235635498e-02 4.728043195367799e-02 -3.107489400499525e-02 -2.482498709987438e-01 -3.517072982706166e-01 -1.093430552283699e-01 1.381637568875576e-02
            -1.093809580045955e-01 1.385576120102724e-02 -2.481439688217641e-01 -3.516769808181220e-01 9.267665226808600e-02 1.765630673814604e-02 9.526889213247340e-02 1.205760903478800e-02
            -2.481702757319608e-01 -3.517231535465132e-01 -1.093331968145996e-01 1.379561751430227e-02 9.534993166481258e-02 1.199015556766803e-02 9.271088398692430e-02 1.764187354616906e-02
766900000.0000000000 3.338121442161832e-02 -1.349311585457599e-02 3.255784033495319e-02 -6.637883799938460e-03 -9.977347081442688e-02 5.315938783113883e-02 -3.544622632497035e-01 -2.433131130417428e-01
            3.251800829993074e-02 -6.639421149684015e-03 3.350155247122996e-02 -1.346730894126313e-02 -3.545544579195822e-01 -2.432885949310043e-01 -9.970859472095116e-02 5.318118490816556e-02
            -9.982305082239026e-02 5.315044436907063e-02 -3.545169774635166e-01 -2.432337094678682e-01 8.894172605671898e-02 1.936806106025244e-02 9.129321338199348e-02 1.396097208263273e-02
            -3.544895517287551e-01 -2.432890605113487e-01 -9.975321133887222e-02 5.326837032321028e-02 9.124867599108491e-02 1.406005340229849e-02 8.896707658200984e-02 1.936155496597242e-02
767732500.0000000000 3.193354921193532e-02 1.042195570444760e-02 3.050931617188331e-02 1.620179251174607e-02 -7.552919225559876e-02 8.763123002007422e-02 -4.156564245141743e-01 -1.045117118847451e-01
            3.044801265559314e-02 1.623878170919265e-02 3.189688363353335e-02 1.045619404322640e-02 -4.156962814626246e-01 -1.044896858304250e-01 -7.550086650153637e-02 8.758014102820694e-02
            -7.550455407653182e-02 8.754629770363700e-02 -4.156890529233507e-01 -1.044690421352628e-01 8.989717771638435e-02 2.516095710456093e-02 9.216837588875415e-02 1.990325864158730e-02
            -4.156563408239310e-01 -1.045227290113113e-01 -7.553780746291364e-02 8.753617731226107e-02 9.222635702262635e-02 1.996344901789143e-02 8.995014227442080e-02 2.515320201669420e-02
768565000.0000000000 4.441578848076198e-02 3.172054771056732e-02 4.199309178165991e-02 3.695275875411285e-02 -3.912251263989072e-02 1.107846816326469e-01 -4.241345978985405e-01 4.592988697100784e-02
            4.192905370072748e-02 3.699292801405880e-02 4.441635249876061e-02 3.166640627827318e-02 -4.240684158368084e-01 4.588905141205415e-02 -3.918388740328781e-02 1.108394125168626e-01
            -3.916991270094109e-02 1.108354406932124e-01 -4.240941828159789e-01 4.591420944746329e-02 9.723598650245498e-02 2.993962479578641e-02 9.969915155187913e-02 2.471981893662364e-02
            -4.241361085345216e-01 4.596215394899664e-02 -3.913422830996614e-02 1.108490780382176e-01 9.969572237578571e-02 2.477450125848558e-02 9.721459018889135e-02 2.991039881518432e-02
769397500.0000000000 6.635925573346747e-02 4.205414772115967e-02 6.275938242827188e-02 4.767716105789151e-02 3.745542997514629e-03 1.184885118497758e-01 -3.802583725378137e-01 1.882937303735498e-01
            6.278525879151513e-02 4.760870477106725e-02 6.645808461273330e-02 4.214367056217259e-02 -3.802277780516131e-01 1.882677596826281e-01 3.673400041502418e-03 1.184913594963020e-01
            3.669906429198479e-03 1.185422039722346e-01 -3.802635226759857e-01 1.884033857554968e-01 1.087220830668154e-01 2.874372408786579e-02 1.112174415791007e-01 2.338025053291779e-02
            -3.803146299559948e-01 1.883748510849094e-01 3.735555326147775e-03 1.184746946854238e-01 1.112496514904548e-01 2.335620296341485e-02 1.087268492536464e-01 2.878526320604490e-02
770230000.0000000000 8.934347107266602e-02 3.841801775064337e-02 8.488815167646800e-02 4.482594167043668e-02 4.583755286892959e-02 1.098190156558992e-01 -2.912757571066156e-01 3.060377902552675e-01
            8.489998184648492e-02 4.486776895652091e-02 8.946953926177312e-02 3.851266620006803e-02 -2.914239727981833e-01 3.059644765446456e-01 4.579456478630407e-02 1.098247210816536e-01
            4.581450242714577e-02 1.098003786414192e-01 -2.913216171043007e-01 3.059919103973630e-01 1.192726815476875e-01 1.977266576155391e-02 1.216659031256502e-01 1.404908601254738e-02
            -2.913530940957257e-01 3.059186312642018e-01 4.585727352958670e-02 1.098347838238521e-01 1.216829796980660e-01 1.409975784223668e-02 1.191862988234928e-01 1.987834620231492e-02
771062500.0000000000 1.049072448115763e-01 2.337548724137967e-02 1.001257002427144e-01 3.084996508876024e-02 8.148718009599122e-02 8.724049031744556e-02 -1.686672554044249e-01 3.862349531663947e-01
            1.001578702373102e-01 3.077696244907336e-02 1.048811297261234e-01 2.334507610838555e-02 -1.687159725914168e-01 3.861576840723759e-01 8.139115392029163e-02 8.724581618486257e-02
            8.149937101816490e-02 8.730034443629139e-02 -1.688356178651907e-01 3.862851388512559e-01 1.233930955058232e-01 4.962144812673833e-03 1.255316000422337e-01 -1.042841856154570e-03
            -1.687954368713049e-01 3.862122497673025e-01 8.146060212469165e-02 8.734201711699710e-02 1.255585418382118e-01 -1.004329013280541e-03 1.234572993278600e-01 4.976821381746667e-03
771895000.0000000000 1.081239414670744e-01 3.755766316708896e-03 1.035483074809775e-01 1.210276517325653e-02 1.071455244140865e-01 5.468246387634450e-02 -2.640282090397522e-02 4.206568465701999e-01
            1.034807603669653e-01 1.229166434904692e-02 1.081722692313957e-01 3.736800580540682e-03 -2.648491916877017e-02 4.206208939188228e-01 1.071138910361113e-01 5.464779049117739e-02
            1.071494741310652e-01 5.455887656987198e-02 -2.644329476052833e-02 4.206076181664911e-01 1.185892586192988e-01 -1.073252479572436e-02 1.201253636914752e-01 -1.664376738815835e-02
            -2.654530477088561e-02 4.206026226592984e-01 1.071335635613772e-01 5.457300220925050e-02 1.201016349278987e-01 -1.661360184744238e-02 1.185299631888123e-01 -1.067257740119369e-02
772727500.0000000000 9.931292501344545e-02 -1.187613163521130e-02 9.514247421756157e-02 -2.955204886429078e-03 1.210942987066713e-01 1.529189461447871e-02 1.199409934182532e-01 4.047847673661936e-01
            9.511652135994819e-02 -2.874546012069779e-03 9.936125386814873e-02 -1.194665238783488e-02 1.199003285018136e-01 4.047807822554804e-01 1.211644393415878e-01 1.534613596864480e-02
            1.211755884471852e-01 1.528675956820939e-02 1.199314754340134e-01 4.047954496091031e-01 1.053685299406543e-01 -2.125899608503089e-02 1.065823024062938e-01 -2.653012509501269e-02
            1.199500469482474e-01 4.047814047396969e-01 1.211262405137864e-01 1.531294536555659e-02 1.066030543341692e-01 -2.655027154677007e-02 1.053706054421588e-01 -2.132222864432137e-02
773560000.0000000000 8.370367678288479e-02 -1.736606684850280e-02 7.987841494893620e-02 -8.187400367726241e-03 1.219216392253199e-01 -2.750835277849606e-02 2.531741343865642e-01 3.389709239940788e-01
            7.994168811346532e-02 -8.185914935466363e-03 8.368731222433250e-02 -1.738617791430925e-02 2.532072191892957e-01 3.388920213400785e-01 1.218523448849109e-01 -2.750845190750505e-02
            1.219014578134449e-01 -2.747579186697946e-02 2.531677925680692e-01 3.389264491348331e-01 8.859723229772894e-02 -2.227754898789196e-02 8.987554411496786e-02 -2.672405477336925e-02
            2.531544731131717e-01 3.388711943290504e-01 1.218298922267536e-01 -2.757018026752975e-02 8.985149932812105e-02 -2.672319091614184e-02 8.849864387412802e-02 -2.229005381850615e-02
774392500.0000000000 6.955633511853609e-02 -1.105155385806582e-02 6.575209353683269e-02 -1.812386823390767e-03 1.076112258116917e-01 -6.995123512372615e-02 3.554964246840346e-01 2.296925953991202e-01
            6.571090853491252e-02 -1.771109355840934e-03 6.960404982234658e-02 -1.095222884806421e-02 3.555566081962964e-01 2.297367176384519e-01 1.075889091216431e-01 -7.006949097726294e-02
            1.075983198531070e-01 -7.008729727936104e-02 3.555267377425406e-01 2.297331852142153e-01 7.487392741860231e-02 -1.320420141581209e-02 7.703172951304681e-02 -1.674396283701314e-02
            3.555676718415563e-01 2.297120173955407e-01 1.075994908361647e-01 -7.002728571017310e-02 7.698725566995036e-02 -1.684940441984874e-02 7.489209333915553e-02 -1.318169219208277e-02
775225000.0000000000 6.426797255837226e-02 3.269456227709508e-03 6.004537465819601e-02 1.280477518257191e-02 7.767637157129996e-02 -1.064491864334014e-01 4.126739975133170e-01 9.105848548188893e-02
            6.003095546661382e-02 1.276727148586984e-02 6.428837731278486e-02 3.291768979138121e-03 4.126937827597948e-01 9.103079136204625e-02 7.775599208536095e-02 -1.063308429534991e-01
            7.774808438990485e-02 -1.063974376450959e-01 4.127533516399218e-01 9.107553810071645e-02 7.029101804729392e-02 1.640079064989178e-03 7.373229609289852e-02 -1.536905446408047e-03
            4.126275620535450e-01 9.107242173555598e-02 7.776612661821346e-02 -1.063888487017772e-01 7.378704865781482e-02 -1.395475830624070e-03 7.029739328454603e-02 1.590933241716061e-03
776057500.0000000000 7.071406727065785e-02 1.723439045889059e-02 6.584362983081624e-02 2.732997005265939e-02 3.506323552771808e-02 -1.298034110247272e-01 4.168234049136012e-01 -5.803701008463960e-02
            6.585638653716600e-02 2.737021505145043e-02 7.069216630153813e-02 1.719208479917531e-02 4.169109441812645e-01 -5.803125981353015e-02 3.501089926267435e-02 -1.298428811821755e-01
            3.497578477497603e-02 -1.298081734044571e-01 4.168660271113296e-01 -5.805760940548439e-02 7.618778960911754e-02 1.499774797998582e-02 8.135416295574595e-02 1.160111461912072e-02
            4.168234868565694e-01 -5.811828336346875e-02 3.500264597783655e-02 -1.298492043465061e-01 8.135142748828141e-02 1.168894216971517e-02 7.615474085564924e-02 1.502467356822777e-02
776890000.0000000000 8.513205079657722e-02 2.303738043912366e-02 7.982894588518367e-02 3.448685488969362e-02 -1.417988526295884e-02 -1.354434267040785e-01 3.690616151435207e-01 -1.977610932242968e-01
            7.990997060611466e-02 3.450332702973245e-02 8.521402347234482e-02 2.299662686184793e-02 3.690701342590665e-01 -1.977631674845889e-01 -1.422764614607805e-02 -1.353853480457211e-01
            -1.415557602548341e-02 -1.354093663721095e-01 3.690889760946807e-01 -1.976800281027706e-01 8.888800863678703e-02 2.054845785667266e-02 9.553646780839836e-02 1.611109498958380e-02
            3.691310851527346e-01 -1.977085068275044e-01 -1.420104559905983e-02 -1.353583457072114e-01 9.553840748328535e-02 1.619265059644789e-02 8.885739579387940e-02 2.056416828585537e-02
777722500.0000000000 1.002551714422518e-01 1.772852694973821e-02 9.507083745339148e-02 3.088313560930968e-02 -6.185763818994691e-02 -1.223645062035554e-01 2.772385301648241e-01 -3.112100123948300e-01
            9.505892602657001e-02 3.095113388480682e-02 1.002095665210936e-01 1.770729015577771e-02 2.772118658995722e-01 -3.113064016464898e-01 -6.186230528184414e-02 -1.223638784403507e-01
            -6.180528375927237e-02 -1.222885543008694e-01 2.772846442405524e-01 -3.111408549014248e-01 1.015663704933530e-01 1.611583578865865e-02 1.092409026841327e-01 1.002742839104090e-02
            2.772892503071585e-01 -3.112569272035218e-01 -6.182325389686096e-02 -1.223865564409297e-01 1.091303390846479e-01 1.002329911894067e-02 1.016922036425711e-01 1.608170550337859e-02
778555000.0000000000 1.085973238566208e-01 3.863369936605640e-03 1.042215293541605e-01 1.864931078998701e-02 -1.012251493484541e-01 -9.354870487138969e-02 1.533082664234035e-01 -3.862808143387436e-01
            1.041807438334911e-01 1.860313173429524e-02 1.085824801600859e-01 3.799003369827530e-03 1.533042942224591e-01 -3.863106524557544e-01 -1.010630768033564e-01 -9.355510651422951e-02
            -1.011961492361759e-01 -9.360984037299293e-02 1.533475499983599e-01 -3.863271493518558e-01 1.079624284085573e-01 4.081423169480457e-03 1.156271369781333e-01 -3.536482974391848e-03
            1.532482310628719e-01 -3.863206533135697e-01 -1.012259823231590e-01 -9.355346138873898e-02 1.156678196447680e-01 -3.493674744516690e-03 1.079808775659406e-01 4.082650104503018e-03
779387500.0000000000 1.064570887167361e-01 -1.225043521474608e-02 1.032385211036903e-01 3.670401876303264e-03 -1.282021694629010e-01 -5.356446015355502e-02 1.141727233741176e-02 -4.152627533896918e-01
            1.032951103542918e-01 3.646196033714728e-03 1.064853595663320e-01 -1.224235092596561e-02 1.148516282393758e-02 -4.152521315005056e-01 -1.281474170056173e-01 -5.346093418754358e-02
            -1.282311210491292e-01 -5.354401968003462e-02 1.145864708313242e-02 -4.152539769732953e-01 1.046764396715736e-01 -9.494601127445016e-03 1.119617163812741e-01 -1.814929316812893e-02
            1.151246091223390e-02 -4.152065424851317e-01 -1.281972353153501e-01 -5.358778853161202e-02 1.119623737237563e-01 -1.813914240783420e-02 1.046888170460907e-01 -9.458015595601598e-03
780220000.0000000000 9.485420054156914e-02 -2.335480474485464e-02 9.274823613364967e-02 -6.771678204083914e-03 -1.407266855430412e-01 -6.708347520091979e-03 -1.324510698474388e-01 -3.940606144818217e-01
            9.271048246754249e-02 -6.815887157057137e-03 9.480721795444999e-02 -2.332668192955288e-02 -1.325111268716777e-01 -3.940417447225310e-01 -1.408488633634311e-01 -6.742011373963690e-03
            -1.407085363539153e-01 -6.732572499741038e-03 -1.324821358665565e-01 -3.941270363920332e-01 9.316723121930118e-02 -1.811920977097680e-02 9.985318674328150e-02 -2.712547735316804e-02
            -1.325200981795230e-01 -3.940945403036951e-01 -1.406848788001729e-01 -6.758128555310661e-03 9.983852493649675e-02 -2.711265108990856e-02 9.308923844588793e-02 -1.808152471867009e-02
781052500.0000000000 7.932787236095465e-02 -2.437712397327634e-02 7.768552318224402e-02 -7.487668544759424e-03 -1.372227912694503e-01 4.286711553663273e-02 -2.611217610264664e-01 -3.239288621908678e-01
            7.771667916756683e-02 -7.441440174277344e-03 7.933278890708023e-02 -2.435293992124565e-02 -2.611845679962987e-01 -3.240123137864507e-01 -1.371854851989360e-01 4.282946906224090e-02
            -1.372240685768351e-01 4.286027496087756e-02 -2.611225899789560e-01 -3.239627070378300e-01 7.801668758735114e-02 -1.756151943161844e-02 8.492067453761541e-02 -2.592711364492449e-02
            -2.611557132515914e-01 -3.239732506413224e-01 -1.373116481755614e-01 4.284410236119755e-02 8.495846894977056e-02 -2.600880719415986e-02 7.801366849186397e-02 -1.752688033364522e-02
781885000.0000000000 6.743625452807687e-02 -1.519507321042386e-02 6.554301382925101e-02 2.514190752091254e-03 -1.162744130209774e-01 9.003874290292888e-02 -3.574134522657130e-01 -2.126267453307641e-01
            6.561323215577805e-02 2.420062604794273e-03 6.739144658922620e-02 -1.518245347472131e-02 -3.573870325001069e-01 -2.125665553839055e-01 -1.163223105387353e-01 9.002512934663000e-02
            -1.162970691481940e-01 8.994890152442145e-02 -3.574658618351746e-01 -2.125660652084479e-01 6.635000032552708e-02 -7.597728315125347e-03 7.470300235144206e-02 -1.520135375893745e-02
            -3.574356925664099e-01 -2.125671642475018e-01 -1.163205585861296e-01 9.001331135993519e-02 7.467723196187336e-02 -1.519222167351704e-02 6.638648875384247e-02 -7.563134709585570e-03
782717500.0000000000 6.530666610596142e-02 -1.142188742160423e-03 6.287707816586945e-02 1.858643706660860e-02 -7.853217455201325e-02 1.279940764696605e-01 -4.079639217269529e-01 -7.434150910864849e-02
            6.283668230012553e-02 1.860414306811870e-02 6.530211249268600e-02 -1.110221306737518e-03 -4.080050839734688e-01 -7.433360756664881e-02 -7.855847332484783e-02 1.279308026778037e-01
            -7.854575139690255e-02 1.280040153181884e-01 -4.079778397009198e-01 -7.436050457527695e-02 6.359229942529693e-02 7.313572060319405e-03 7.490733290023177e-02 -2.028166470765112e-04
            -4.079578151710896e-01 -7.437726415232597e-02 -7.848647226362432e-02 1.280036452720064e-01 7.496522405940985e-02 -2.741568934702652e-04 6.352610663369887e-02 7.282447818758906e-03
783550000.0000000000 7.350160588307660e-02 9.918024860556323e-03 7.106601371391388e-02 3.339918450192893e-02 -2.815420317380020e-02 1.499565371334114e-01 -4.063645569704813e-01 7.180447752253991e-02
            7.105351426793620e-02 3.341942238759255e-02 7.355476954956834e-02 9.947520178724774e-03 -4.063182245133878e-01 7.180127381609419e-02 -2.801780721783382e-02 1.499640859267798e-01
            -2.800856087895394e-02 1.499536136841359e-01 -4.063389916430728e-01 7.184523413525144e-02 7.007835506905474e-02 1.997052086986069e-02 8.583345892535492e-02 1.074861542646164e-02
            -4.063707750284765e-01 7.178348395026353e-02 -2.802644889011655e-02 1.499953505659682e-01 8.581823388782375e-02 1.077941367932642e-02 7.013889331078108e-02 2.005692346495874e-02
784382500.0000000000 8.741042222479720e-02 1.149490070942150e-02 8.672872601497388e-02 4.027117483790939e-02 2.749852322506039e-02 1.515147898915742e-01 -3.544066157312729e-01 2.067158003067503e-01
            8.664962854560569e-02 4.018220461883078e-02 8.751101422978634e-02 1.139603835837697e-02 -3.545367636664253e-01 2.067111047276165e-01 2.746314677061416e-02 1.515273522594460e-01
            2.750672429708928e-02 1.515529892576182e-01 -3.544721933036623e-01 2.067058703112674e-01 8.200693000386493e-02 2.515574591240718e-02 1.022392118963043e-01 1.152691776683340e-02
            -3.544880621071734e-01 2.066565902509948e-01 2.749970023695813e-02 1.514883029124851e-01 1.022684885532343e-01 1.150637389980454e-02 8.199920432460897e-02 2.521221052620116e-02
785215000.0000000000 9.891199192692039e-02 2.286444955754792e-03 1.029265691246745e-01 3.669068422206237e-02 7.948745900393268e-02 1.328340293765089e-01 -2.605573048286742e-01 3.143383692565055e-01
            1.028848430593892e-01 3.677274618302052e-02 9.895982413644881e-02 2.217913012343124e-03 -2.605546143452475e-01 3.145028260844412e-01 7.948735355141182e-02 1.328761458602533e-01
            7.945979509966204e-02 1.329218401057846e-01 -2.605809351230843e-01 3.144972327180582e-01 9.290052676920954e-02 2.177699915404679e-02 1.165239686343152e-01 7.487153649344929e-04
            -2.605714148447315e-01 3.144039806739344e-01 7.949832860255986e-02 1.328258442796418e-01 1.164460139593846e-01 7.292647249271052e-04 9.287537066735085e-02 2.174642175730015e-02
786047500.0000000000 1.013277663291735e-01 -1.374402744120871e-02 1.135683029483461e-01 2.541762252484958e-02 1.211279641990782e-01 9.763981355587402e-02 -1.365532244627486e-01 3.835672198111229e-01
            1.135689609277641e-01 2.536707244849552e-02 1.012949102191204e-01 -1.380469043049085e-02 -1.365756464485368e-01 3.836346529387199e-01 1.211485383220476e-01 9.754382883670044e-02
            1.211710641826418e-01 9.760125542336789e-02 -1.365867313098038e-01 3.836282911802361e-01 9.747545048367723e-02 1.296064030755863e-02 1.215134679067631e-01 -1.763578732728993e-02
            -1.365411434820751e-01 3.836545944457511e-01 1.212181066840627e-01 9.758893303248595e-02 1.215192721461281e-01 -1.772498952325944e-02 9.752373370935502e-02 1.296088869038137e-02
786880000.0000000000 9.202587249510040e-02 -2.905237946921134e-02 1.153920788234173e-01 1.163288135709152e-02 1.484376032485143e-01 5.070495720211871e-02 3.401896214045836e-03 4.069078958486581e-01
            1.153321512990237e-01 1.171273726221189e-02 9.197541987074680e-02 -2.908738612390285e-02 3.437243913591834e-03 4.067754426093419e-01 1.484600813202006e-01 5.071315798250177e-02
            1.484638974473164e-01 5.071420620756879e-02 3.410822511775332e-03 4.068043287887690e-01 9.407213452728692e-02 4.706586285876826e-03 1.145558833658455e-01 -3.680888355689659e-02
            3.481955384062830e-03 4.068285364007806e-01 1.484731542300895e-01 5.077508967913072e-02 1.144664590863444e-01 -3.680832799637187e-02 9.416892192544174e-02 4.689510500932336e-03
787712500.0000000000 7.348450011475632e-02 -3.613076479566710e-02 1.095473648847889e-01 1.601298497196230e-03 1.590495650973856e-01 -2.899512256568168e-03 1.436027367324232e-01 3.807856651586290e-01
            1.095471325017579e-01 1.625429191460794e-03 7.352151548856270e-02 -3.621659008599323e-02 1.435892202835362e-01 3.807539244371185e-01 1.591545371210292e-01 -2.985568114932286e-03
            1.590658647517197e-01 -2.944689558542578e-03 1.436681233580930e-01 3.808717902920971e-01 8.525148236878846e-02 2.335134025678091e-03 9.747499604605649e-02 -4.890226895970796e-02
            1.436176087390744e-01 3.808304013456912e-01 1.591261691741259e-01 -2.967719753100594e-03 9.746903012275565e-02 -4.893686649847704e-02 8.524668553908600e-02 2.432048180214584e-03
788545000.0000000000 5.299870374257412e-02 -3.056874475541452e-02 1.006643942166255e-01 -1.044374613348056e-03 1.512788341933906e-01 -5.845229543872383e-02 2.668408816984059e-01 3.073684094974775e-01
            1.006710726480239e-01 -1.022059815276033e-03 5.295739135828913e-02 -3.053786211659636e-02 2.668651247147002e-01 3.073637037488514e-01 1.511665013504993e-01 -5.850642715551791e-02
            1.512765333958335e-01 -5.851999024939115e-02 2.667790551189295e-01 3.073098409398367e-01 7.644029419233550e-02 8.580810236386601e-03 7.668305868775228e-02 -4.938895456383365e-02
            2.668075012603586e-01 3.073313820671140e-01 1.512555529081753e-01 -5.848743381679594e-02 7.659354292974513e-02 -4.940199233167970e-02 7.648210935534971e-02 8.622990861635420e-03
789377500.0000000000 3.888993838325078e-02 -1.320874441346566e-02 9.494831406606472e-02 3.560831626526442e-03 1.239575696630782e-01 -1.098344443276642e-01 3.566158219766839e-01 1.947896491263727e-01
            9.490771883785094e-02 3.481090653813222e-03 3.890622018176432e-02 -1.329660239438745e-02 3.565740663951837e-01 1.948143948783321e-01 1.240209785546143e-01 -1.097875480387330e-01
            1.240308924509560e-01 -1.098493589860866e-01 3.566316024672482e-01 1.948254470660915e-01 7.422419708734629e-02 2.158597723184560e-02 5.996136878800926e-02 -3.850605446846545e-02
            3.565372271896473e-01 1.948239111967108e-01 1.240602945915409e-01 -1.098278318632533e-01 5.987830088244284e-02 -3.858536453228888e-02 7.420704096446135e-02 2.161407805762053e-02
790210000.0000000000 3.733015727078226e-02 9.223600444417489e-03 9.641822960088907e-02 1.040557613743306e-02 7.869990205007113e-02 -1.492870827195000e-01 4.005557392033229e-01 5.823780492085866e-02
            9.642465398536842e-02 1.039580256710046e-02 3.734267095093981e-02 9.236537990619737e-03 4.004931817450630e-01 5.822055321223759e-02 7.869423635910094e-02 -1.493917196563795e-01
            7.864937180101786e-02 -1.493293637264630e-01 4.005168006572565e-01 5.813064065916952e-02 8.228446835586621e-02 3.508548369878588e-02 5.322640153663656e-02 -2.172683917636207e-02
            4.005480584227157e-01 5.827081464816986e-02 7.863267704189590e-02 -1.493225762092599e-01 5.326105918247456e-02 -2.179232373836271e-02 8.224912344966366e-02 3.507802002307796e-02
791042500.0000000000 4.863507751211774e-02 2.792226531831728e-02 1.047889090804013e-01 1.348527361473652e-02 2.069060153561586e-02 -1.699314906196628e-01 3.937846590170683e-01 -8.384790477491427e-02
            1.047572329430599e-01 1.348030105294920e-02 4.861789912006424e-02 2.793476939615301e-02 3.937818513127527e-01 -8.385587692032093e-02 2.065225713912183e-02 -1.698928048654404e-01
            2.071103577558239e-02 -1.699539382842603e-01 3.936913076065571e-01 -8.380356406808943e-02 9.880815616850380e-02 4.174064219401871e-02 5.726909731375718e-02 -6.704319798955577e-03
            3.936983742375240e-01 -8.385001660503881e-02 2.068774716387634e-02 -1.699484434482575e-01 5.738492223205537e-02 -6.710757787021632e-03 9.889680329365104e-02 4.173299600167257e-02
791875000.0000000000 6.735336862512559e-02 3.598676562121638e-02 1.151965659968181e-01 8.510274930166775e-03 -4.137535958685953e-02 -1.676845548333451e-01 3.387344768067285e-01 -2.130650953062325e-01
            1.150535945129176e-01 8.480479537211254e-03 6.741299143516627e-02 3.608183473625617e-02 3.386981415157413e-01 -2.132098565567225e-01 -4.132528771372174e-02 -1.676362791065308e-01
            -4.131301464548030e-02 -1.675914861364493e-01 3.387695420385381e-01 -2.131816701516518e-01 1.178415788416726e-01 3.708145345185655e-02 6.775651844719537e-02 6.377940397880971e-04
            3.387705971541352e-01 -2.131455950332505e-01 -4.127544816627883e-02 -1.676687384962957e-01 6.777818739098250e-02 6.400303315064749e-04 1.177039946918409e-01 3.709615805993573e-02
792707500.0000000000 8.544121868253232e-02 3.195066866259742e-02 1.210736508380144e-01 -3.973537116016390e-03 -9.803465530487074e-02 -1.432212792968389e-01 2.441448248857177e-01 -3.149615581882854e-01
            1.211618147951030e-01 -3.972443720334519e-03 8.540354358025139e-02 3.197928557800207e-02 2.440712973871251e-01 -3.149116097490571e-01 -9.803813793824384e-02 -1.431702676881890e-01
            -9.808169829083838e-02 -1.432341067310345e-01 2.440112142881763e-01 -3.149894353576919e-01 1.312547715277626e-01 2.191153263719669e-02 7.774427978778202e-02 -1.181379336696739e-03
            2.440747580980708e-01 -3.150744336855827e-01 -9.801629534181246e-02 -1.432955831401467e-01 7.776587186620128e-02 -1.239789359547018e-03 1.312876176426849e-01 2.192359482205870e-02
793540000.0000000000 9.566425641110606e-02 1.934598983575698e-02 1.183262975462551e-01 -1.957935096546511e-02 -1.423524324608907e-01 -1.010280052855635e-01 1.211784521970840e-01 -3.786837643903825e-01
            1.183674770502243e-01 -1.957625941845428e-02 9.566117912289809e-02 1.933395557841305e-02 1.211567490894978e-01 -3.786850173241857e-01 -1.423107191085271e-01 -1.010249968245903e-01
            -1.423856450955976e-01 -1.009888088235720e-01 1.211356039402021e-01 -3.787346093446933e-01 1.339499446783850e-01 1.507597384069570e-03 8.195664159548514e-02 -8.686148209481243e-03
            1.212134779345734e-01 -3.787208396468040e-01 -1.423225725577765e-01 -1.009929044576703e-01 8.195916303803578e-02 -8.696849251181122e-03 1.339999177488987e-01 1.547036328260620e-03
794372500.0000000000 9.513983506223525e-02 5.026452983188065e-03 1.062975422459906e-01 -3.177308562788840e-02 -1.698297548099339e-01 -4.642388278474736e-02 -1.635929454004461e-02 -3.972691749773051e-01
            1.063182450341700e-01 -3.176132489853273e-02 9.511018502580328e-02 5.049537177802349e-03 -1.635348366310042e-02 -3.972988787728863e-01 -1.698684468062249e-01 -4.650111125884197e-02
            -1.697689715644961e-01 -4.638117360444546e-02 -1.627407153736154e-02 -3.973302642275561e-01 1.247404825526183e-01 -1.622438680318103e-02 7.812271213978822e-02 -1.641333660843697e-02
            -1.627377507925101e-02 -3.972110822441000e-01 -1.698059392604568e-01 -4.648526945895907e-02 7.812715206873311e-02 -1.644784864475618e-02 1.247405428600892e-01 -1.630234477351476e-02
795205000.0000000000 8.583652739404658e-02 -3.613029454314160e-03 8.861067567970517e-02 -3.508297411626959e-02 -1.777211346729740e-01 1.474605924508882e-02 -1.526931687504848e-01 -3.673486349983313e-01
            8.869368463055617e-02 -3.510692704805450e-02 8.588592207459007e-02 -3.703547805947274e-03 -1.526348957097660e-01 -3.674261769940751e-01 -1.778009083294429e-01 1.470830535670526e-02
            -1.777702312184851e-01 1.472882602233432e-02 -1.526590908720961e-01 -3.674565329668032e-01 1.077555017434809e-01 -2.499617220142667e-02 6.849836096697588e-02 -1.886161201299410e-02
            -1.527037053331426e-01 -3.674577543290592e-01 -1.777375922878034e-01 1.475231476358070e-02 6.848043666310213e-02 -1.884552494826913e-02 1.077522283860920e-01 -2.497448472338832e-02
796037500.0000000000 7.380123244205827e-02 -2.564805553828828e-03 7.219476546311622e-02 -2.767442536831225e-02 -1.645607916491376e-01 7.659125717255817e-02 -2.708700349464604e-01 -2.914890139144385e-01
            7.229378791725052e-02 -2.766960612997140e-02 7.377914105997001e-02 -2.536159250379765e-03 -2.709215766627981e-01 -2.914239194940926e-01 -1.645594354233239e-01 7.649501769786998e-02
            -1.644864743898962e-01 7.649654819622949e-02 -2.708215537427006e-01 -2.915027196065617e-01 9.015499065711960e-02 -2.171196293566916e-02 5.850535375223075e-02 -1.298095585223584e-02
            -2.708365336620625e-01 -2.914891976280211e-01 -1.644487814504761e-01 7.652735952233394e-02 5.844878315987784e-02 -1.297693015097417e-02 9.019939007646183e-02 -2.168056469383585e-02
796870000.0000000000 6.636607473310019e-02 7.389239686950442e-03 6.377851860231858e-02 -1.210234776956900e-02 -1.295783966621545e-01 1.315733421137966e-01 -3.547587079667245e-01 -1.783307843020485e-01
            6.385446408099428e-02 -1.209978161026477e-02 6.646201886559595e-02 7.272593095453917e-03 -3.547494249617004e-01 -1.783333748533683e-01 -1.295721575003872e-01 1.315294980695825e-01
            -1.295856859666821e-01 1.316192296637338e-01 -3.547268726534513e-01 -1.783148192286645e-01 7.981926654694960e-02 -8.767927954032579e-03 5.427578112475712e-02 -5.492272197097799e-04
            -3.547578589810967e-01 -1.784053611718223e-01 -1.295296661589044e-01 1.315104842949085e-01 5.433012599268847e-02 -4.459101478497008e-04 7.980625347113156e-02 -8.939293615597536e-03
797702500.0000000000 6.852771775735488e-02 2.024004648120485e-02 6.677586991020287e-02 4.606478173162528e-03 -7.581901198507453e-02 1.713312163057730e-01 -3.929983289541480e-01 -4.347356407183125e-02
            6.685864125899613e-02 4.664040112350105e-03 6.849813173514865e-02 2.016791452525332e-02 -3.928927417951740e-01 -4.339479956386501e-02 -7.590875141750474e-02 1.713739634814385e-01
            -7.579553587472737e-02 1.712923293874196e-01 -3.929399567927948e-01 -4.345143509730778e-02 8.084500917221978e-02 6.453782179249039e-03 5.923322533134677e-02 1.284476842043381e-02
            -3.929293416492273e-01 -4.344281087244507e-02 -7.587721603452420e-02 1.713326321458248e-01 5.918694749916509e-02 1.277368249501359e-02 8.081500125245446e-02 6.341414400273933e-03
798535000.0000000000 7.938055413115898e-02 2.898317103440718e-02 7.918879948247200e-02 1.482545625711097e-02 -1.023736158783579e-02 1.889553490340742e-01 -3.813760896160333e-01 9.493808460117215e-02
            7.925102037534998e-02 1.477448135094495e-02 7.940312084883358e-02 2.887491866012361e-02 -3.814829255292325e-01 9.489071034078833e-02 -1.023277741022786e-02 1.890181775688344e-01
            -1.027703279457396e-02 1.889384106939085e-01 -3.814410710607180e-01 9.493719380932407e-02 9.158135619396758e-02 1.606176426178810e-02 7.167760784785981e-02 2.040221111652480e-02
            -3.813769961782510e-01 9.492069014065883e-02 -1.021897526866042e-02 1.889720952323991e-01 7.166124662358248e-02 2.045180580382092e-02 9.167291321646090e-02 1.606323731201636e-02
799367500.0000000000 9.387419167247142e-02 2.846850229445570e-02 9.443545604094468e-02 1.425574993113623e-02 5.742638641854179e-02 1.813431823120382e-01 -3.235283961266059e-01 2.192410808399653e-01
            9.437230879630833e-02 1.423558687115080e-02 9.387216382161626e-02 2.836261907928223e-02 -3.234689915968216e-01 2.192311766506816e-01 5.740006892561089e-02 1.814546876736456e-01
            5.735516813477914e-02 1.814543139654501e-01 -3.235363336844231e-01 2.192461860542266e-01 1.060503279026816e-01 1.546077552566243e-02 8.620205843628172e-02 1.868829377432382e-02
            -3.235191885518355e-01 2.192020053737136e-01 5.745330899068326e-02 1.813751426994235e-01 8.615812546166444e-02 1.864971949341429e-02 1.059575391651598e-01 1.547060810041089e-02
800200000.0000000000 1.051211946796739e-01 1.887744263543583e-02 1.050788854055534e-01 3.972819638096583e-03 1.174652656587958e-01 1.504826669361179e-01 -2.277461285357996e-01 3.156335956166230e-01
            1.050534966835112e-01 3.969522382154477e-03 1.049354901857936e-01 1.885127097942850e-02 -2.277316701149486e-01 3.156216147448797e-01 1.175250647221386e-01 1.504753724556488e-01
            1.173931926374931e-01 1.505775567555748e-01 -2.277519740254036e-01 3.155839702298901e-01 1.162254513434305e-01 5.155904290814823e-03 9.612794716681972e-02 8.423074887002025e-03
            -2.278026295504595e-01 3.156456082294364e-01 1.173899300479333e-01 1.505567218754040e-01 9.605361846038651e-02 8.329875383440585e-03 1.162189200111534e-01 5.082196845333902e-03
801032500.0000000000 1.079096916650110e-01 4.425079638484770e-03 1.061884794104059e-01 -1.062587719035656e-02 1.629105369030800e-01 1.012404511924924e-01 -1.055748736475630e-01 3.737931715231861e-01
            1.062259453044362e-01 -1.061306832854390e-02 1.078905193368178e-01 4.385416808448849e-03 -1.054417907239888e-01 3.738683620259309e-01 1.628163495788208e-01 1.012770130988763e-01
            1.628564035969818e-01 1.012415624788732e-01 -1.055371815273936e-01 3.738287094720106e-01 1.171763378541564e-01 -9.914295491002270e-03 9.712303046924135e-02 -5.475439955813968e-03
            -1.055467601415623e-01 3.737719331536276e-01 1.627910554557840e-01 1.013484952597327e-01 9.717530425932532e-02 -5.516287193088205e-03 1.172475653680670e-01 -9.977282439566786e-03
801865000.0000000000 1.010454721386560e-01 -8.294226860557901e-03 9.745845302494412e-02 -2.259145851468968e-02 1.891272772257816e-01 3.989727395623205e-02 2.957338904241873e-02 3.872223884884055e-01
            9.739549270838262e-02 -2.249246972902755e-02 1.010540969017291e-01 -8.311165333817457e-03 2.958291658962491e-02 3.871616967830198e-01 1.891331929084397e-01 3.981620189406906e-02
            1.891417130052926e-01 3.980121196707921e-02 2.956321054800685e-02 3.871669315840116e-01 1.081502916706430e-01 -2.251051587841414e-02 8.907893070185202e-02 -1.655209220202884e-02
            2.961643782597614e-02 3.871930922524136e-01 1.891496441220619e-01 3.986050357704043e-02 8.901446237592844e-02 -1.659701034732341e-02 1.081028918164905e-01 -2.247446651549563e-02
802697500.0000000000 8.788015955056840e-02 -1.345052355895746e-02 8.266040061449216e-02 -2.603302179730309e-02 1.938564258515036e-01 -2.766187642087115e-02 1.618421197087414e-01 3.531382466692291e-01
            8.280174261510294e-02 -2.601167078079523e-02 8.782760552295296e-02 -1.350669342457282e-02 1.618931269743383e-01 3.531326100793590e-01 1.937747582389522e-01 -2.761067666074176e-02
            1.937194143866526e-01 -2.759122724830962e-02 1.618493247832467e-01 3.532066302867410e-01 9.286184967549049e-02 -2.661348025127244e-02 7.559839120561347e-02 -1.961264682260965e-02
            1.618322282272625e-01 3.531622839633465e-01 1.937254491473621e-01 -2.765586474832079e-02 7.570882873922173e-02 -1.949387550874854e-02 9.286574652402475e-02 -2.656063103794555e-02
803530000.0000000000 7.484968115041461e-02 -8.674886683641090e-03 6.923790796172907e-02 -1.907538088564320e-02 1.749478403488992e-01 -9.429638260369054e-02 2.744972713055474e-01 2.744074905959726e-01
            6.923288808970535e-02 -1.904172024303592e-02 7.484438685735569e-02 -8.700049837625057e-03 2.744504070108273e-01 2.745481410955412e-01 1.749828904974569e-01 -9.430260314254008e-02
            1.750756416123958e-01 -9.426969679322560e-02 2.744152311157677e-01 2.745193645254870e-01 7.840146712630004e-02 -2.012139686062858e-02 6.342924608249091e-02 -1.280451091738231e-02
            2.744497757864821e-01 2.745267586783605e-01 1.750072057397932e-01 -9.429844854090509e-02 6.348300965067503e-02 -1.280053009626194e-02 7.844821319546894e-02 -2.008688170081395e-02
804362500.0000000000 6.854589018778279e-02 3.647414933324617e-03 6.355907434934596e-02 -4.911695001414302e-03 1.330315629213039e-01 -1.518007236375130e-01 3.519559433571525e-01 1.610269711396598e-01
            6.346150605855309e-02 -4.972292736484070e-03 6.857659094680407e-02 3.614584708491486e-03 3.519727681646417e-01 1.609933097418579e-01 1.330668633268311e-01 -1.518943693869842e-01
            1.330376386810611e-01 -1.518613002156785e-01 3.519171390328218e-01 1.610515661633748e-01 7.184124539344941e-02 -6.016531562803393e-03 5.870834480594767e-02 5.570235025709579e-04
            3.520227913995461e-01 1.609671911446584e-01 1.330956442730447e-01 -1.518414753280337e-01 5.869791730788369e-02 6.322540107359492e-04 7.174099512433800e-02 -6.005127202161791e-03
805195000.0000000000 7.227685885903049e-02 1.692108077014655e-02 6.837390173517043e-02 9.236808210039726e-03 7.190231885891904e-02 -1.914445272826065e-01 3.838975970337098e-01 2.824538717651288e-02
            6.838654098381999e-02 9.322078870964996e-03 7.232355595758713e-02 1.689459620336200e-02 3.840105012761867e-01 2.835422820386039e-02 7.191159675642525e-02 -1.914871880379880e-01
            7.196027010133699e-02 -1.915316295516787e-01 3.839541486449107e-01 2.829042162992089e-02 7.590202986991004e-02 8.691370811711542e-03 6.398600924483505e-02 1.394564017825241e-02
            3.839411797010889e-01 2.825248535353982e-02 7.185670285007702e-02 -1.913784122706754e-01 6.411167329803739e-02 1.391014794761994e-02 7.593647867085357e-02 8.599277567119337e-03
806027500.0000000000 8.408821177423066e-02 2.417039959428259e-02 8.118841415989141e-02 1.663331572678169e-02 -3.511623214560771e-04 -2.061331865972944e-01 3.676392693897059e-01 -1.057495739368454e-01
            8.113817492672845e-02 1.658785050885223e-02 8.406567119108090e-02 2.420955932601589e-02 3.677203752022689e-01 -1.057049425392521e-01 -2.999740090780856e-04 -2.061340244859781e-01
            -3.515014317367514e-04 -2.062208460749561e-01 3.676274659285272e-01 -1.056803411453919e-01 8.838714072439997e-02 1.651783343727360e-02 7.671420145029061e-02 2.048329669465073e-02
            3.676703724788284e-01 -1.057477380278401e-01 -2.889172231656288e-04 -2.061852711302858e-01 7.666473610140116e-02 2.046285908502851e-02 8.839355669503145e-02 1.656527228073239e-02
806860000.0000000000 9.784942707461977e-02 2.203215520206526e-02 9.543694294863486e-02 1.358524471911195e-02 -7.296504409330194e-02 -1.937718955322206e-01 3.070577035070205e-01 -2.245459886824088e-01
            9.536908943491278e-02 1.363172340531003e-02 9.788433139868788e-02 2.195232911639225e-02 3.070582887912307e-01 -2.245005005473032e-01 -7.300905457524652e-02 -1.937692909377642e-01
            -7.305292522545057e-02 -1.937888063043031e-01 3.070172999875505e-01 -2.245227801293902e-01 1.027300713658723e-01 1.410934618800516e-02 9.043134064954628e-02 1.716491596736060e-02
            3.070124610678368e-01 -2.245505232474723e-01 -7.308873043573427e-02 -1.938009658836247e-01 9.044164467606898e-02 1.718520741238327e-02 1.026972325829231e-01 1.406275061039478e-02
807692500.0000000000 1.069672384397265e-01 1.144042044208965e-02 1.040008603670702e-01 2.102903335227669e-03 -1.361698568532542e-01 -1.569924085613121e-01 2.105703748605547e-01 -3.149319255678875e-01
            1.040251070582365e-01 2.126438293845021e-03 1.070192817220808e-01 1.145323794240338e-02 2.106175852087055e-01 -3.149783026232785e-01 -1.362156198900050e-01 -1.569797976590006e-01
            -1.362092577567159e-01 -1.568894805886184e-01 2.106284188907922e-01 -3.149273209373935e-01 1.117576230987009e-01 2.744903435897663e-03 9.870712542403515e-02 5.974577039409475e-03
            2.106196014346950e-01 -3.149795385250632e-01 -1.361587500230182e-01 -1.569490341575915e-01 9.862663180374109e-02 5.913936334484119e-03 1.117091145439469e-01 2.747316833933831e-03
808525000.0000000000 1.071618441890585e-01 -2.418236988022585e-03 1.028727326139807e-01 -1.222325829746330e-02 -1.827302045671169e-01 -1.010646956681710e-01 8.957860079378582e-02 -3.674410716887250e-01
            1.029204917687934e-01 -1.222725897252875e-02 1.071929043928776e-01 -2.422647311378612e-03 8.954884701178203e-02 -3.674717904737503e-01 -1.827007778039443e-01 -1.010110668181313e-01
            -1.825648524034382e-01 -1.010343997959476e-01 8.957891488881009e-02 -3.674078175255849e-01 1.111287007500293e-01 -1.181477265415529e-02 9.754064651258466e-02 -7.819376559154037e-03
            8.956472477758692e-02 -3.674766452447873e-01 -1.827093541107029e-01 -1.009566807338077e-01 9.753117310613973e-02 -7.842871408698760e-03 1.112293099551303e-01 -1.189246327060430e-02
809357500.0000000000 9.838134984109720e-02 -1.306380964718761e-02 9.275816423939753e-02 -2.250935795188040e-02 -2.079169863058604e-01 -3.276431784266325e-02 -4.264085316713099e-02 -3.756481701608391e-01
            9.270332337402662e-02 -2.252130425901012e-02 9.838071152758698e-02 -1.311372150091781e-02 -4.262877851580871e-02 -3.756375752543432e-01 -2.079304298392826e-01 -3.273057611362480e-02
            -2.079257177261167e-01 -3.271944126373833e-02 -4.253102920204808e-02 -3.756179602001530e-01 1.010830343608166e-01 -2.268623821985372e-02 8.772494130964881e-02 -1.741091562877651e-02
            -4.253907511600240e-02 -3.757057162923428e-01 -2.078526868462580e-01 -3.278990416186467e-02 8.768196991385975e-02 -1.734583894871860e-02 1.011328907832779e-01 -2.274483746852652e-02
810190000.0000000000 8.501911302055816e-02 -1.544452510047562e-02 7.806597551014834e-02 -2.383191728608490e-02 -2.090961778468083e-01 4.106387861888897e-02 -1.702159649370806e-01 -3.374193926800627e-01
            7.811294512970361e-02 -2.379735317028456e-02 8.500202737292036e-02 -1.548116351795662e-02 -1.702032803394849e-01 -3.374166119196393e-01 -2.090618280469196e-01 4.111088517940367e-02
            -2.089528984729182e-01 4.104469766985689e-02 -1.701747565954341e-01 -3.375119702582752e-01 8.613236626251582e-02 -2.464041930482464e-02 7.379456787403220e-02 -1.811802087372076e-02
            -1.701665087002698e-01 -3.374854171957319e-01 -2.090239260563839e-01 4.107877025220290e-02 7.383808709900389e-02 -1.819674400300600e-02 8.613623286900106e-02 -2.458666117614300e-02
811022500.0000000000 7.347025793842882e-02 -8.323541518975576e-03 6.600702577798265e-02 -1.526260757388487e-02 -1.845043663631732e-01 1.124298881044310e-01 -2.766918145448951e-01 -2.565777026431551e-01
            6.603285966742893e-02 -1.520196846420095e-02 7.345521381816579e-02 -8.300034172870816e-03 -2.766384057370218e-01 -2.564848036530471e-01 -1.845444330982915e-01 1.124573164586083e-01
            -1.845497811187699e-01 1.124455338925576e-01 -2.767029040458307e-01 -2.566072491552381e-01 7.332300358866826e-02 -1.640997914338638e-02 6.268311393459290e-02 -9.398272357258866e-03
            -2.767207551256763e-01 -2.565845860693192e-01 -1.845066940128916e-01 1.124133813657276e-01 6.266311661933505e-02 -9.378753038612448e-03 7.333651762269161e-02 -1.639013810882465e-02
811855000.0000000000 6.976836285987273e-02 4.780639444265693e-03 6.250754637918172e-02 -8.456163654149716e-04 -1.353079959594487e-01 1.721941785033490e-01 -3.473788353821839e-01 -1.433553491219579e-01
            6.255976966432128e-02 -8.550158585794220e-04 6.980679363817414e-02 4.745941885439750e-03 -3.473357027079713e-01 -1.433328406723566e-01 -1.353777516301626e-01 1.722398690960263e-01
            -1.353445001834217e-01 1.721867697337532e-01 -3.473537382266120e-01 -1.432768380898547e-01 6.901299637271217e-02 -1.852513055183318e-03 6.005615428697803e-02 4.826121050186227e-03
            -3.473836839266105e-01 -1.432883250225170e-01 -1.353670071712161e-01 1.721973835631180e-01 5.995961724954318e-02 4.828813667852786e-03 6.896007673216281e-02 -1.792358661878620e-03
812687500.0000000000 7.592907422600555e-02 1.678023911480096e-02 6.938113537922734e-02 1.219413574402642e-02 -6.670113076406320e-02 2.110606993207696e-01 -3.733179076752033e-01 -1.353462601123777e-02
            6.935711913385045e-02 1.215162961893344e-02 7.593279539410201e-02 1.679997952265603e-02 -3.732499499168976e-01 -1.354933324192151e-02 -6.671990416547678e-02 2.109632630569102e-01
            -6.675678600908697e-02 2.110329809633503e-01 -3.733296803043829e-01 -1.352938609823599e-02 7.509419246729263e-02 1.168280423235783e-02 6.747705947435718e-02 1.732560553815442e-02
            -3.732608746897635e-01 -1.344163321669625e-02 -6.666699072962984e-02 2.110048221114215e-01 6.754663421602214e-02 1.731043497194617e-02 7.510180513682931e-02 1.167136773815482e-02
813520000.0000000000 8.864226956827252e-02 2.161781020432069e-02 8.277383820472796e-02 1.727809517671716e-02 1.185101152431436e-02 2.224128178261122e-01 -3.525801794916156e-01 1.155356394903640e-01
            8.272898587461161e-02 1.725594511501934e-02 8.865765397764917e-02 2.152737178460690e-02 -3.526278147089864e-01 1.155181077080042e-01 1.187499939385533e-02 2.223674289132861e-01
            1.180081579112690e-02 2.224274028618346e-01 -3.525884952782118e-01 1.155428661805326e-01 8.834486410548707e-02 1.777733435990953e-02 8.117753081329347e-02 2.196901688496339e-02
            -3.525632154476335e-01 1.155531993177309e-01 1.182435642049562e-02 2.224290870559489e-01 8.127085417110802e-02 2.187961687205769e-02 8.828735966500775e-02 1.777680807812581e-02
814352500.0000000000 1.014837013049023e-01 1.671962252756341e-02 9.588438739426548e-02 1.221723717158910e-02 8.916563317616796e-02 2.049602038278256e-01 -2.896720546133242e-01 2.283403312335053e-01
            9.591686206768599e-02 1.219929554571753e-02 1.014268828403472e-01 1.672242274889510e-02 -2.897459549553932e-01 2.284144086877318e-01 8.920497991915058e-02 2.049663622456443e-01
            8.917332943013709e-02 2.050176228848745e-01 -2.897572124274701e-01 2.283674881059214e-01 1.018646639821794e-01 1.374377869527573e-02 9.453473537243016e-02 1.669783476738568e-02
            -2.897235853621695e-01 2.283339059792905e-01 8.917041114992873e-02 2.049319285140641e-01 9.451132680072782e-02 1.663009384782616e-02 1.018640172956571e-01 1.374898655142312e-02
815185000.0000000000 1.081217525433333e-01 4.632052730060292e-03 1.024371901968184e-01 -1.293016340447887e-04 1.550476625112731e-01 1.619808298763554e-01 -1.930903004585804e-01 3.127671314043612e-01
            1.024466936385856e-01 -2.321414194355513e-04 1.080352584923197e-01 4.612107253307933e-03 -1.931305832749620e-01 3.126933744403440e-01 1.550451216752074e-01 1.619650837798635e-01
            1.550472203658239e-01 1.619588564688335e-01 -1.931774891261815e-01 3.127561624254069e-01 1.093442150161541e-01 1.996278573216977e-03 1.011707019538475e-01 4.113543076351189e-03
            -1.931007687032833e-01 3.127216148623719e-01 1.550290112379532e-01 1.619075537547549e-01 1.012390007097548e-01 4.146079496971905e-03 1.093464698298411e-01 1.992063990783700e-03
816017500.0000000000 1.052553224771707e-01 -8.970075857303646e-03 9.920195893487624e-02 -1.385127091060582e-02 2.021166481277044e-01 9.942502926659472e-02 -7.375759644378163e-02 3.594270258237319e-01
            9.924473044723499e-02 -1.386489083837516e-02 1.052733709419677e-01 -8.957716105826444e-03 -7.377869213877640e-02 3.595016180841252e-01 2.022040511370048e-01 9.935824791401254e-02
            2.021995402832041e-01 9.944281508728069e-02 -7.380399005295338e-02 3.594126804400309e-01 1.071252522984147e-01 -1.169241703222552e-02 9.819726279377246e-02 -9.439516774301715e-03
            -7.386490970915385e-02 3.595147977401569e-01 2.022204111735617e-01 9.943110041032416e-02 9.822436165808060e-02 -9.399383183417305e-03 1.071950854819108e-01 -1.171345873008372e-02
816850000.0000000000 9.426236387759752e-02 -1.773781459192687e-02 8.763175023002458e-02 -2.210368098329337e-02 2.259519327787628e-01 2.444915243945893e-02 5.478354261121013e-02 3.626674352794463e-01
            8.766258412597872e-02 -2.214349871323813e-02 9.434264809109109e-02 -1.771100300469676e-02 5.486995717433228e-02 3.627582853638219e-01 2.259152887263488e-01 2.444925182959246e-02
            2.259627860268993e-01 2.443274251576020e-02 5.487041177549342e-02 3.626363247454688e-01 9.659647976670638e-02 -2.052384206935498e-02 8.712128918118517e-02 -1.784065915710751e-02
            5.489175255829832e-02 3.626820246898936e-01 2.259441201317312e-01 2.441052575276799e-02 8.712757423057489e-02 -1.781639712566247e-02 9.665125243814673e-02 -2.057465415027736e-02
817682500.0000000000 8.018028587292232e-02 -1.736020639445477e-02 7.325294151044523e-02 -2.092163288008191e-02 2.230787256327471e-01 -5.532177311366660e-02 1.772945346935468e-01 3.207432244987011e-01
            7.320841931422559e-02 -2.087257185500478e-02 8.012490927535311e-02 -1.728598099403269e-02 1.772674861358486e-01 3.208069483067712e-01 2.231501102342221e-01 -5.530657188153654e-02
            2.231951306399727e-01 -5.536975335584062e-02 1.772659475581922e-01 3.207315202527107e-01 8.260285247533747e-02 -2.034130100174914e-02 7.328288873364454e-02 -1.690327481243603e-02
            1.772042605563324e-01 3.207056641375265e-01 2.231585476390136e-01 -5.536428032554000e-02 7.322353439417879e-02 -1.690942959585500e-02 8.258254223400176e-02 -2.027701791870532e-02
818515000.0000000000 6.961187660337534e-02 -7.619349502582223e-03 6.285433182019011e-02 -1.026261530563896e-02 1.925125784257160e-01 -1.309552910036222e-01 2.773080033860609e-01 2.380550100130739e-01
            6.300951701085683e-02 -1.031120913333701e-02 6.970188952882461e-02 -7.676331300263808e-03 2.772947612877352e-01 2.381235296054814e-01 1.925458629157390e-01 -1.309471219663335e-01
            1.926319065873237e-01 -1.309711610688053e-01 2.773072106198032e-01 2.381197032488928e-01 7.227738710180592e-02 -1.079072855070534e-02 6.342122201005769e-02 -6.921587969442548e-03
            2.773410190169266e-01 2.380748897860978e-01 1.926488092576259e-01 -1.309161034018232e-01 6.335595993822601e-02 -6.891605255691918e-03 7.224212222537819e-02 -1.084475173730726e-02
819347500.0000000000 6.818353853725483e-02 6.527940378314907e-03 6.217732942356337e-02 4.538816231907669e-03 1.360386442583853e-01 -1.922694011387240e-01 3.411992166027712e-01 1.257525592159057e-01
            6.205588005158798e-02 4.522493072306664e-03 6.816868633049067e-02 6.450247954115804e-03 3.412615994098429e-01 1.257540423464801e-01 1.361127773666237e-01 -1.923213944745599e-01
            1.361454914317900e-01 -1.923233211636012e-01 3.411944035521261e-01 1.257169872593388e-01 7.083461717018290e-02 3.237019146959321e-03 6.270620180571475e-02 7.176222557173752e-03
            3.411629557930594e-01 1.257938721348105e-01 1.361103765642820e-01 -1.922586427771271e-01 6.270396795077855e-02 7.121981994503848e-03 7.084852145239723e-02 3.244413112885866e-03
820180000.0000000000 7.625911800888195e-02 1.804578248751206e-02 7.119707038446547e-02 1.612396248144279e-02 6.033033815427701e-02 -2.298120942325959e-01 3.611277498048681e-01 -5.651691086801455e-04
            7.122660574272845e-02 1.617967522491190e-02 7.629000506224778e-02 1.808403469590553e-02 3.611092308281809e-01 -4.975566861724023e-04 6.030773444952852e-02 -2.297719383051602e-01
            6.030009253055389e-02 -2.298501199678546e-01 3.611208307995759e-01 -4.751536004424837e-04 7.912275449132232e-02 1.462348049417569e-02 7.140272999407125e-02 1.810793458772492e-02
            3.611821197020442e-01 -5.019117498514779e-04 6.030187990835457e-02 -2.298351908489101e-01 7.146256107594223e-02 1.816378335961494e-02 7.914896921305860e-02 1.460565035044806e-02
821012500.0000000000 8.987685564765176e-02 2.127969570510232e-02 8.553643763006773e-02 1.891987511813500e-02 -2.428382765243795e-02 -2.375953786767606e-01 3.364641246102337e-01 -1.241411803028986e-01
            8.550465073804689e-02 1.889483957619461e-02 8.988063918366218e-02 2.131204903249082e-02 3.364607858116249e-01 -1.241823796549168e-01 -2.433902136108404e-02 -2.375398520568256e-01
            -2.430858685932824e-02 -2.374936609023633e-01 3.364769220721797e-01 -1.241517908042645e-01 9.277739556746335e-02 1.769518951934044e-02 8.517830790963567e-02 2.058595141267882e-02
            3.364719275844487e-01 -1.241838126548805e-01 -2.432131841750888e-02 -2.374870481287023e-01 8.513788663806349e-02 2.057537633597157e-02 9.280821700056520e-02 1.777363585674600e-02
821845000.0000000000 1.021773055453725e-01 1.500221296267345e-02 9.793057231359428e-02 1.171789604416079e-02 -1.058039137806296e-01 -2.147875402871705e-01 2.718056768659193e-01 -2.308208646090401e-01
            9.798014223384627e-02 1.168834467189044e-02 1.021052261670275e-01 1.493347787828831e-02 2.718480731265920e-01 -2.308233783317717e-01 -1.058125104877139e-01 -2.147208599566218e-01
            -1.057593115456755e-01 -2.147728240088692e-01 2.717986607054248e-01 -2.309246714530034e-01 1.050298066817468e-01 1.114316367507386e-02 9.702331144955931e-02 1.353074954451750e-02
            2.718347761061417e-01 -2.307766437960790e-01 -1.057780038987589e-01 -2.147773833659044e-01 9.703878701301893e-02 1.348791777817559e-02 1.050522592711969e-01 1.108298137000030e-02
822677500.0000000000 1.072706733657687e-01 2.231964016160708e-03 1.026609887162903e-01 -1.746837751268679e-03 -1.738615218500774e-01 -1.655918452442306e-01 1.755534737918616e-01 -3.090546055641907e-01
            1.026020357592795e-01 -1.809625599306191e-03 1.072518929023345e-01 2.271130116811334e-03 1.756413983095740e-01 -3.090109922569635e-01 -1.738489831029363e-01 -1.655974486278066e-01
            -1.738352681147327e-01 -1.655417823893598e-01 1.756247062928996e-01 -3.090834587706427e-01 1.101917971263900e-01 -1.891362813680289e-03 1.012816529775368e-01 3.312290396129813e-04
            1.756554871125794e-01 -3.090092673054096e-01 -1.738506825962613e-01 -1.655483305856028e-01 1.013504897205867e-01 4.988018072212111e-04 1.100958992840895e-01 -1.866904928121219e-03
823510000.0000000000 1.029145397995067e-01 -1.061146573443577e-02 9.741911292612923e-02 -1.510235663933942e-02 -2.211956766322309e-01 -9.649431096615679e-02 5.846351812835467e-02 -3.500681223091177e-01
            9.739326085368195e-02 -1.507267173353272e-02 1.030282363400284e-01 -1.056425243872394e-02 5.850563570870674e-02 -3.500576372503877e-01 -2.211995411933930e-01 -9.644904415880072e-02
            -2.211696719247916e-01 -9.646552364878382e-02 5.847329660070002e-02 -3.500807329437270e-01 1.055004672214734e-01 -1.498236249208164e-02 9.600696189028485e-02 -1.211630195490894e-02
            5.846316216349910e-02 -3.500633069498278e-01 -2.212037310065695e-01 -9.652575633720696e-02 9.611563737690376e-02 -1.216128252207963e-02 1.054557299981388e-01 -1.498152284823043e-02
824342500.0000000000 9.131293161017563e-02 -1.753361161029611e-02 8.460032557992823e-02 -2.187424504940817e-02 -2.429097382209372e-01 -1.498377385144899e-02 -6.616779094620000e-02 -3.484686961375209e-01
            8.464395420776791e-02 -2.183335520506592e-02 9.136331945698739e-02 -1.755757689165824e-02 -6.621460422323293e-02 -3.484245503921963e-01 -2.429184642385903e-01 -1.503466194351965e-02
            -2.428878563412013e-01 -1.507105982816590e-02 -6.622617724697782e-02 -3.484627899048928e-01 9.348378948762656e-02 -2.214455587178547e-02 8.376818812638596e-02 -1.837140543880370e-02
            -6.624334089467443e-02 -3.485361889753779e-01 -2.429246730922674e-01 -1.506391089234283e-02 8.371864417234488e-02 -1.836084416714754e-02 9.352018109893775e-02 -2.215405878702251e-02
825175000.0000000000 7.795872191177895e-02 -1.501270545400191e-02 7.031819927762992e-02 -1.853671198303634e-02 -2.358721126485248e-01 7.031705674387728e-02 -1.830531051417246e-01 -3.031359680367238e-01
            7.025909768609229e-02 -1.857678980038928e-02 7.793964967027023e-02 -1.511892945449042e-02 -1.830272720800523e-01 -3.031747091357009e-01 -2.358696277188748e-01 7.025035130722629e-02
            -2.358175033653616e-01 7.027256646678884e-02 -1.830589915957396e-01 -3.030901740750910e-01 7.961500649474043e-02 -1.973862913022179e-02 7.025650427204434e-02 -1.477118835701381e-02
            -1.830934610292268e-01 -3.032061899375049e-01 -2.358747257873476e-01 7.019331270994150e-02 7.028718858094858e-02 -1.487400882520493e-02 7.973256743040368e-02 -1.977241645785347e-02
826007500.0000000000 6.949538259900441e-02 -4.301837297555536e-03 6.147324045857129e-02 -6.624848466121512e-03 -1.990547672200793e-01 1.496184564969005e-01 -2.763526047209240e-01 -2.193294091713296e-01
            6.139551068620155e-02 -6.602566907857046e-03 6.955665345431543e-02 -4.261685558542123e-03 -2.763651852897366e-01 -2.193609751473617e-01 -1.990437906537539e-01 1.496189704757884e-01
            -1.991037429352721e-01 1.496853476159558e-01 -2.762963066582784e-01 -2.193985581177045e-01 7.072492108353808e-02 -8.879937235588971e-03 6.236339486535406e-02 -3.102297627055676e-03
            -2.763183336231396e-01 -2.194140676946573e-01 -1.989702000621793e-01 1.495548344827838e-01 6.226605870545498e-02 -2.987350748875366e-03 7.080512905241257e-02 -8.955885376322725e-03
826840000.0000000000 7.055431409549709e-02 9.539895912269291e-03 6.263675395124840e-02 8.276082797611295e-03 -1.354041222406783e-01 2.120161828875098e-01 -3.334201989371368e-01 -1.085670429672795e-01
            6.267976067210805e-02 8.189803629915553e-03 7.049389890861722e-02 9.444485005842966e-03 -3.334915963025726e-01 -1.085574129563549e-01 -1.354124552081918e-01 2.119288671915436e-01
            -1.353948143956740e-01 2.119662905351594e-01 -3.334239712894120e-01 -1.086228480330963e-01 7.131613800527599e-02 5.040913628275788e-03 6.410119563316995e-02 1.121995477132272e-02
            -3.334007485651768e-01 -1.086455214678225e-01 -1.353679353991726e-01 2.119956742651871e-01 6.409781460570020e-02 1.117462033194488e-02 7.141012591421809e-02 5.050059559713463e-03
827672500.0000000000 8.038769730269944e-02 1.900492748337628e-02 7.310461124190758e-02 1.848797137553246e-02 -5.271449937388667e-02 2.476638724400314e-01 -3.477844856064241e-01 1.363772183002140e-02
            7.318284097525236e-02 1.849895134541838e-02 8.044284934349744e-02 1.901595594388274e-02 -3.478190186161376e-01 1.367737503507649e-02 -5.278532965707095e-02 2.477237684373809e-01
            -5.268314295181242e-02 2.476141797475198e-01 -3.477584049963067e-01 1.366665791833466e-02 8.090625112181460e-02 1.490366738563455e-02 7.498563808160354e-02 2.078994211194709e-02
            -3.477936155630728e-01 1.364306231439522e-02 -5.267879324102426e-02 2.476396566986465e-01 7.487058217597145e-02 2.075961194504469e-02 8.089600642421615e-02 1.479074411945943e-02
828505000.0000000000 9.406244460323156e-02 1.955737226664596e-02 8.765944415944257e-02 1.936180786110279e-02 3.738859637373058e-02 2.513065992620856e-01 -3.195560818133471e-01 1.316994092708015e-01
            8.760145677369383e-02 1.940892946842708e-02 9.409133369084027e-02 1.951344712292903e-02 -3.194929594187477e-01 1.316586821559922e-01 3.733776583047708e-02 2.513499738136493e-01
            3.737096294188867e-02 2.512966374939936e-01 -3.194939775573508e-01 1.315722530910241e-01 9.442425673259390e-02 1.582591419306085e-02 8.927518330171472e-02 2.093675018130444e-02
            -3.195085559148362e-01 1.317080262124783e-01 3.737030061466368e-02 2.512450982224407e-01 8.926025192462370e-02 2.092135293563989e-02 9.438144589617097e-02 1.592962760009202e-02
829337500.0000000000 1.047377666576320e-01 1.116750625458846e-02 9.888714480247658e-02 1.082021522362187e-02 1.225396143765535e-01 2.231699815906860e-01 -2.535403312619448e-01 2.320629740244057e-01
            9.892021308875891e-02 1.074812842871687e-02 1.047634400110001e-01 1.120704501509187e-02 -2.535361762660783e-01 2.319949471664678e-01 1.225477360048354e-01 2.231328884247109e-01
            1.226465515810232e-01 2.231979955709353e-01 -2.536207760172885e-01 2.320159156118858e-01 1.050906419128221e-01 7.680819866329697e-03 1.001318786016184e-01 1.200563875447540e-02
            -2.536403534916602e-01 2.320265640424211e-01 1.225311713451186e-01 2.232214152745153e-01 1.001232956319377e-01 1.192180467398674e-02 1.050456336437957e-01 7.779925093253662e-03
830170000.0000000000 1.074498455198344e-01 -2.252342304170105e-03 1.017762095746194e-01 -2.935316764768989e-03 1.924242922180576e-01 1.678539864490484e-01 -1.581394763286142e-01 3.040428243941927e-01
            1.017476343712993e-01 -3.012369199299730e-03 1.074451130097557e-01 -2.191786590902644e-03 -1.581848561758003e-01 3.039987926244466e-01 1.924577107284011e-01 1.678592315443125e-01
            1.923964571633748e-01 1.678013808334028e-01 -1.580540368769916e-01 3.039103813277903e-01 1.076946099923736e-01 -5.332743353696249e-03 1.026651017108505e-01 -1.769340222101056e-03
            -1.580952800870518e-01 3.039815923296620e-01 1.924681080642998e-01 1.678717818101844e-01 1.027055880583153e-01 -1.757405162686997e-03 1.077335981031945e-01 -5.415071202657861e-03
831002500.0000000000 1.007688471332728e-01 -1.416819957749947e-02 9.495718876714467e-02 -1.517713000485909e-02 2.395034526560665e-01 9.227926285937411e-02 -4.371166238970594e-02 3.393652574457208e-01
            9.491795160427091e-02 -1.519668443674395e-02 1.008131273218848e-01 -1.423903125334974e-02 -4.360812669610542e-02 3.393691321041681e-01 2.396544127732749e-01 9.235830841652347e-02
            2.395899994959158e-01 9.236655392585183e-02 -4.362449524741204e-02 3.393527698107575e-01 1.013248747751045e-01 -1.714687549764127e-02 9.576715344128188e-02 -1.380733693303573e-02
            -4.360913447844032e-02 3.393896106304088e-01 2.396106644992239e-01 9.231212410813816e-02 9.571044156357754e-02 -1.383753654247022e-02 1.012241278442932e-01 -1.708661288688054e-02
831835000.0000000000 8.785390102732930e-02 -1.897004756273273e-02 8.163965457095269e-02 -2.006807428512898e-02 2.588611981362937e-01 4.655740767661500e-03 7.663744352351594e-02 3.330919604770710e-01
            8.167627231983723e-02 -1.997116572500846e-02 8.786530046909723e-02 -1.900684562997670e-02 7.661253055081621e-02 3.331385141636535e-01 2.588732920379503e-01 4.663364558595519e-03
            2.589056250120206e-01 4.611915964821522e-03 7.660814932317341e-02 3.330550908189885e-01 8.844538895857673e-02 -2.173248794512384e-02 8.265900900828621e-02 -1.836766300469032e-02
            7.663048673421645e-02 3.330894928793808e-01 2.589152124718022e-01 4.630062413920163e-03 8.255975860741141e-02 -1.849323251973836e-02 8.847013490498784e-02 -2.192147170470614e-02
832667500.0000000000 7.478070793496394e-02 -1.414089543836573e-02 6.824465138098863e-02 -1.479028518366115e-02 2.472022756098713e-01 -8.583513090815308e-02 1.875413121234484e-01 2.848359441643047e-01
            6.832192111489546e-02 -1.477145223134976e-02 7.483020464543126e-02 -1.410235730475294e-02 1.875169445825096e-01 2.848591033887822e-01 2.471890994526199e-01 -8.593256228597813e-02
            2.472148678720085e-01 -8.586894395564566e-02 1.875020933156059e-01 2.847927490937211e-01 7.553655735873320e-02 -1.716305251398700e-02 6.957959772824916e-02 -1.315320020873065e-02
            1.875216319950131e-01 2.848225278317853e-01 2.471909152947935e-01 -8.587629747698057e-02 6.966878695195133e-02 -1.317369084640076e-02 7.549576832556987e-02 -1.708612310589197e-02
833500000.0000000000 6.822108368343735e-02 -1.839903971703610e-03 6.156897144508609e-02 -1.850598567174138e-03 2.039837532236466e-01 -1.683990287736969e-01 2.738809173537401e-01 2.004096938300725e-01
            6.157874854054077e-02 -1.950987447581337e-03 6.821868724430419e-02 -1.776839476431638e-03 2.739393606200393e-01 2.004059037381363e-01 2.039853876126123e-01 -1.682688175308169e-01
            2.039657393126751e-01 -1.683618432563818e-01 2.738841265294824e-01 2.004232078190418e-01 6.888944607028852e-02 -4.942093266779354e-03 6.348556424793153e-02 -5.905783219301939e-04
            2.738966315375111e-01 2.003397135571186e-01 2.039687228580991e-01 -1.683597738507529e-01 6.346985685731038e-02 -5.310575938102509e-04 6.884563363741025e-02 -4.940982079305681e-03
834332500.0000000000 7.148282457574022e-02 1.179869289798027e-02 6.492004095355711e-02 1.221393636546643e-02 1.332884323273264e-01 -2.310786252270104e-01 3.242608785182532e-01 9.185102448868156e-02
            6.497695857494511e-02 1.223416834889103e-02 7.141131098009215e-02 1.185845592976955e-02 3.242366192441980e-01 9.180707857356298e-02 1.332382627564382e-01 -2.309964243230132e-01
            1.332759606795102e-01 -2.310102406950266e-01 3.242470900659626e-01 9.183058007473018e-02 7.191325723419191e-02 8.567689084191301e-03 6.729117619076631e-02 1.299151128580725e-02
            3.242357375679185e-01 9.177829771001343e-02 1.332175615008412e-01 -2.311147037607031e-01 6.728707970019711e-02 1.297696721814537e-02 7.188910018468045e-02 8.644526548462494e-03
835165000.0000000000 8.287015590150205e-02 1.988789705692623e-02 7.666973116785897e-02 2.077039467607006e-02 4.408288735741152e-02 -2.643850185620423e-01 3.332343488780709e-01 -2.585404835451745e-02
            7.665744395890790e-02 2.075214811865339e-02 8.288042759750065e-02 1.992805392233243e-02 3.333136807166318e-01 -2.585070800913015e-02 4.403574830955719e-02 -2.644618680096213e-01
            4.406172479016392e-02 -2.644404949243055e-01 3.332650809050526e-01 -2.584380507777340e-02 8.300077763599902e-02 1.648348591780999e-02 7.916636025184635e-02 2.059717123519636e-02
            3.332810522679318e-01 -2.587788384597308e-02 4.405748123990521e-02 -2.645206802357967e-01 7.922347837400794e-02 2.067017623596197e-02 8.300634664593513e-02 1.654712167668543e-02
835997500.0000000000 9.669892330749612e-02 1.845141442859627e-02 9.081225325209488e-02 1.947084313643075e-02 -5.112562208034044e-02 -2.638692587227727e-01 3.018078928792996e-01 -1.379211418772592e-01
            9.077726876765724e-02 1.944918118495385e-02 9.671570685692096e-02 1.848376712404967e-02 3.018624913820331e-01 -1.379177274581496e-01 -5.105404797102611e-02 -2.638908762274567e-01
            -5.114071664040938e-02 -2.639322564133039e-01 3.018205095656005e-01 -1.379082423369995e-01 9.627388515412016e-02 1.517721967814327e-02 9.318662666274533e-02 1.858214473135475e-02
            3.017903391131750e-01 -1.379616242713407e-01 -5.107757239192239e-02 -2.638429679515731e-01 9.310849036384798e-02 1.862687829594580e-02 9.637921367094060e-02 1.523811384574132e-02
836830000.0000000000 1.061359502088430e-01 8.443579751464843e-03 1.006040507664004e-01 9.421429478293816e-03 -1.394833545235693e-01 -2.303019412418581e-01 2.349916463178010e-01 -2.318535871641379e-01
            1.005730921540131e-01 9.552211293964072e-03 1.060730165172395e-01 8.543490595185865e-03 2.349838748952993e-01 -2.318296515099041e-01 -1.395620325684863e-01 -2.302975751669445e-01
            -1.394965744952678e-01 -2.302993242786044e-01 2.350295382994422e-01 -2.318104230380101e-01 1.052228947940807e-01 5.538017962849159e-03 1.023644432700459e-01 7.993324457418544e-03
            2.350478957710796e-01 -2.318918264932786e-01 -1.394751740306554e-01 -2.303508921353520e-01 1.023612595285408e-01 8.002617210935049e-03 1.053876381585581e-01 5.469283036579202e-03
837662500.0000000000 1.068922565056746e-01 -5.206874913707251e-03 1.014567286697786e-01 -4.129483479322159e-03 -2.108516238350439e-01 -1.687893409642631e-01 1.407466120169691e-01 -2.975188737307204e-01
            1.015082007392721e-01 -4.152700659661408e-03 1.068970972182596e-01 -5.134977944101542e-03 1.407582242887659e-01 -2.975725908346116e-01 -2.107401697311065e-01 -1.688264209389317e-01
            -2.107765860213917e-01 -1.687914550019895e-01 1.407173387798872e-01 -2.975645320100790e-01 1.057235812878055e-01 -7.616624261096474e-03 1.025386055263792e-01 -6.126148478468595e-03
            1.407042510912035e-01 -2.975828346019316e-01 -2.107378718100951e-01 -1.688075693947444e-01 1.026015665786359e-01 -6.161964975730253e-03 1.056753494732018e-01 -7.669837520049096e-03
838495000.0000000000 9.866875048386421e-02 -1.606382393862280e-02 9.325142391424880e-02 -1.497179516757278e-02 -2.572678407778879e-01 -8.688476779147140e-02 2.939850648052146e-02 -3.274315527494306e-01
            9.319495168251657e-02 -1.503930621265672e-02 9.871526904633504e-02 -1.604858209471427e-02 2.935059905160452e-02 -3.274273546547607e-01 -2.572638777023689e-01 -8.696785236446854e-02
            -2.573444574730099e-01 -8.695764142664306e-02 2.929514438663194e-02 -3.274153293029031e-01 9.726409382474292e-02 -1.795222685536736e-02 9.359778141896599e-02 -1.708458004224897e-02
            2.940440994793087e-02 -3.273971698908898e-01 -2.573400745692253e-01 -8.690162777762138e-02 9.360769461127082e-02 -1.702905801151135e-02 9.723937985043007e-02 -1.800579564339952e-02
839327500.0000000000 8.525403611579090e-02 -1.900659198754667e-02 7.997151502500739e-02 -1.756871714893018e-02 -2.738068083472949e-01 6.731858535201299e-03 -8.609642520313476e-02 -3.167402571731818e-01
            7.998999173624916e-02 -1.757529105570714e-02 8.532803589620780e-02 -1.898876053225281e-02 -8.610321471108688e-02 -3.166594452518520e-01 -2.737195964615739e-01 6.728056913454863e-03
            -2.737771609268534e-01 6.827161679606640e-03 -8.606118769023567e-02 -3.167129782001498e-01 8.389719014728443e-02 -2.026494042238115e-02 7.948778482873151e-02 -1.949423849642721e-02
            -8.610051686549063e-02 -3.167318514193202e-01 -2.737586727070275e-01 6.784229933022344e-03 7.948473534787279e-02 -1.950442590022734e-02 8.393722944189115e-02 -2.027723916463335e-02
840160000.0000000000 7.319726989909793e-02 -1.239682691638849e-02 6.815991572101585e-02 -1.055542975062351e-02 -2.571023755235084e-01 1.019867506634651e-01 -1.905802826796421e-01 -2.658595243323448e-01
            6.802091218199341e-02 -1.050249190508770e-02 7.319403425747496e-02 -1.236827045537160e-02 -1.906022585651829e-01 -2.658143453124749e-01 -2.570951442672542e-01 1.019870065122144e-01
            -2.570447121301737e-01 1.020063641435005e-01 -1.906332694236269e-01 -2.658086091591060e-01 7.201841522591322e-02 -1.300604712029977e-02 6.721643307672642e-02 -1.220652866476979e-02
            -1.905903451804969e-01 -2.657613113592985e-01 -2.572019238071794e-01 1.019830938497821e-01 6.722703298993177e-02 -1.226234803270991e-02 7.210169947395066e-02 -1.308516680875450e-02
840992500.0000000000 6.863518283333807e-02 5.771085798193703e-04 6.400649999929368e-02 2.767598835586129e-03 -2.074288109354904e-01 1.869400864380017e-01 -2.698171372451879e-01 -1.813761830621345e-01
            6.396749596178486e-02 2.705085892962144e-03 6.854974920955285e-02 5.602281649394041e-04 -2.697951934747378e-01 -1.813578807057009e-01 -2.073324254148947e-01 1.869430850413858e-01
            -2.073538471443911e-01 1.868864107218466e-01 -2.698417897110467e-01 -1.814344197508514e-01 6.783462634953213e-02 4.226175606800093e-04 6.283926789375548e-02 1.481291501331287e-03
            -2.698456888691528e-01 -1.814527604340629e-01 -2.072817506826761e-01 1.868591080059960e-01 6.287270363893210e-02 1.514782506707701e-03 6.792681754588611e-02 4.999255584902050e-04
841825000.0000000000 7.362873299131212e-02 1.334991999587682e-02 6.986415349657676e-02 1.557713709747815e-02 -1.296268952329453e-01 2.493968471074861e-01 -3.135849631759398e-01 -7.547328030588102e-02
            6.987317335872978e-02 1.554061162979141e-02 7.368508552543485e-02 1.333463518496599e-02 -3.134494872732310e-01 -7.557652966271351e-02 -1.296720585106815e-01 2.493937707434912e-01
            -1.296939530370317e-01 2.494129438128574e-01 -3.135409044695522e-01 -7.569211382153410e-02 7.372217706961877e-02 1.340058795472290e-02 6.849378835116471e-02 1.464296634011981e-02
            -3.136452385481588e-01 -7.548701040511462e-02 -1.297111980032155e-01 2.493837374384020e-01 6.853276619916522e-02 1.470974267706453e-02 7.368557193944861e-02 1.330035869181760e-02
842657500.0000000000 8.595313031708232e-02 1.940222863068949e-02 8.296797076541985e-02 2.132871436327654e-02 -3.434149407590426e-02 2.800238952354638e-01 -3.176166985697016e-01 3.699698876978965e-02
            8.293887126500760e-02 2.137353650497367e-02 8.592834058073415e-02 1.937759276148551e-02 -3.176361902004222e-01 3.699956731318045e-02 -3.434451721538113e-02 2.800836656084923e-01
            -3.431314720119467e-02 2.800693056768050e-01 -3.176462507452464e-01 3.704069315129301e-02 8.638116836051088e-02 1.946224709811801e-02 8.144583993274696e-02 2.076158911567926e-02
            -3.176413865615529e-01 3.705904921555522e-02 -3.427751183032326e-02 2.800324428297496e-01 8.135561169936580e-02 2.078250479870470e-02 8.647066947054269e-02 1.943705309681567e-02
843490000.0000000000 9.905847352180411e-02 1.596643007434610e-02 9.650875025095143e-02 1.733057083056557e-02 6.538667730023265e-02 2.749753196244181e-01 -2.834996047924729e-01 1.429066361570948e-01
            9.649688454835993e-02 1.726861913071098e-02 9.900682946145442e-02 1.591932494995401e-02 -2.834501468386558e-01 1.428911315460596e-01 6.538154220639202e-02 2.749425028001148e-01
            6.533588226460681e-02 2.749451574388925e-01 -2.835293862255311e-01 1.429462938912082e-01 9.993882143721446e-02 1.570768538015393e-02 9.493519301248410e-02 1.697203103828595e-02
            -2.834474393678899e-01 1.428598393496255e-01 6.537581706968473e-02 2.749720744089432e-01 9.496364336975037e-02 1.697671578078071e-02 9.993351029381098e-02 1.584742695586861e-02
844322500.0000000000 1.066252198079831e-01 4.878547599361831e-03 1.042681484951971e-01 5.451741467803976e-03 1.565703269613736e-01 2.358224987667850e-01 -2.162862242047827e-01 2.301786386940794e-01
            1.042927348178675e-01 5.393570762011668e-03 1.066918984457485e-01 4.760209298475436e-03 -2.163050139743161e-01 2.302214125609951e-01 1.565195752311789e-01 2.357748662082591e-01
            1.565185226408445e-01 2.358041641578480e-01 -2.163098961867134e-01 2.301620364738538e-01 1.078460275867616e-01 4.306154604247261e-03 1.027104818792240e-01 5.309803670248312e-03
            -2.163959908313652e-01 2.301872857840139e-01 1.565623122340443e-01 2.358039018472062e-01 1.027257331226351e-01 5.347084760821148e-03 1.078247653176389e-01 4.380425333080646e-03
845155000.0000000000 1.052290358438470e-01 -8.615157636046162e-03 1.025986338948402e-01 -8.712105727208734e-03 2.286418425499349e-01 1.683668811840900e-01 -1.236384843823825e-01 2.897374367616687e-01
            1.026669946317133e-01 -8.631613220000217e-03 1.052340525757016e-01 -8.555308728254694e-03 -1.236815532162032e-01 2.897321569703414e-01 2.286649212769911e-01 1.683435222639015e-01
            2.286577823947373e-01 1.683848126078424e-01 -1.237264548245173e-01 2.897666625061457e-01 1.064297510669356e-01 -9.484188605617224e-03 1.010678745559017e-01 -8.417638215951652e-03
            -1.237352994314181e-01 2.897545021600842e-01 2.286431434764915e-01 1.683194040779945e-01 1.011126986038440e-01 -8.409284158714659e-03 1.063808997651902e-01 -9.303099230885029e-03
845987500.0000000000 9.540910988780402e-02 -1.796396730082276e-02 9.226591080384332e-02 -1.833414775762474e-02 2.741222007704959e-01 8.033318602988029e-02 -1.588165440117965e-02 3.141157500139598e-01
            9.224910272701886e-02 -1.826254225134685e-02 9.539202335482383e-02 -1.796229428190321e-02 -1.589146375702892e-02 3.141914134676997e-01 2.739818205555196e-01 8.034364447009271e-02
            2.740424576039062e-01 8.035822922901388e-02 -1.596448138480892e-02 3.141926970021052e-01 9.654063332527735e-02 -1.891863722255042e-02 9.091332554723174e-02 -1.791467439130650e-02
            -1.586847558103890e-02 3.142659580789526e-01 2.740792456827885e-01 8.028443344845647e-02 9.088524447547121e-02 -1.789274571747976e-02 9.658072797528451e-02 -1.896685025191586e-02
846820000.0000000000 8.174895395365081e-02 -1.855816738921031e-02 7.808629246166682e-02 -1.902348219075610e-02 2.874046429911463e-01 -1.890278550972827e-02 9.434619834964920e-02 2.994850335571675e-01
            7.814207937955124e-02 -1.900621744879739e-02 8.172812608438830e-02 -1.852112165218985e-02 9.435028329025204e-02 2.994521022898082e-01 2.873386190686127e-01 -1.881294248317869e-02
            2.873551817904899e-01 -1.890003727562031e-02 9.426575724941441e-02 2.994063200198924e-01 8.275433006777695e-02 -1.978179208258593e-02 7.692408143015925e-02 -1.838347026810484e-02
            9.426254737743960e-02 2.995392922752065e-01 2.873857665320771e-01 -1.891045776871789e-02 7.701118163882202e-02 -1.841872032323687e-02 8.274925928607937e-02 -1.970097502239299e-02
847652500.0000000000 7.093350448630724e-02 -1.011968278828530e-02 6.700458427438102e-02 -1.009224833131157e-02 2.655153989735454e-01 -1.182634133589215e-01 1.922227889467305e-01 2.464726011737481e-01
            6.703502931003809e-02 -1.022239962425576e-02 7.092950245590146e-02 -1.008811671659104e-02 1.922751998738016e-01 2.466078677691700e-01 2.655094098229712e-01 -1.183103139489528e-01
            2.654509797520398e-01 -1.182976204423674e-01 1.922360707791229e-01 2.465533202624682e-01 7.185882420849908e-02 -1.121964892041046e-02 6.593171554439291e-02 -9.508008002992500e-03
            1.922207145396781e-01 2.465599708428493e-01 2.655020484090890e-01 -1.183251412043084e-01 6.588146295905023e-02 -9.446699669203409e-03 7.176720706930460e-02 -1.126743867867496e-02
848485000.0000000000 6.841083391661354e-02 3.435109937109416e-03 6.449746781072949e-02 3.812839697576458e-03 2.092304981064305e-01 -2.051790703961023e-01 2.644099070465020e-01 1.627002239824334e-01
            6.448443224754759e-02 3.851238252046644e-03 6.844575473832347e-02 3.420329341966932e-03 2.643945902348638e-01 1.626793801147195e-01 2.093236744310958e-01 -2.051140996670381e-01
            2.093120253727792e-01 -2.051238392460962e-01 2.644200414480932e-01 1.626773412021892e-01 6.924222335842972e-02 2.468683195350639e-03 6.374593960858775e-02 4.407855534702830e-03
            2.644272160438116e-01 1.626853202497995e-01 2.091878419652010e-01 -2.051303068431208e-01 6.370066097213568e-02 4.469006899902212e-03 6.920196334916207e-02 2.469987691320649e-03
849317500.0000000000 7.554846508023533e-02 1.525197125083915e-02 7.189062905136692e-02 1.590621368062542e-02 1.249681217888521e-01 -2.668552739781003e-01 3.017209111385045e-01 6.005496243324140e-02
            7.188466149643126e-02 1.596617055776644e-02 7.544055970802045e-02 1.528256141568454e-02 3.017917069934981e-01 6.013229450992512e-02 1.248624714205917e-01 -2.669392933558083e-01
            1.248728281831310e-01 -2.668353594854193e-01 3.018008522734637e-01 6.007847074493908e-02 7.627363817148948e-02 1.441210624727967e-02 7.112879392509995e-02 1.644863844230212e-02
            3.017536574646929e-01 6.009816391956852e-02 1.248990309600553e-01 -2.669256650729780e-01 7.117499159762254e-02 1.643256950080391e-02 7.634686733469961e-02 1.433030335249243e-02
850150000.0000000000 8.845340909018636e-02 1.939069683739596e-02 8.538363660091206e-02 1.999655413317783e-02 2.393465065329626e-02 -2.946280551821359e-01 3.012106646931238e-01 -4.722552057498427e-02
            8.532801735912461e-02 2.003874524193352e-02 8.843274915470543e-02 1.942695652835535e-02 3.012909638870645e-01 -4.725516956018649e-02 2.395405493581038e-02 -2.944958799186407e-01
            2.390462166636854e-02 -2.945738228910167e-01 3.012006746191046e-01 -4.717749012509811e-02 8.939814173232140e-02 1.852447335759887e-02 8.469255962531454e-02 2.044392039416913e-02
            3.012826749677167e-01 -4.722051045719218e-02 2.391318536736388e-02 -2.945584306475046e-01 8.463867145518963e-02 2.043879223657301e-02 8.939489736149399e-02 1.851968856953342e-02
850982500.0000000000 1.008700622826720e-01 1.408825623888128e-02 9.805036659780213e-02 1.429670468560557e-02 -7.997135410818131e-02 -2.848282522708682e-01 2.648553918431391e-01 -1.466836152085613e-01
            9.803752060608159e-02 1.431749264994210e-02 1.008362251071194e-01 1.405271338758596e-02 2.648681208949529e-01 -1.466930845505100e-01 -7.989869941971436e-02 -2.849308876875607e-01
            -7.991892551580802e-02 -2.848535165323721e-01 2.647894474192954e-01 -1.466742842444559e-01 1.018546717450840e-01 1.318280703857647e-02 9.726662137028011e-02 1.468117284387435e-02
            2.648213808821035e-01 -1.466683250605959e-01 -7.987741895938288e-02 -2.848967538445190e-01 9.722742084405171e-02 1.472190839621191e-02 1.018914648911636e-01 1.321598899093504e-02
851815000.0000000000 1.067127820220608e-01 2.023747104599895e-03 1.040239004518703e-01 1.789955614062518e-03 -1.734331258901297e-01 -2.402817810997201e-01 1.975861844395456e-01 -2.274896713242267e-01
            1.040462467739164e-01 1.819579931776705e-03 1.067313786272259e-01 2.050349070030860e-03 1.975949769529940e-01 -2.274616130842486e-01 -1.733564425685628e-01 -2.401763698031626e-01
            -1.734045544459809e-01 -2.402164994085573e-01 1.975795313259666e-01 -2.275233145928245e-01 1.077274223030384e-01 1.056387041909581e-03 1.030929429513973e-01 2.232864953438614e-03
            1.975981896948505e-01 -2.274837532714342e-01 -1.734648195742659e-01 -2.402504296082278e-01 1.031053799955597e-01 2.158385128789340e-03 1.078253951838476e-01 1.137590279267375e-03
852647500.0000000000 1.033306275671149e-01 -1.078677328777682e-02 1.004189127275745e-01 -1.152546497968862e-02 -2.461120101958717e-01 -1.668524710712599e-01 1.068818471541980e-01 -2.808805394735918e-01
            1.003852667614518e-01 -1.160370927146822e-02 1.032467788924073e-01 -1.075618258791304e-02 1.069570699527704e-01 -2.808430653740401e-01 -2.461509867801830e-01 -1.667384485070352e-01
            -2.461381994779130e-01 -1.667444232551202e-01 1.068771639102813e-01 -2.809130440233207e-01 1.044302833756719e-01 -1.194518502170055e-02 9.947272258786756e-02 -1.097299018096143e-02
            1.069788401717021e-01 -2.807800214679148e-01 -2.461695042169987e-01 -1.667678922982286e-01 9.946651740264048e-02 -1.098081522280092e-02 1.044384935508074e-01 -1.185806657435974e-02
853480000.0000000000 9.224408233306496e-02 -1.837350722232759e-02 8.891049823657324e-02 -1.937965742040135e-02 -2.900810557144123e-01 -7.277915390522798e-02 2.977518343570854e-03 -3.000366879628708e-01
            8.896102025940678e-02 -1.947124566286380e-02 9.224528484450535e-02 -1.840733627684875e-02 2.988058345019244e-03 -2.999847098172570e-01 -2.901366794510217e-01 -7.274475038721330e-02
            -2.900620525811857e-01 -7.279510069746903e-02 2.972569029290719e-03 -2.999357031462109e-01 9.338983585022305e-02 -1.952289864250537e-02 8.796590273255449e-02 -1.871928170071266e-02
            3.024339950220529e-03 -3.000286801464884e-01 -2.901038549585694e-01 -7.279890083920344e-02 8.802642198884744e-02 -1.872113434442946e-02 9.340563352771296e-02 -1.960001968021553e-02
854312500.0000000000 7.876542476856274e-02 -1.695133255253915e-02 7.496767958334047e-02 -1.786494210992199e-02 -2.998574637651205e-01 3.188782438601703e-02 -1.015714765038647e-01 -2.812785138419781e-01
            7.488506785395245e-02 -1.784449403209333e-02 7.875240140564828e-02 -1.697715987096350e-02 -1.015732198753899e-01 -2.813034795118590e-01 -2.998507980484950e-01 3.186969543010839e-02
            -2.998816295472263e-01 3.182487541473621e-02 -1.014106588190513e-01 -2.813203730880689e-01 7.978895704157378e-02 -1.818654097040052e-02 7.424359068047258e-02 -1.706279872377116e-02
            -1.016268620157707e-01 -2.812759625948034e-01 -2.998021629386876e-01 3.189420922229043e-02 7.423779367043855e-02 -1.696141106563338e-02 7.982154725291450e-02 -1.817968376915438e-02
855145000.0000000000 6.953078357066050e-02 -6.820719850174416e-03 6.549474155109584e-02 -7.412698931883911e-03 -2.725131585425766e-01 1.349865101962579e-01 -1.925559232138704e-01 -2.267250337453798e-01
            6.550410575660354e-02 -7.325728221468376e-03 6.943412138497820e-02 -6.835949093905996e-03 -1.925376886605558e-01 -2.267021784092218e-01 -2.724968598419827e-01 1.349118514243027e-01
            -2.725031380396435e-01 1.350347649713254e-01 -1.925716855305440e-01 -2.267464305952848e-01 7.054009141171687e-02 -8.042102996745411e-03 6.496474265150319e-02 -6.610797289124478e-03
            -1.925767143013740e-01 -2.266734266482789e-01 -2.724707740094336e-01 1.350039344585898e-01 6.496815307971227e-02 -6.610581285260761e-03 7.052374352990336e-02 -8.060093118342781e-03
855977500.0000000000 6.932109352249702e-02 6.908184197955816e-03 6.535733595885482e-02 6.830278027542830e-03 -2.096908342223545e-01 2.231698775173527e-01 -2.574857466657007e-01 -1.440558728458214e-01
            6.529676066178393e-02 6.794329143922787e-03 6.925153068797260e-02 6.995253919533945e-03 -2.574197686375285e-01 -1.439959548902806e-01 -2.096489448678993e-01 2.231772235867511e-01
            -2.096011994870832e-01 2.231547459546467e-01 -2.574466350870886e-01 -1.440615826814286e-01 7.027121161153675e-02 5.684974851776196e-03 6.495258207640872e-02 7.463856813804007e-03
            -2.575718558016487e-01 -1.440761364571650e-01 -2.096838973040325e-01 2.231812379307243e-01 6.495074060567767e-02 7.412563950641377e-03 7.029907964261896e-02 5.747892574204961e-03
856810000.0000000000 7.818283221478142e-02 1.742800463799288e-02 7.464818928455577e-02 1.748796024880403e-02 -1.188995473441610e-01 2.836669099027940e-01 -2.885900299051205e-01 -4.523618055309293e-02
            7.463219027836890e-02 1.750363739867685e-02 7.814799870694518e-02 1.741290208296738e-02 -2.886341594366181e-01 -4.536447413751273e-02 -1.188554881158342e-01 2.835831461963324e-01
            -1.189219703275532e-01 2.836296938671605e-01 -2.886176976689681e-01 -4.524984518537595e-02 7.918720029939198e-02 1.618383124912347e-02 7.418259339397341e-02 1.797260510803903e-02
            -2.886319893355894e-01 -4.533272319554074e-02 -1.189407152777975e-01 2.835537204671494e-01 7.424436152094872e-02 1.794766042435304e-02 7.935669254014521e-02 1.615679151947394e-02
857642500.0000000000 9.167391124020001e-02 1.950711582920431e-02 8.854767441498450e-02 1.938157714091008e-02 -1.262685988258232e-02 3.078146633691299e-01 -2.839469693502562e-01 5.635431910640191e-02
            8.863042204450158e-02 1.940832883340663e-02 9.164056785099084e-02 1.942901191146918e-02 -2.839292839372077e-01 5.633325650087958e-02 -1.264096129944969e-02 3.078298364293420e-01
            -1.269419433947743e-02 3.077467581617025e-01 -2.839244037716951e-01 5.637537540308604e-02 9.274441946309324e-02 1.815620983649868e-02 8.799159965324245e-02 1.975628332963698e-02
            -2.839002308858910e-01 5.632735792152851e-02 -1.266219066620078e-02 3.078550802563423e-01 8.809033941138997e-02 1.974491603398853e-02 9.278350226623830e-02 1.822774576128803e-02
858475000.0000000000 1.031172180539231e-01 1.229721118921790e-02 1.003558981569092e-01 1.186322860185635e-02 9.483544428955869e-02 2.933882938694677e-01 -2.456085198729736e-01 1.491608925357200e-01
            1.004458508627611e-01 1.179823850352679e-02 1.030459565712552e-01 1.232210386723215e-02 -2.456290186080654e-01 1.491007283396487e-01 9.484256456231177e-02 2.933646902762823e-01
            9.482194168618223e-02 2.933878037291745e-01 -2.455823556510398e-01 1.491699321485763e-01 1.041782821690387e-01 1.091946130002646e-02 9.958892280160911e-02 1.213285594109835e-02
            -2.456508411547369e-01 1.491601650306317e-01 9.489260230523276e-02 2.933880691884647e-01 9.949080191957811e-02 1.212760012023268e-02 1.041945949744139e-01 1.087533880262897e-02
859307500.0000000000 1.070697035742138e-01 -4.214730000094521e-04 1.044788597224163e-01 -1.569210982615345e-03 1.902024302443034e-01 2.431742170096451e-01 -1.788240145357423e-01 2.233382823661770e-01
            1.044470979474987e-01 -1.508893384421195e-03 1.069698261753002e-01 -4.677443606466546e-04 -1.787773526958401e-01 2.234184057744494e-01 1.901712575003678e-01 2.431765160925273e-01
            1.902145737216285e-01 2.431471583237830e-01 -1.788411599599102e-01 2.233609553754153e-01 1.081027960604930e-01 -2.012232597705676e-03 1.033260790032695e-01 -1.132056218288126e-03
            -1.787644008248583e-01 2.233808249774577e-01 1.902566794225246e-01 2.431257046152996e-01 1.033521999849568e-01 -1.090080474806855e-03 1.082366570812690e-01 -2.033123302084832e-03
860140000.0000000000 1.018532543951538e-01 -1.275031873670182e-02 9.892705266447452e-02 -1.437606181278307e-02 2.630375336978418e-01 1.638328871882232e-01 -9.060567986478853e-02 2.706079048326813e-01
            9.894017165761294e-02 -1.439677520591767e-02 1.018758204497796e-01 -1.269511974301387e-02 -9.056524755177489e-02 2.706570380350082e-01 2.630006787780834e-01 1.638728051399806e-01
            2.630183468638520e-01 1.638541768497023e-01 -9.056448835550496e-02 2.705616888602019e-01 1.029495204729952e-01 -1.450314001118480e-02 9.776307204957761e-02 -1.362894272724245e-02
            -9.059185240853775e-02 2.706337397884241e-01 2.629975153880091e-01 1.638760067036478e-01 9.770420823903261e-02 -1.366099899507012e-02 1.029195272264650e-01 -1.442686734761030e-02
860972500.0000000000 8.985597624055289e-02 -1.846613077631408e-02 8.638386148815880e-02 -2.066819442264399e-02 3.050822368642802e-01 6.404667278507466e-02 9.019364344473290e-03 2.846288494199491e-01
            8.634950887120102e-02 -2.064075954094662e-02 8.984989970294280e-02 -1.852299391693778e-02 9.073049103458134e-03 2.846083793331067e-01 3.051248907361469e-01 6.407469334290944e-02
            3.050709156336659e-01 6.408120123350795e-02 9.040344899648212e-03 2.846076846776608e-01 9.076902665586367e-02 -2.044024228242223e-02 8.513814604748672e-02 -1.953938162645095e-02
            9.026063005415478e-03 2.845570763797474e-01 3.051264611204584e-01 6.406456374671401e-02 8.517559784552502e-02 -1.942806043756556e-02 9.072743647838988e-02 -2.050289366994908e-02
861805000.0000000000 7.686848350633280e-02 -1.500456711627034e-02 7.276525848850464e-02 -1.722929033433930e-02 3.108873778001882e-01 -4.542072423208705e-02 1.075652307865379e-01 2.624635487779515e-01
            7.286796468861431e-02 -1.718638630183243e-02 7.687143260123792e-02 -1.489715646316793e-02 1.075531562044356e-01 2.625689576096988e-01 3.109093271743175e-01 -4.548234735910617e-02
            3.109219764086775e-01 -4.537854285303351e-02 1.075622520631561e-01 2.624471620783596e-01 7.747744082524531e-02 -1.714586982317665e-02 7.169060356821598e-02 -1.567003416891533e-02
            1.075248106284288e-01 2.624974833242759e-01 3.108742973826530e-01 -4.541759193838357e-02 7.168226948597137e-02 -1.562665087897773e-02 7.749850337439833e-02 -1.708951276602841e-02
862637500.0000000000 6.943944628227547e-02 -3.613846012842781e-03 6.483426056152899e-02 -5.605610114846899e-03 2.778794075780661e-01 -1.517849903082465e-01 1.913540785078067e-01 2.067720141642634e-01
            6.480922077173289e-02 -5.579790559575379e-03 6.943179393648025e-02 -3.606553388401074e-03 1.913920313088288e-01 2.067916913221194e-01 2.778806850641889e-01 -1.517174071074080e-01
            2.778376669258443e-01 -1.517602209435374e-01 1.913695931658062e-01 2.068376769279046e-01 6.964354696096157e-02 -5.854755631336254e-03 6.412553357833432e-02 -3.854973359792582e-03
            1.913341001371524e-01 2.067088788233123e-01 2.779294277914742e-01 -1.517445451318248e-01 6.408686463751699e-02 -3.876002116430694e-03 6.968547389068989e-02 -5.762476266053927e-03
863470000.0000000000 7.143463200161983e-02 9.876061436928025e-03 6.659232346156065e-02 8.230416314324421e-03 2.086153819427909e-01 -2.406103671159947e-01 2.491431441021923e-01 1.259000806831714e-01
            6.660830428095253e-02 8.261922918804886e-03 7.136017210159924e-02 9.907570790835601e-03 2.491679081300071e-01 1.258423329699279e-01 2.085971059069882e-01 -2.406026255533945e-01
            2.086789128366700e-01 -2.405733055276298e-01 2.491633810083291e-01 1.258089602248510e-01 7.130195218405258e-02 7.795444560513406e-03 6.633867874529568e-02 1.008293013845572e-02
            2.491362647241947e-01 1.257629644980695e-01 2.086660151956189e-01 -2.406081016062837e-01 6.631865036201068e-02 1.012212999021181e-02 7.131920103830143e-02 7.801363219996128e-03
864302500.0000000000 8.179152427277360e-02 1.874963667438672e-02 7.695476478778551e-02 1.735688371765513e-02 1.117699428296979e-01 -2.993269570244282e-01 2.744355665797590e-01 3.137168166901031e-02
            7.700808307549388e-02 1.728809858954831e-02 8.191680737140383e-02 1.874297232695973e-02 2.743691196930734e-01 3.131189497745081e-02 1.117588745896530e-01 -2.993232600789491e-01
            1.118022007476139e-01 -2.993602886738893e-01 2.743694478308718e-01 3.138967397639134e-02 8.148270825819498e-02 1.685214954052198e-02 7.721998189835924e-02 1.901911842949814e-02
            2.743379353614874e-01 3.136991761199034e-02 1.117693626822218e-01 -2.993116861744695e-01 7.718398215374581e-02 1.908041863958511e-02 8.141125176633959e-02 1.683228643516885e-02
865135000.0000000000 9.551869617984979e-02 1.859175393653981e-02 9.074466674066106e-02 1.724997444954457e-02 6.706451535047605e-04 -3.198093127823798e-01 2.658748841539848e-01 -6.437923310565118e-02
            9.070156682456436e-02 1.723064460264956e-02 9.544954915777248e-02 1.858614500995517e-02 2.658151368777272e-01 -6.427001972754572e-02 7.014393179962606e-04 -3.198617547511871e-01
            6.997297797895179e-04 -3.198703229270886e-01 2.659394377542513e-01 -6.424211692240983e-02 9.482980551285450e-02 1.696527315977137e-02 9.127825543671944e-02 1.872739165014967e-02
            2.659032857880907e-01 -6.426838102500454e-02 6.418919315129109e-04 -3.198741811905592e-01 9.122484626761675e-02 1.877000775315883e-02 9.483876087135733e-02 1.698709960729837e-02
865967500.0000000000 1.056611039769290e-01 9.774943021034467e-03 1.009863664897429e-01 8.230650749970118e-03 -1.099200614340419e-01 -3.004552910791873e-01 2.261852439773939e-01 -1.504580647980850e-01
            1.009395411160556e-01 8.246019029752534e-03 1.056632588552140e-01 9.712924470342065e-03 2.261664328680285e-01 -1.504082766263602e-01 -1.100254132900979e-01 -3.005112151867900e-01
            -1.099948543820888e-01 -3.006508847882370e-01 2.261479011918308e-01 -1.504942113889242e-01 1.049355624048467e-01 8.548469177961371e-03 1.015770279841590e-01 9.384298774423780e-03
            2.261709245811651e-01 -1.505090709517928e-01 -1.099905263988529e-01 -3.004426176222962e-01 1.015941818450421e-01 9.362580994275975e-03 1.049258289265302e-01 8.507337278961245e-03
866800000.0000000000 1.077748576112597e-01 -3.500592282043901e-03 1.027029895623139e-01 -5.254321916984654e-03 -2.068939937895763e-01 -2.448356806097040e-01 1.600448893206236e-01 -2.180476295345372e-01
            1.027297874509100e-01 -5.218891913978053e-03 1.077667374559196e-01 -3.495050032945532e-03 1.601137868203847e-01 -2.180112122495918e-01 -2.067939509903243e-01 -2.448570709007945e-01
            -2.067692540644940e-01 -2.448859418348731e-01 1.600925094966745e-01 -2.180863613361537e-01 1.070109787345221e-01 -4.480892781421965e-03 1.033911671682112e-01 -4.462863753284856e-03
            1.600811580611615e-01 -2.179977718913058e-01 -2.068242927832668e-01 -2.448772590157521e-01 1.034633519810963e-01 -4.383963224920014e-03 1.070464634528857e-01 -4.481621284624706e-03
867632500.0000000000 1.007898148984266e-01 -1.485919952855991e-02 9.531456667415186e-02 -1.681304907741204e-02 -2.793553424182468e-01 -1.598238630560920e-01 7.472012252862109e-02 -2.592191078608082e-01
            9.534422116670413e-02 -1.676302077385725e-02 1.008297526014555e-01 -1.488839285584530e-02 7.468432005408812e-02 -2.593081949892741e-01 -2.793838899452035e-01 -1.597326136711489e-01
            -2.793315686542904e-01 -1.598143042280696e-01 7.473203137307972e-02 -2.592597360035702e-01 1.001872846222386e-01 -1.553993653291923e-02 9.596248891749770e-02 -1.616072869087987e-02
            7.469740868586450e-02 -2.592017754258439e-01 -2.792816557226073e-01 -1.597121502410270e-01 9.595384391647709e-02 -1.617685369562719e-02 1.001879797138712e-01 -1.557694818965579e-02
868465000.0000000000 8.813073508905062e-02 -1.902046388206808e-02 8.197519012615830e-02 -2.072394305673744e-02 -3.191735920960833e-01 -5.439653521990312e-02 -2.017708090354635e-02 -2.682650768217577e-01
            8.206643817833867e-02 -2.068925835047071e-02 8.812724309276984e-02 -1.900884149397491e-02 -2.018520047978183e-02 -2.682479252476886e-01 -3.191308058809494e-01 -5.443365556946740e-02
            -3.191631172220323e-01 -5.445977085326675e-02 -2.017415712339495e-02 -2.682490729714965e-01 8.773915638146855e-02 -1.957828085477423e-02 8.255152678587599e-02 -2.028285746821550e-02
            -2.016412448211057e-02 -2.682059293333079e-01 -3.191606344483774e-01 -5.446502355220939e-02 8.258119729531217e-02 -2.027732396256424e-02 8.763799323267941e-02 -1.950847281332011e-02
869297500.0000000000 7.590759510835311e-02 -1.375219100293155e-02 6.920045197070500e-02 -1.491965729962027e-02 -3.206299221797940e-01 5.957674051670488e-02 -1.123042299801238e-01 -2.429436298228173e-01
            6.928083183819096e-02 -1.496946798960156e-02 7.587965470277183e-02 -1.366715309070546e-02 -1.122862389540816e-01 -2.429891943401886e-01 -3.206267937955938e-01 5.964315392077977e-02
            -3.206314117892025e-01 5.965526944749441e-02 -1.123669881046204e-01 -2.430264696770077e-01 7.560796791051824e-02 -1.405526771252225e-02 6.963877406397942e-02 -1.465956683121890e-02
            -1.123329705731376e-01 -2.429402830176413e-01 -3.205653937181124e-01 5.960218478725736e-02 6.967396462212400e-02 -1.458388813565743e-02 7.553469917852920e-02 -1.405784678971857e-02
870130000.0000000000 7.026092471202446e-02 -1.518420364079506e-03 6.337909783671909e-02 -1.992058512007006e-03 -2.818211784940519e-01 1.685080187891689e-01 -1.887636629770277e-01 -1.866512635973983e-01
            6.340552607533757e-02 -2.022227170447755e-03 7.029285062433827e-02 -1.501911044502160e-03 -1.887601625030846e-01 -1.866902606529837e-01 -2.817899777564775e-01 1.686072591442353e-01
            -2.818043374242973e-01 1.685323775993420e-01 -1.888284179217911e-01 -1.866381896337470e-01 6.998122193939907e-02 -1.967953658731976e-03 6.370704990778683e-02 -1.771693363750647e-03
            -1.888004938916291e-01 -1.866606069541523e-01 -2.818573876945659e-01 1.685829716267291e-01 6.365947003574082e-02 -1.699511604213681e-03 7.011801054790243e-02 -1.885996525203508e-03
870962500.0000000000 7.422956078695225e-02 1.129869940062560e-02 6.751523820590430e-02 1.152845069948944e-02 -2.061605739772695e-01 2.575047378151520e-01 -2.394012589160379e-01 -1.080183631379628e-01
            6.756336702547919e-02 1.155113088487234e-02 7.423405065069709e-02 1.126507885870772e-02 -2.394139584664013e-01 -1.079687332811096e-01 -2.061305574816454e-01 2.575538283476418e-01
            -2.062145672003504e-01 2.575127158821123e-01 -2.394400024517211e-01 -1.079297957442671e-01 7.407576297049463e-02 1.084193333053770e-02 6.780903558619308e-02 1.183636505012252e-02
            -2.394621471435269e-01 -1.079123659863040e-01 -2.061926757191120e-01 2.575288379430424e-01 6.778685765548365e-02 1.186212054887333e-02 7.408975305541322e-02 1.081731312439640e-02
871795000.0000000000 8.577639349556357e-02 1.823941315710850e-02 7.956432221201415e-02 1.896451371050579e-02 -1.036063180991444e-01 3.139254586251716e-01 -2.591142473672572e-01 -1.832881740693216e-02
            7.953254061649123e-02 1.891387679256563e-02 8.570749816754172e-02 1.821532816458997e-02 -2.590299346385728e-01 -1.838061417219107e-02 -1.035490584689707e-01 3.140485011444759e-01
            -1.035690695669858e-01 3.139895112843853e-01 -2.590948900254043e-01 -1.833829027884651e-02 8.561482822993544e-02 1.787204777394706e-02 7.973982441524725e-02 1.930373030349692e-02
            -2.591185044834789e-01 -1.826286127253152e-02 -1.035796452641089e-01 3.139455228565403e-01 7.970492123323705e-02 1.929337738490870e-02 8.562108866639165e-02 1.784818063720110e-02
872627500.0000000000 9.899231589953754e-02 1.586454245840293e-02 9.341982307966185e-02 1.677470034918572e-02 1.191142461664309e-02 3.306010971508718e-01 -2.471818922235839e-01 7.107029674782474e-02
            9.348994251450596e-02 1.672488760885687e-02 9.900864127215842e-02 1.592840607895777e-02 -2.472388228765949e-01 7.099661713737715e-02 1.183700516709437e-02 3.305590743790593e-01
            1.192773713113381e-02 3.304895862765335e-01 -2.471218626866536e-01 7.110501663378066e-02 9.889631428171651e-02 1.553193433186852e-02 9.357400140328656e-02 1.700618294462090e-02
            -2.471531795217187e-01 7.106495636645097e-02 1.189391655087993e-02 3.304526747211473e-01 9.366186219145620e-02 1.709015639281279e-02 9.898654930529446e-02 1.551362558179882e-02
873460000.0000000000 1.075197189433651e-01 5.487293700230262e-03 1.024605486833118e-01 6.131670561693938e-03 1.251564102311518e-01 3.061689137648979e-01 -2.065032263344428e-01 1.503838067946651e-01
            1.026250001927707e-01 6.113753867559546e-03 1.075833956673376e-01 5.531973065033051e-03 -2.065751200351383e-01 1.504461843264155e-01 1.251930417704525e-01 3.062243065813665e-01
            1.252997242630711e-01 3.062459127624163e-01 -2.065667717501875e-01 1.503673944520906e-01 1.074024684179085e-01 5.174197688018539e-03 1.025818021949387e-01 6.418706499685461e-03
            -2.064915329697408e-01 1.503718235859820e-01 1.251358626935778e-01 3.062146797871858e-01 1.026055211734844e-01 6.430814053316703e-03 1.075969410548221e-01 5.167158782233830e-03
874292500.0000000000 1.074237463852658e-01 -7.984473470742917e-03 1.026305382376253e-01 -7.776018484973833e-03 2.229838203914707e-01 2.451284232643557e-01 -1.417039748181664e-01 2.112707626915688e-01
            1.026557410152103e-01 -7.758745471610687e-03 1.073718936516519e-01 -8.030156768177695e-03 -1.416752458390751e-01 2.112884507940343e-01 2.230515175950901e-01 2.450592973417539e-01
            2.229660820561631e-01 2.450403058003377e-01 -1.417244208585668e-01 2.113425499309536e-01 1.074306304266509e-01 -8.275105384147028e-03 1.027691738115213e-01 -7.510042812300400e-03
            -1.417458859653793e-01 2.113507624766852e-01 2.229809375554584e-01 2.450555728468133e-01 1.027075411195230e-01 -7.596766306719572e-03 1.074833409484653e-01 -8.278195422389306e-03
875125000.0000000000 9.864977831013240e-02 -1.839272117331150e-02 9.379161702197721e-02 -1.858375015785894e-02 2.946534125325719e-01 1.544512949020217e-01 -5.953364785872790e-02 2.466912092564121e-01
            9.375268102900219e-02 -1.855923158382569e-02 9.872363267581646e-02 -1.833312636191018e-02 -5.958871822802551e-02 2.466847757526722e-01 2.947011680718331e-01 1.544331036878098e-01
            2.946997569417768e-01 1.544343773209468e-01 -5.956819496915869e-02 2.466846131723227e-01 9.883354636639149e-02 -1.867306350152404e-02 9.387600978132773e-02 -1.824940416562976e-02
            -5.961642132822911e-02 2.465902959355153e-01 2.946936679736067e-01 1.544830472815261e-01 9.379183992658327e-02 -1.825833544030682e-02 9.879679986296126e-02 -1.861986025536893e-02
875957500.0000000000 8.526706330334316e-02 -2.070644458470916e-02 7.992945023123012e-02 -2.111961746723114e-02 3.318901767648264e-01 4.402568386188093e-02 3.018923324714402e-02 2.511182786364631e-01
            7.991317841051745e-02 -2.106113663896248e-02 8.530077833257056e-02 -2.069805329561849e-02 3.012035798995003e-02 2.510868157263996e-01 3.318779750923639e-01 4.396685664817271e-02
            3.318638676407928e-01 4.399672345683441e-02 3.020890985909485e-02 2.511048967463284e-01 8.545796305515962e-02 -2.087178419529626e-02 7.995914520499173e-02 -2.089402996096673e-02
            3.011368369690662e-02 2.510976192480334e-01 3.319077647124480e-01 4.400209387960813e-02 7.999959535990149e-02 -2.083000406872116e-02 8.543002749052303e-02 -2.092336799054701e-02
876790000.0000000000 7.357475418632933e-02 -1.377660425534078e-02 6.784054262641262e-02 -1.393939662275303e-02 3.288944161632036e-01 -7.393705935507122e-02 1.156815459711571e-01 2.232568835581897e-01
            6.779857373835797e-02 -1.397900246439112e-02 7.356798472942438e-02 -1.368362016598698e-02 1.156086949043545e-01 2.232220544182002e-01 3.288619435420699e-01 -7.406216229817235e-02
            3.288950469147424e-01 -7.394323187553108e-02 1.156836861448633e-01 2.232029405793804e-01 7.381509805552468e-02 -1.401366205590127e-02 6.786625506043131e-02 -1.375186380771430e-02
            1.156057964274613e-01 2.232049809330204e-01 3.288516210941962e-01 -7.392851533806399e-02 6.791458582294402e-02 -1.378836585645672e-02 7.379076759294177e-02 -1.402813263360565e-02
877622500.0000000000 6.944448606497340e-02 -8.653991686720541e-04 6.341186481908502e-02 -7.548073807858625e-04 2.842908959907467e-01 -1.848851650602331e-01 1.848972789000833e-01 1.669312990900819e-01
            6.341619058275341e-02 -8.241647142248796e-04 6.938589102727359e-02 -8.973624422248584e-04 1.848334700781034e-01 1.669250057007895e-01 2.843373448182186e-01 -1.849231661232391e-01
            2.843324445570473e-01 -1.849051765006576e-01 1.849165895609466e-01 1.668978803650306e-01 6.962903079342708e-02 -1.206437152878734e-03 6.341276755347806e-02 -5.218523406044320e-04
            1.848559149045840e-01 1.669115451180925e-01 2.842797031234118e-01 -1.849471185925273e-01 6.347336803223033e-02 -5.533225367356573e-04 6.958800927084767e-02 -1.169228590178582e-03
878455000.0000000000 7.467493647491558e-02 1.133557238370971e-02 6.869041983640806e-02 1.190616762785384e-02 2.026429572484361e-01 -2.735320183610179e-01 2.288695523010605e-01 9.091256861327822e-02
            6.869102374214685e-02 1.186339882575699e-02 7.468044099623926e-02 1.134173304045914e-02 2.288391679534042e-01 9.094786026824453e-02 2.027017723113603e-01 -2.735042514112362e-01
            2.026537042888901e-01 -2.735682378288841e-01 2.287834594622040e-01 9.096076195616676e-02 7.482183375755359e-02 1.093148613995624e-02 6.882236751814512e-02 1.209128302861542e-02
            2.288146505433860e-01 9.094585369283124e-02 2.026404621686760e-01 -2.735606061718054e-01 6.871829743152076e-02 1.212216241067897e-02 7.500247494692475e-02 1.099797059878146e-02
879287500.0000000000 8.653230923912135e-02 1.680861747674332e-02 8.102333777795541e-02 1.776033872052211e-02 9.491521082322756e-02 -3.275889591847336e-01 2.432843792759299e-01 6.112893930485107e-03
            8.098839209127760e-02 1.776292483998137e-02 8.647568263141568e-02 1.680888862185502e-02 2.432416563089365e-01 6.139424218039050e-03 9.478615970431657e-02 -3.275887809961753e-01
            9.486045633300252e-02 -3.275501637072871e-01 2.433075534797723e-01 6.118556110688754e-03 8.670783104754058e-02 1.649264610924234e-02 8.096383360331937e-02 1.795910971222419e-02
            2.432499413618710e-01 6.185694596360989e-03 9.484459645818867e-02 -3.275665867598163e-01 8.097097631126213e-02 1.788920022276876e-02 8.667962580601135e-02 1.654395589710564e-02
880120000.0000000000 9.879915802852043e-02 1.322433025182037e-02 9.380661166485621e-02 1.406864219087042e-02 -2.461720923762120e-02 -3.404108208628494e-01 2.283082838477761e-01 -7.703185416468319e-02
            9.374158601006793e-02 1.407975997422425e-02 9.881449598017047e-02 1.319203623540709e-02 2.283151525144686e-01 -7.694966460868909e-02 -2.458717825148184e-02 -3.402962160265135e-01
            -2.459807602945542e-02 -3.403430223449566e-01 2.282008705952873e-01 -7.696714285650021e-02 9.900741647250655e-02 1.284808429385592e-02 9.372041336281682e-02 1.422420494152922e-02
            2.282818042008525e-01 -7.702316716346648e-02 -2.461924581838361e-02 -3.402716582727675e-01 9.360553780216366e-02 1.422335253939074e-02 9.898157695453096e-02 1.293121588125625e-02
880952500.0000000000 1.054626518121460e-01 2.429449923671383e-03 1.008395254780550e-01 2.947366720640841e-03 -1.403855964832718e-01 -3.111149745907262e-01 1.867473938669702e-01 -1.496121862586774e-01
            1.008670216363792e-01 2.907083811578004e-03 1.054968762230736e-01 2.443844896476514e-03 1.867814493716410e-01 -1.496000164062220e-01 -1.404000757052183e-01 -3.111242377848807e-01
            -1.403770474075659e-01 -3.110840058522151e-01 1.867724931032149e-01 -1.496126516831319e-01 1.057099817473729e-01 2.187541747894819e-03 1.006823872217295e-01 3.208084667502613e-03
            1.867759116483631e-01 -1.496729336564740e-01 -1.404200792091432e-01 -3.111526302520004e-01 1.006787759998892e-01 3.151480554999515e-03 1.057920746896916e-01 2.091576817927686e-03
881785000.0000000000 1.034843168787294e-01 -1.003217593110542e-02 9.890301027712875e-02 -1.003993482061515e-02 -2.391630619383206e-01 -2.445075930560628e-01 1.232662726783213e-01 -2.038644094394895e-01
            9.884902735022581e-02 -1.002955279845717e-02 1.034695047442958e-01 -1.005331016124768e-02 1.232521629185176e-01 -2.038352744490409e-01 -2.392060759054143e-01 -2.445235712022512e-01
            -2.392433394238687e-01 -2.445666004171112e-01 1.232749946051897e-01 -2.038393311741590e-01 1.037443895625427e-01 -1.030900956992347e-02 9.869180706675668e-02 -9.873570413871191e-03
            1.232341708878861e-01 -2.038691102099563e-01 -2.391566098293795e-01 -2.445631607272338e-01 9.874278744781156e-02 -9.815659413624203e-03 1.037595591335793e-01 -1.028881868644308e-02
882617500.0000000000 9.368256753485936e-02 -1.810403005314109e-02 8.882342380119851e-02 -1.869336303700381e-02 -3.098726980890251e-01 -1.481698067902374e-01 4.460614333819064e-02 -2.332226308369446e-01
            8.882395944176881e-02 -1.870556977073154e-02 9.368202150652252e-02 -1.813466516743853e-02 4.455957074790522e-02 -2.332292306499190e-01 -3.099365298995768e-01 -1.481960672462100e-01
            -3.098927527788970e-01 -1.481227702406190e-01 4.456510890054603e-02 -2.331229488843918e-01 9.398110635857243e-02 -1.845713750320517e-02 8.850753003208969e-02 -1.831063542621765e-02
            4.457870822135377e-02 -2.331366759209802e-01 -3.098446726371501e-01 -1.482175868543242e-01 8.858431417795477e-02 -1.836261285067567e-02 9.393831870607366e-02 -1.846653990749355e-02
883450000.0000000000 8.089405857902347e-02 -1.774338853567246e-02 7.533796098007893e-02 -1.861019667061444e-02 -3.440421956597129e-01 -3.256384330865516e-02 -3.964222221681784e-02 -2.329055743281811e-01
            7.536454963997438e-02 -1.854990413558075e-02 8.081515639218192e-02 -1.777978926639544e-02 -3.970212132876436e-02 -2.328881482442119e-01 -3.440249320146271e-01 -3.259694070774720e-02
            -3.439824934395734e-01 -3.247832025177048e-02 -3.980408478660480e-02 -2.328457092935614e-01 8.110432182927765e-02 -1.816434681634654e-02 7.505862580849210e-02 -1.811013279148148e-02
            -3.968298263876070e-02 -2.329095950394391e-01 -3.440366700692880e-01 -3.248951785514036e-02 7.506253322643033e-02 -1.813906221346376e-02 8.111797062538703e-02 -1.820981357563259e-02
884282500.0000000000 7.141710647181929e-02 -8.855617487086263e-03 6.511307655030213e-02 -9.478821124042729e-03 -3.359450354938605e-01 8.923925310991823e-02 -1.179977611717303e-01 -2.024675830713923e-01
            6.516958138790602e-02 -9.396105301482202e-03 7.133354774380593e-02 -8.764264535440269e-03 -1.180638117977718e-01 -2.023777304282117e-01 -3.360442536951635e-01 8.929842496776715e-02
            -3.360899328540904e-01 8.928791684799041e-02 -1.179724948295067e-01 -2.024390187277441e-01 7.154425016675640e-02 -9.356078208870394e-03 6.494964082017930e-02 -9.052086703604271e-03
            -1.180420489826543e-01 -2.024975009302202e-01 -3.360457352546496e-01 8.928954826092826e-02 6.500805935265372e-02 -9.034013159897693e-03 7.153443123049763e-02 -9.358304424237069e-03
885115000.0000000000 7.011011095003149e-02 4.263785101205389e-03 6.346287409758201e-02 4.159907530159065e-03 -2.852473980465113e-01 2.016879066057668e-01 -1.795400472926206e-01 -1.466087858899029e-01
            6.344527203925195e-02 4.113874608997032e-03 6.997513893818674e-02 4.220192322498207e-03 -1.795281133068139e-01 -1.465365808644292e-01 -2.852460836794837e-01 2.016735956686722e-01
            -2.852070115810579e-01 2.016777590875505e-01 -1.794895031160982e-01 -1.466478207203975e-01 7.022879243619240e-02 3.812071696090603e-03 6.321833535077470e-02 4.720677444547881e-03
            -1.795430420416100e-01 -1.465783798190415e-01 -2.853153608600129e-01 2.016943469377404e-01 6.324682054082001e-02 4.712343062104756e-03 7.022706206741915e-02 3.851593187446733e-03
885947500.0000000000 7.783807947734701e-02 1.497312148996448e-02 7.112208332377050e-02 1.557235444287524e-02 -1.974455795322670e-01 2.892748441750178e-01 -2.164804186882544e-01 -7.408671572291473e-02
            7.119042945026523e-02 1.560269779596185e-02 7.793591190094029e-02 1.499752614107407e-02 -2.164491191777883e-01 -7.405138915247292e-02 -1.974570970095545e-01 2.892863566658141e-01
            -1.974156380093905e-01 2.892703799267626e-01 -2.165130412657749e-01 -7.402652663226299e-02 7.801752976229138e-02 1.450880523354969e-02 7.114741371195656e-02 1.611755852128199e-02
            -2.163739713243823e-01 -7.403986460016915e-02 -1.973764525619731e-01 2.893197049785389e-01 7.114541227357919e-02 1.600440926527907e-02 7.791567711171199e-02 1.454436896796484e-02
886780000.0000000000 9.075420244916901e-02 1.785323982490811e-02 8.432158736157107e-02 1.898730494137116e-02 -8.465048032770922e-02 3.401313927837751e-01 -2.258339484323528e-01 5.030661044003048e-03
            8.429914999367341e-02 1.898988432557629e-02 9.080479699238390e-02 1.794896998479434e-02 -2.259063850242190e-01 5.042790726105747e-03 -8.457486099060896e-02 3.400959095365964e-01
            -8.466567704605332e-02 3.401860146222596e-01 -2.258308303643207e-01 4.998319436177069e-03 9.075495614502210e-02 1.749877088665798e-02 8.440424812275578e-02 1.950067915333279e-02
            -2.258969789475800e-01 5.105652207507202e-03 -8.449874557456397e-02 3.401244295474116e-01 8.435853410774564e-02 1.952628740178998e-02 9.074422301087258e-02 1.748457048018244e-02
887612500.0000000000 1.024112724711691e-01 1.182416477496062e-02 9.639252030361242e-02 1.318590920130838e-02 3.832921480867327e-02 3.482495208588451e-01 -2.084570115854715e-01 8.138581089928651e-02
            9.652393661279207e-02 1.315265685209421e-02 1.024343302274496e-01 1.181691324396943e-02 -2.084327770674715e-01 8.138699562865666e-02 3.834334831197302e-02 3.483338339008327e-01
            3.827934679092173e-02 3.483033504260069e-01 -2.083780366147983e-01 8.140240581817489e-02 1.022959219718681e-01 1.147246627572234e-02 9.653149764263486e-02 1.356144395450396e-02
            -2.083878726535132e-01 8.142413558044830e-02 3.825014248483483e-02 3.483195522972464e-01 9.657907288424196e-02 1.362764732824727e-02 1.022856775812764e-01 1.150043648115079e-02
888445000.0000000000 1.072457625468725e-01 -3.001344909743719e-04 1.017732002607057e-01 9.035965196719025e-04 1.558561445012122e-01 3.140420074040821e-01 -1.667774362693610e-01 1.469668080083503e-01
            1.018533852428140e-01 8.906128890974476e-04 1.072514476242141e-01 -3.229318730832222e-04 -1.667228210420213e-01 1.468921912800839e-01 1.559066819606335e-01 3.140355912140710e-01
            1.559031634064115e-01 3.139222253982535e-01 -1.667647814232090e-01 1.469636281787542e-01 1.070258955171440e-01 -5.578060604254270e-04 1.019148138478575e-01 1.329846548168913e-03
            -1.667575697978581e-01 1.469671395584499e-01 1.558598219754725e-01 3.140862704002043e-01 1.018439062560644e-01 1.211242147339514e-03 1.071049792633446e-01 -5.673483429642355e-04
889277500.0000000000 1.030881235113886e-01 -1.263647750945730e-02 9.782234035471289e-02 -1.178881138277683e-02 2.547095538482540e-01 2.420923851980873e-01 -1.052923933994571e-01 1.946931553247416e-01
            9.786948004346939e-02 -1.185121189451289e-02 1.031687942404698e-01 -1.266268119113311e-02 -1.053153612131142e-01 1.945975216295667e-01 2.546991189251953e-01 2.421352057393507e-01
            2.548096747356181e-01 2.420922200739335e-01 -1.053542478119101e-01 1.946508081747831e-01 1.029812594075666e-01 -1.285240104259718e-02 9.803546408750417e-02 -1.153782766267290e-02
            -1.053246108311158e-01 1.946551727801066e-01 2.546943214306204e-01 2.420593120476085e-01 9.798267630883679e-02 -1.144733210791381e-02 1.029808993908629e-01 -1.286078099033343e-02
890110000.0000000000 9.205610287543847e-02 -1.929682155370692e-02 8.653063104321526e-02 -1.904826743763116e-02 3.238040803171113e-01 1.405583108556139e-01 -3.069459487881132e-02 2.183202925728717e-01
            8.652762906026996e-02 -1.899516583358399e-02 9.193599315610461e-02 -1.942468659953422e-02 -3.069212851323841e-02 2.182865279020245e-01 3.237934396919554e-01 1.405081404455525e-01
            3.237906772287852e-01 1.405170677445081e-01 -3.065495189712944e-02 2.183177512873098e-01 9.180203270312096e-02 -1.948544097628914e-02 8.664397533236795e-02 -1.882251805965106e-02
            -3.078076526856791e-02 2.183104579262067e-01 3.237678434309935e-01 1.404756260053627e-01 8.657378029199225e-02 -1.878106343012796e-02 9.170786928682355e-02 -1.947664107289492e-02
890942500.0000000000 7.911212604785228e-02 -1.715992675703799e-02 7.323629127931176e-02 -1.703315723219119e-02 3.544657702469952e-01 2.033340419245915e-02 4.759474513644802e-02 2.140086360937532e-01
            7.329273683231427e-02 -1.694121610068713e-02 7.911388089173996e-02 -1.717107781714022e-02 4.763426313651163e-02 2.139422201535756e-01 3.544250151343017e-01 2.036132540154221e-02
            3.544183044720965e-01 2.031104030227815e-02 4.758421237679240e-02 2.139047278096440e-01 7.893942181132522e-02 -1.720648703844939e-02 7.320287133031801e-02 -1.670652354929692e-02
            4.762356451847993e-02 2.139406479125400e-01 3.543895207758270e-01 2.037326291113219e-02 7.320852063704625e-02 -1.677981368676716e-02 7.888393602985772e-02 -1.710355894204517e-02
891775000.0000000000 7.097791106732884e-02 -6.783791977255425e-03 6.454725046857328e-02 -6.576347379814284e-03 3.413203904848336e-01 -1.045050467783378e-01 1.187164779659535e-01 1.817383933315035e-01
            6.447159097506701e-02 -6.508158190389540e-03 7.082810387314113e-02 -6.938528228563223e-03 1.187515066340692e-01 1.817272744507258e-01 3.413711613737449e-01 -1.045465542954280e-01
            3.412326208249631e-01 -1.044656211513607e-01 1.187193676941537e-01 1.817239570650948e-01 7.066978766349538e-02 -6.810048343394435e-03 6.439921736481415e-02 -6.364071384484752e-03
            1.187006815450328e-01 1.817225255554984e-01 3.413378712026794e-01 -1.044976064307459e-01 6.440712483846946e-02 -6.388206203722651e-03 7.064810709612238e-02 -6.846511615959300e-03
892607500.0000000000 7.155734665534813e-02 6.291941180257448e-03 6.477511625334470e-02 7.017587736907058e-03 2.846180202836286e-01 -2.177651091793647e-01 1.727354291390309e-01 1.269058561841289e-01
            6.479937471038807e-02 7.010916086716910e-03 7.161028823301911e-02 6.303989208185146e-03 1.726478591982434e-01 1.269427644953816e-01 2.845274642682812e-01 -2.177936514238713e-01
            2.846328461975576e-01 -2.177472751599566e-01 1.726257438976924e-01 1.268916017587935e-01 7.137093886633870e-02 6.417273667566135e-03 6.471149627182406e-02 7.293251899850608e-03
            1.726200699291817e-01 1.268076059925777e-01 2.846121971691794e-01 -2.178082604825908e-01 6.460225720960190e-02 7.367329227694136e-03 7.128324038615481e-02 6.458711368233959e-03
893440000.0000000000 8.078942798809877e-02 1.562552189884938e-02 7.405638273116363e-02 1.703278748956926e-02 1.911612935771169e-01 -3.037667025204954e-01 2.030679934630129e-01 5.816647129300660e-02
            7.407785769090817e-02 1.699570302110644e-02 8.087283759035295e-02 1.566823904414520e-02 2.031102523528350e-01 5.816770686760672e-02 1.912246650362025e-01 -3.038313663332536e-01
            1.912617097109385e-01 -3.038054787840770e-01 2.030992841457035e-01 5.825584495356012e-02 8.065954474971045e-02 1.595623569479307e-02 7.380438423714576e-02 1.744611395299231e-02
            2.030549763942114e-01 5.818170310279824e-02 1.911512902545285e-01 -3.038665417511063e-01 7.387820854543778e-02 1.746324749991266e-02 8.063172178371425e-02 1.596380545457617e-02
894272500.0000000000 9.395546393620681e-02 1.658539156005057e-02 8.749904761902155e-02 1.846987483354627e-02 7.372963535166224e-02 -3.513152828807805e-01 2.079659861836009e-01 -1.509060102530297e-02
            8.742255677038469e-02 1.842168709850643e-02 9.392537205061455e-02 1.649393091489079e-02 2.080408174597326e-01 -1.502435368103665e-02 7.376723055559066e-02 -3.513244979399855e-01
            7.373278247509997e-02 -3.513754978577292e-01 2.079923019936796e-01 -1.505882467426727e-02 9.384552419961316e-02 1.700751590284524e-02 8.729954924578770e-02 1.892014425868322e-02
            2.080028390410182e-01 -1.506488248856259e-02 7.370755113738590e-02 -3.513399297357232e-01 8.728767607980412e-02 1.891477835646123e-02 9.379564971029332e-02 1.699837677862247e-02
895105000.0000000000 1.043882115957888e-01 8.691822910591486e-03 9.844308115196428e-02 1.080544213299612e-02 -5.207429365749190e-02 -3.550585875833959e-01 1.883577389002752e-01 -8.458220025633735e-02
            9.836374506360551e-02 1.084055899667053e-02 1.044852999271957e-01 8.790067009197279e-03 1.883194185609365e-01 -8.458306861307806e-02 -5.210727993792629e-02 -3.550941257145699e-01
            -5.202805161709971e-02 -3.550090210481628e-01 1.884192964452910e-01 -8.463514293844036e-02 1.044156357011470e-01 9.292932565244749e-03 9.838299754208271e-02 1.129574396247248e-02
            1.882930422753285e-01 -8.454994191873978e-02 -5.215863369011374e-02 -3.550584977649166e-01 9.825616795966621e-02 1.133993863691814e-02 1.044258694798665e-01 9.260595225909553e-03
895937500.0000000000 1.073521088306361e-01 -3.875648654123387e-03 1.017387200824635e-01 -2.054906647886875e-03 -1.710180643698975e-01 -3.157679652507665e-01 1.468861902637648e-01 -1.432459983967862e-01
            1.017374684931023e-01 -2.126790954329249e-03 1.072568911296378e-01 -3.818914197449740e-03 1.468661442620003e-01 -1.431857153324433e-01 -1.709865161533581e-01 -3.156623597784580e-01
            -1.710008335157297e-01 -3.157017337797420e-01 1.468918133909314e-01 -1.432371927631634e-01 1.074675966410177e-01 -3.305962235831269e-03 1.017997184520827e-01 -1.480222356470739e-03
            1.469377546228783e-01 -1.432462835606364e-01 -1.709755693092847e-01 -3.157327188781173e-01 1.016637148356521e-01 -1.494352409906425e-03 1.074062820737160e-01 -3.328929328269123e-03
896770000.0000000000 1.013494935190788e-01 -1.541236961460750e-02 9.590375726455558e-02 -1.408845544511047e-02 -2.696834517752407e-01 -2.385277984172162e-01 8.776834900167732e-02 -1.843960339173958e-01
            9.596164180172845e-02 -1.409865591768829e-02 1.012839319230453e-01 -1.548471787372843e-02 8.787796546526125e-02 -1.844128290056270e-01 -2.696090098712109e-01 -2.384819326495136e-01
            -2.695852515737389e-01 -2.385124570692946e-01 8.784574320342343e-02 -1.843625760261068e-01 1.014710219026196e-01 -1.496716606984910e-02 9.606673720194432e-02 -1.353414980128069e-02
            8.783935277025555e-02 -1.844693068464169e-01 -2.695921037025168e-01 -2.385222128436612e-01 9.606433512043286e-02 -1.350056342876053e-02 1.015591852394038e-01 -1.503223040309198e-02
897602500.0000000000 8.934241931528829e-02 -2.038078268255340e-02 8.361337754511462e-02 -1.953678546774347e-02 -3.366781538841542e-01 -1.318590887394393e-01 1.767090232496573e-02 -2.025086434872877e-01
            8.362824097777087e-02 -1.950428632339376e-02 8.924467006059318e-02 -2.034394454180773e-02 1.768639776734309e-02 -2.025005576153452e-01 -3.367330877503666e-01 -1.319552861462414e-01
            -3.367511558942276e-01 -1.318280083877240e-01 1.768656449316707e-02 -2.025710602193437e-01 8.957659641533260e-02 -2.000001977654635e-02 8.379159214722702e-02 -1.904237222016978e-02
            1.769069750150903e-02 -2.025091709138051e-01 -3.367302318541128e-01 -1.319026103415336e-01 8.382376563009447e-02 -1.895769749139781e-02 8.961204128429870e-02 -1.994337143744061e-02
898435000.0000000000 7.675896965091306e-02 -1.620163701391941e-02 7.062352282917066e-02 -1.554271059075687e-02 -3.635302233231427e-01 -7.502777069401838e-03 -5.442222426342706e-02 -1.943347439976822e-01
            7.058630347709913e-02 -1.540866270098069e-02 7.688772858467466e-02 -1.606900208762225e-02 -5.439924148859707e-02 -1.943497675675245e-01 -3.634716693771047e-01 -7.483537580808815e-03
            -3.635304004884107e-01 -7.550245394494537e-03 -5.442818332006918e-02 -1.943100642956471e-01 7.725078506117722e-02 -1.587174234794620e-02 7.087319224899510e-02 -1.509133701817940e-02
            -5.445159802200652e-02 -1.942953703873282e-01 -3.635348904632073e-01 -7.465668837830787e-03 7.088977877731691e-02 -1.511074359076016e-02 7.724488527932952e-02 -1.584714258684028e-02
899267500.0000000000 7.035450753692549e-02 -4.733659265944552e-03 6.332157427404705e-02 -3.775574367091792e-03 -3.451503056697081e-01 1.198606435094587e-01 -1.181184325058530e-01 -1.608230816570392e-01
            6.332713846056048e-02 -3.930456313994980e-03 7.043084344804558e-02 -4.713202982480080e-03 -1.180814422260739e-01 -1.608212025125304e-01 -3.452133916330737e-01 1.198286035016220e-01
            -3.451472129273461e-01 1.197482533810847e-01 -1.180672062174427e-01 -1.608402562677857e-01 7.082276115742944e-02 -4.534392379781657e-03 6.358652791093033e-02 -3.602320389057327e-03
            -1.181065970328927e-01 -1.608650011413504e-01 -3.452069112067208e-01 1.198848063908043e-01 6.364994777465964e-02 -3.607074914866192e-03 7.074924086463417e-02 -4.547967046693903e-03
900100000.0000000000 7.312024156683916e-02 8.082693239132067e-03 6.550542322270347e-02 9.634936391163808e-03 -2.826360101047772e-01 2.332866353507083e-01 -1.646364529253330e-01 -1.077175133779919e-01
            6.541068728980379e-02 9.687162957184517e-03 7.308757005665367e-02 8.015814138003384e-03 -1.646324534208852e-01 -1.076197936636286e-01 -2.825895469171059e-01 2.333675799158762e-01
            -2.826170416359842e-01 2.333179062747242e-01 -1.645667863333145e-01 -1.076361931719102e-01 7.343827305841916e-02 8.178296579422881e-03 6.570253269748516e-02 9.861587782061509e-03
            -1.645479514025229e-01 -1.075902884603710e-01 -2.826563855018265e-01 2.333370134618268e-01 6.563495531008402e-02 9.770088671140416e-03 7.345303892042224e-02 8.176186012872013e-03
900932500.0000000000 8.367427070456258e-02 1.567915658371214e-02 7.583653919665796e-02 1.835354138374208e-02 -1.838469827929144e-01 3.174506977952458e-01 -1.886918694087664e-01 -4.320382276185062e-02
            7.584446555305152e-02 1.827535911503752e-02 8.367256191819213e-02 1.569938190690583e-02 -1.887023477206096e-01 -4.321109993838926e-02 -1.839075905996430e-01 3.174663914896341e-01
            -1.838639205525110e-01 3.175408143555910e-01 -1.887420074675541e-01 -4.316003008101948e-02 8.402378807762810e-02 1.592904260696913e-02 7.597363531153657e-02 1.852900867562377e-02
            -1.887916874236142e-01 -4.319745626996750e-02 -1.838401540535935e-01 3.174374530697412e-01 7.601212171433271e-02 1.847267687287445e-02 8.397456902557096e-02 1.589034509120422e-02
901765000.0000000000 9.663470836849922e-02 1.446030186081153e-02 8.913510718285433e-02 1.811330451591323e-02 -6.234167073611851e-02 3.613329740433789e-01 -1.894877005603217e-01 2.405282325228045e-02
            8.922606829383320e-02 1.818857117080859e-02 9.662545122619547e-02 1.451669857377317e-02 -1.895189404380236e-01 2.399559469360201e-02 -6.236813309712819e-02 3.612560500867942e-01
            -6.236983105814679e-02 3.613518997583140e-01 -1.895166655333512e-01 2.400235419974347e-02 9.688263249841200e-02 1.461796630118560e-02 8.917361582898677e-02 1.830152780570370e-02
            -1.894798252078894e-01 2.405908256700895e-02 -6.236928663635360e-02 3.613271095688833e-01 8.924901219879475e-02 1.831239597058207e-02 9.688380297288658e-02 1.455656784402671e-02
902597500.0000000000 1.056178150266585e-01 5.086928382770186e-03 9.891394764106337e-02 9.471515020350801e-03 6.603793539753795e-02 3.604859328067715e-01 -1.680576188681901e-01 8.668972313553254e-02
            9.891503280947397e-02 9.496807299894772e-03 1.055605223497865e-01 5.096374184973143e-03 -1.680496432640582e-01 8.666765835997177e-02 6.601625429563358e-02 3.605022549347429e-01
            6.608003664883684e-02 3.605072597466418e-01 -1.680528408883712e-01 8.667038388551851e-02 1.058267897227602e-01 5.212286050373308e-03 9.891777976180904e-02 9.632882086780727e-03
            -1.680524200627372e-01 8.665300583730376e-02 6.599906423188362e-02 3.606158962121813e-01 9.890508075893113e-02 9.661421649242911e-03 1.058165329486636e-01 5.222210646813231e-03
903430000.0000000000 1.063934987537993e-01 -7.931125998931665e-03 1.007188419872597e-01 -3.274744433421571e-03 1.860056765664533e-01 3.161759446185463e-01 -1.271696933355021e-01 1.383249134327806e-01
            1.006426029280804e-01 -3.145378031916202e-03 1.063734333980082e-01 -8.034746904692122e-03 -1.271274618381986e-01 1.383031747671189e-01 1.861102437332424e-01 3.161613962405111e-01
            1.859893877110249e-01 3.162148784531686e-01 -1.271621374264389e-01 1.383019842907219e-01 1.065548549714204e-01 -7.778692834442607e-03 1.006336232084840e-01 -2.993458814364583e-03
            -1.271373115000482e-01 1.383676676522854e-01 1.860395877373576e-01 3.161226691199235e-01 1.006961443223939e-01 -3.010746774352784e-03 1.064680418489545e-01 -7.807198271285903e-03
904262500.0000000000 9.838397222974840e-02 -1.847374813504293e-02 9.370165025466802e-02 -1.390427849685861e-02 2.839791907329458e-01 2.338147993662178e-01 -7.077862655654849e-02 1.731348366389970e-01
            9.371358425115164e-02 -1.389232956140764e-02 9.836860731955936e-02 -1.851931187222676e-02 -7.074008533965601e-02 1.731102132529345e-01 2.840311450024959e-01 2.338930865818553e-01
            2.839547821009734e-01 2.338766996667383e-01 -7.075207762171765e-02 1.730910294060606e-01 9.851377701676441e-02 -1.834382502902331e-02 9.357667877461924e-02 -1.376792175494449e-02
            -7.076362388807279e-02 1.730626168440928e-01 2.839894776145557e-01 2.339404949702970e-01 9.357804664343217e-02 -1.372316359737419e-02 9.849260396215331e-02 -1.829427704015450e-02
905095000.0000000000 8.543003905784582e-02 -2.142761621804333e-02 8.141759132910988e-02 -1.723624884787462e-02 3.486678974659194e-01 1.223437499174480e-01 -5.541477915477763e-03 1.858091855223963e-01
            8.132291169366233e-02 -1.726840189861148e-02 8.536463707271769e-02 -2.146042941898970e-02 -5.473597783675893e-03 1.857745400025251e-01 3.486873903233860e-01 1.223205614779808e-01
            3.486393917390571e-01 1.223113826163834e-01 -5.419287345343754e-03 1.858069422392979e-01 8.545593157306192e-02 -2.132565114460741e-02 8.133561141911437e-02 -1.712408242891159e-02
            -5.448539968669802e-03 1.858416362714063e-01 3.487309957616036e-01 1.223500986627574e-01 8.127385529048635e-02 -1.707107586502538e-02 8.554257922139798e-02 -2.122012432804172e-02
905927500.0000000000 7.345710626360709e-02 -1.514861639953554e-02 6.993013735113375e-02 -1.154345288941398e-02 3.713695071746019e-01 -5.951059674391590e-03 6.000751691002754e-02 1.741258573377433e-01
            6.983080997765918e-02 -1.148421370314161e-02 7.359470508720475e-02 -1.510949539633008e-02 6.002954813145786e-02 1.740616790575417e-01 3.713138601021791e-01 -5.985531214879547e-03
            3.713365571881920e-01 -5.979979729142775e-03 6.001138686127280e-02 1.741730787079924e-01 7.360346887138522e-02 -1.489337363562449e-02 6.976481661392391e-02 -1.134979520989419e-02
            6.007211971016325e-02 1.740871712575571e-01 3.712689879895132e-01 -5.918755538097641e-03 6.977720231360093e-02 -1.131931853240625e-02 7.359676355771470e-02 -1.498491031571768e-02
906760000.0000000000 6.863016842741725e-02 -2.601623054431689e-03 6.510782084682028e-02 5.960907700064863e-04 3.474944958237317e-01 -1.352107447463131e-01 1.160456859211362e-01 1.397582419880400e-01
            6.515355158346428e-02 5.330470810202496e-04 6.874595054726881e-02 -2.536884963730402e-03 1.160768473513309e-01 1.397466803913095e-01 3.474385150561239e-01 -1.352104661021929e-01
            3.474905870793437e-01 -1.352381959841355e-01 1.160825558497809e-01 1.397784011467565e-01 6.870877336701291e-02 -2.372253428276974e-03 6.498710510176439e-02 7.485300673456777e-04
            1.160137126285550e-01 1.397875197854017e-01 3.474514411109979e-01 -1.351663559259025e-01 6.493253873430417e-02 7.941988231515031e-04 6.872835544181102e-02 -2.392303303806713e-03
907592500.0000000000 7.332855592394968e-02 1.009380978579399e-02 6.976119018618955e-02 1.286674163812872e-02 2.791721837288759e-01 -2.483593292086402e-01 1.551304079156153e-01 8.879420359409117e-02
            6.972338799317697e-02 1.279474818060787e-02 7.335457400335869e-02 1.014134738881697e-02 1.550762744909461e-01 8.873111470550885e-02 2.791762057694377e-01 -2.483284929736705e-01
            2.791594534459688e-01 -2.484112801494265e-01 1.550104758921049e-01 8.875935843471919e-02 7.328390183049117e-02 1.029997732790812e-02 6.945338193241314e-02 1.300870652226840e-02
            1.550467434788191e-01 8.876696318812616e-02 2.791797425942371e-01 -2.484468682061439e-01 6.951556736571771e-02 1.308212685060377e-02 7.317295518556137e-02 1.022870636066694e-02
908425000.0000000000 8.496951648099413e-02 1.643401199851753e-02 8.138812951138558e-02 1.894487732251847e-02 1.753474769560132e-01 -3.300472946938497e-01 1.732670642950568e-01 2.906383170372697e-02
            8.140142503303008e-02 1.900294486103463e-02 8.496790738595876e-02 1.649974517349172e-02 1.733016441183282e-01 2.900557632368046e-02 1.753364013633854e-01 -3.300880126712549e-01
            1.753867112898630e-01 -3.300574798098284e-01 1.732894769254299e-01 2.906562930331461e-02 8.478706967828899e-02 1.663205469865839e-02 8.114547846997339e-02 1.927371721853875e-02
            1.732533706719610e-01 2.908200578793418e-02 1.753473992072746e-01 -3.301050293481131e-01 8.121664233590735e-02 1.925628128710990e-02 8.488423688732721e-02 1.671244482988275e-02
909257500.0000000000 9.782659020141397e-02 1.374602039146090e-02 9.428667467648097e-02 1.609494430211031e-02 5.030051336687263e-02 -3.700068950310129e-01 1.703481460483980e-01 -3.168899686195877e-02
            9.424245377455163e-02 1.612411774033244e-02 9.777420593055465e-02 1.372355088274770e-02 1.703123028039176e-01 -3.171731574542210e-02 5.022244513627613e-02 -3.700094020524681e-01
            5.024145313219941e-02 -3.700226828708695e-01 1.702968819979867e-01 -3.175894192039680e-02 9.766194351020011e-02 1.394022983108817e-02 9.405906941386778e-02 1.631364698819752e-02
            1.702495553843963e-01 -3.169918797885830e-02 5.018316232681198e-02 -3.699954398297847e-01 9.398236554061928e-02 1.641289830194312e-02 9.774037182974731e-02 1.392225514428479e-02
910090000.0000000000 1.056566963995595e-01 3.359873101699122e-03 1.022553866194052e-01 5.540450758893448e-03 -8.017559672804649e-02 -3.644786475373343e-01 1.476307867016157e-01 -8.739124369828491e-02
            1.022894383194380e-01 5.576950057730569e-03 1.055994578513590e-01 3.364386170946654e-03 1.476308645326757e-01 -8.730579527430472e-02 -8.018010918985591e-02 -3.645002574013725e-01
            -8.017313837604491e-02 -3.645163089848801e-01 1.475981619486007e-01 -8.748423378594571e-02 1.054574252089516e-01 3.634780286833628e-03 1.019552926718644e-01 5.788007099927135e-03
            1.476387271882740e-01 -8.743908663971647e-02 -8.027479765383615e-02 -3.645272144247000e-01 1.019278922832319e-01 5.742919487557961e-03 1.053702953068837e-01 3.600903207956239e-03
910922500.0000000000 1.049479862353662e-01 -9.468712666571122e-03 1.015764428010771e-01 -7.698230347512717e-03 -2.006100040245319e-01 -3.151900045005815e-01 1.077015395056445e-01 -1.320545857018625e-01
            1.015958318900043e-01 -7.643251290736089e-03 1.048644807404906e-01 -9.426127546253535e-03 1.076472189320766e-01 -1.321417095388336e-01 -2.006664804476491e-01 -3.151902083670520e-01
            -2.006348815593627e-01 -3.150913990972853e-01 1.077773255500143e-01 -1.320910487779889e-01 1.046333751848502e-01 -9.255664771746183e-03 1.011989315740813e-01 -7.447868201052884e-03
            1.076972334139940e-01 -1.320754487559947e-01 -2.005590701751912e-01 -3.151876768833565e-01 1.012151400534305e-01 -7.466948547863735e-03 1.046321540222360e-01 -9.242861420099203e-03
911755000.0000000000 9.600356738834655e-02 -1.873241179126961e-02 9.254956027066862e-02 -1.739072004970287e-02 -2.974805881750566e-01 -2.278323852150608e-01 5.447895922890875e-02 -1.605189126708110e-01
            9.260805354305637e-02 -1.729153664131080e-02 9.602908066045568e-02 -1.866033825470622e-02 5.444352135353481e-02 -1.605731535141786e-01 -2.974868491082184e-01 -2.278810971201484e-01
            -2.975646605759796e-01 -2.278657359683573e-01 5.449329663525564e-02 -1.605443851474596e-01 9.556925723915925e-02 -1.848404979316103e-02 9.208007452439068e-02 -1.717918104852486e-02
            5.457696509007847e-02 -1.605522570286040e-01 -2.975586407402092e-01 -2.278416286596889e-01 9.205258274562998e-02 -1.717188660246007e-02 9.551295666488641e-02 -1.854756112525884e-02
912587500.0000000000 8.321168340051870e-02 -1.996620978217534e-02 7.950347976593451e-02 -1.898741517384951e-02 -3.593889794766412e-01 -1.118689019793849e-01 -5.641569215032248e-03 -1.682970814959279e-01
            7.947284701078049e-02 -1.900488266321206e-02 8.318575818302987e-02 -1.989580971767565e-02 -5.582415057862030e-03 -1.682516853194821e-01 -3.593824260750949e-01 -1.118521687653470e-01
            -3.594094829341603e-01 -1.118848691072838e-01 -5.620702659259590e-03 -1.682145923943358e-01 8.253997656620965e-02 -1.956410257401060e-02 7.874365773160243e-02 -1.877374848379211e-02
            -5.681933541606844e-03 -1.682058574209278e-01 -3.593932143610403e-01 -1.119132642287103e-01 7.869362028950255e-02 -1.874804820838838e-02 8.242172553504960e-02 -1.957247964653253e-02
913420000.0000000000 7.277593044105518e-02 -1.241821356701248e-02 6.857440912846507e-02 -1.169307246510177e-02 -3.776541364151717e-01 1.972717996549881e-02 -6.430334759077960e-02 -1.536272238461356e-01
            6.851807014252741e-02 -1.156975850447904e-02 7.268710157006673e-02 -1.236892158202886e-02 -6.416045092750101e-02 -1.535625054150156e-01 -3.776305169008247e-01 1.968307952665256e-02
            -3.776352576211146e-01 1.965079222928370e-02 -6.422805617889293e-02 -1.535164013008153e-01 7.178435600407819e-02 -1.178181537080147e-02 6.750443432781501e-02 -1.114667645218955e-02
            -6.417754839621746e-02 -1.536021736073936e-01 -3.776787827916717e-01 1.972243821964701e-02 6.755691411961103e-02 -1.125618700150035e-02 7.180374561877688e-02 -1.182618035750152e-02
914252500.0000000000 6.992764634247499e-02 2.358184215845963e-04 6.510498506189470e-02 9.274071156983516e-04 -3.483482801994678e-01 1.503666229095075e-01 -1.126129578001016e-01 -1.190273538457406e-01
            6.515434382422576e-02 1.022903586031089e-03 6.992467516079967e-02 2.776452391424737e-04 -1.127148064236983e-01 -1.190281783370403e-01 -3.483744657065908e-01 1.503297448718118e-01
            -3.484174765646247e-01 1.503723984794344e-01 -1.127273019929476e-01 -1.190050969992507e-01 6.880046035568128e-02 1.066268650155718e-03 6.405722673114228e-02 1.816425971596318e-03
            -1.126996923370235e-01 -1.189766387164430e-01 -3.483471967988452e-01 1.503947458029159e-01 6.405935010951494e-02 1.837975731643790e-03 6.886067568820614e-02 1.154061383550068e-03
915085000.0000000000 7.627285418092128e-02 1.138818588841102e-02 7.106795733666479e-02 1.252053896481310e-02 -2.745393803604630e-01 2.626988282616483e-01 -1.445728649446036e-01 -7.064035899228488e-02
            7.109275071093717e-02 1.248599508767339e-02 7.628569036741349e-02 1.137750724953385e-02 -1.446204817926292e-01 -7.062264726740847e-02 -2.745688498798322e-01 2.626091640637499e-01
            -2.745456631119910e-01 2.626420074804783e-01 -1.445523575376760e-01 -7.061945783848052e-02 7.512138719231287e-02 1.277061245319051e-02 6.987092103262672e-02 1.385910150346798e-02
            -1.445298296385513e-01 -7.061628785092604e-02 -2.744852419887477e-01 2.626720354395234e-01 6.997732972191369e-02 1.380168495397329e-02 7.516554668678108e-02 1.281639881757523e-02
915917500.0000000000 8.833939060599444e-02 1.553042459886810e-02 8.298878227139400e-02 1.714541824424273e-02 -1.661317818239661e-01 3.415901161540657e-01 -1.571709689661633e-01 -1.595138609323955e-02
            8.305650260603414e-02 1.710519814950833e-02 8.838825792743578e-02 1.556137116650518e-02 -1.572668329430582e-01 -1.585821715308030e-02 -1.661824636260785e-01 3.415261927707243e-01
            -1.661583431838772e-01 3.416026878588839e-01 -1.571445922493843e-01 -1.586462134392937e-02 8.736177146198250e-02 1.740753025520454e-02 8.203251869243312e-02 1.884118242296683e-02
            -1.571687066263059e-01 -1.596257365328257e-02 -1.661529984659140e-01 3.415540605699723e-01 8.209830429172951e-02 1.884020204595429e-02 8.739864998407651e-02 1.739483119012904e-02
916750000.0000000000 1.000427786036775e-01 1.070537568742616e-02 9.496418950736674e-02 1.269981442033419e-02 -3.777236736761728e-02 3.775373383818207e-01 -1.508161635157486e-01 3.848745190633082e-02
            9.487849269830186e-02 1.277632762666884e-02 1.001552126644621e-01 1.069832460883957e-02 -1.508273903230496e-01 3.850591801739451e-02 -3.779555230185426e-02 3.775923944818634e-01
            -3.782910715224453e-02 3.775338475809627e-01 -1.508724637002572e-01 3.854855666365598e-02 9.948359573780012e-02 1.293027759708043e-02 9.431471309558132e-02 1.485121654554953e-02
            -1.508069414624875e-01 3.857517149021863e-02 -3.783181795562050e-02 3.775741856723141e-01 9.430249328756085e-02 1.477628491831258e-02 9.946098430246718e-02 1.293671656753784e-02
917582500.0000000000 1.056604473223703e-01 -6.396561793486588e-04 1.008918503259735e-01 1.528997422025939e-03 9.436678219053607e-02 3.674041905238111e-01 -1.271236234359986e-01 8.713046255488076e-02
            1.008769356993500e-01 1.585579081038757e-03 1.056747176019522e-01 -7.171972623365102e-04 -1.270419066862174e-01 8.711716952066428e-02 9.436503372952727e-02 3.674135920979516e-01
            9.435566381919785e-02 3.673544364283897e-01 -1.270390217011993e-01 8.710046154804893e-02 1.056466233601206e-01 1.798916992806800e-03 1.008440585990635e-01 3.805145671240094e-03
            -1.270820436059872e-01 8.715492858341023e-02 9.432854944586370e-02 3.674478352282480e-01 1.008903948816510e-01 3.827078243661490e-03 1.056302495054959e-01 1.824524017993789e-03
918415000.0000000000 1.026791120940943e-01 -1.293095046217567e-02 9.806751443943543e-02 -1.081274749300951e-02 2.150132547469537e-01 3.131401641541696e-01 -8.832825062921548e-02 1.250058199055021e-01
            9.811980948010171e-02 -1.077673265896275e-02 1.026423172895285e-01 -1.297530530276056e-02 -8.848407054728134e-02 1.248785878074612e-01 2.150431097625400e-01 3.130597104723615e-01
            2.150124955887459e-01 3.131199135410671e-01 -8.837326686025543e-02 1.248705762616135e-01 1.029832252321067e-01 -1.041961271920044e-02 9.866920582589317e-02 -8.635234474528155e-03
            -8.843365571847081e-02 1.249181357107931e-01 2.149517744384338e-01 3.131151039325701e-01 9.869274256996897e-02 -8.749955886310907e-03 1.029979379542240e-01 -1.050274638854286e-02
919247500.0000000000 9.227512577172252e-02 -2.028798290755639e-02 8.787130524113262e-02 -1.859579212519335e-02 3.105300294681588e-01 2.207887348294111e-01 -3.860300890363863e-02 1.470327066706835e-01
            8.782075821141686e-02 -1.853546586488819e-02 9.220337656914325e-02 -2.037650260547578e-02 -3.861277743826774e-02 1.470592060555137e-01 3.105405294949120e-01 2.207674175775994e-01
            3.106041506559616e-01 2.207867387478609e-01 -3.870481347385793e-02 1.470540114484395e-01 9.305211718265557e-02 -1.811633309561769e-02 8.884647069277964e-02 -1.672402026073695e-02
            -3.859623748589352e-02 1.470441119353853e-01 3.104146878141390e-01 2.208539671954599e-01 8.892866394698752e-02 -1.664132188909152e-02 9.294979117234732e-02 -1.812516974992544e-02
920080000.0000000000 7.931119251971191e-02 -1.914267913782744e-02 7.473336162414120e-02 -1.772707333157199e-02 3.692536556344285e-01 1.004726899511535e-01 1.590024470376138e-02 1.497304146898630e-01
            7.487430409642842e-02 -1.776738356451230e-02 7.932306354777920e-02 -1.918071616079504e-02 1.590194940676673e-02 1.498330005262827e-01 3.691707452753457e-01 1.005365727506761e-01
            3.693104320452689e-01 1.004743801263706e-01 1.594051305924981e-02 1.497917641124372e-01 8.030764292355143e-02 -1.727859579850581e-02 7.605965375334789e-02 -1.626951793744849e-02
            1.595083470420060e-02 1.498331243585345e-01 3.691714091849704e-01 1.005166716906638e-01 7.609290727343752e-02 -1.632456894178528e-02 8.026538471381651e-02 -1.725784806953973e-02
920912500.0000000000 7.022985265807336e-02 -9.734366418327324e-03 6.548119928147149e-02 -8.425100000854127e-03 3.826234341470188e-01 -3.391126427175867e-02 6.735391250553049e-02 1.324179468930486e-01
            6.552422659690485e-02 -8.468171654458932e-03 7.019861772961498e-02 -9.701048883684647e-03 6.735510362894416e-02 1.324898034118228e-01 3.826270834388348e-01 -3.393938370518887e-02
            3.826272797638221e-01 -3.392820806915735e-02 6.733702863387223e-02 1.324959434474868e-01 7.126564484927825e-02 -8.130402182038466e-03 6.668959452192628e-02 -7.470221096450314e-03
            6.734201923246834e-02 1.324362103294334e-01 3.826347402132316e-01 -3.392279243910323e-02 6.672164515166285e-02 -7.477443661367043e-03 7.122676487588295e-02 -8.055714465713942e-03
921745000.0000000000 6.974107086820010e-02 3.372598805243440e-03 6.445375424692552e-02 4.795830748102032e-03 3.476912324035395e-01 -1.654386235295749e-01 1.078560983735328e-01 9.811253655125814e-02
            6.439365172933663e-02 4.769197522570065e-03 6.973129611950882e-02 3.376510974943573e-03 1.078771344426053e-01 9.811607829171155e-02 3.476846059430130e-01 -1.654071277818253e-01
            3.477153312874924e-01 -1.654251636207225e-01 1.079316178626219e-01 9.812099329492395e-02 7.064932309365651e-02 4.820878004583562e-03 6.547952854111289e-02 5.482492082869070e-03
            1.078693619817134e-01 9.817413182623949e-02 3.477281332593583e-01 -1.655108294713623e-01 6.551752340394401e-02 5.499601620633690e-03 7.057416234846792e-02 4.946330056267205e-03
922577500.0000000000 7.807507328113311e-02 1.346339174839502e-02 7.234569925623911e-02 1.529529774832107e-02 2.684860691823405e-01 -2.763080132571610e-01 1.325456962575686e-01 5.301863371833137e-02
            7.238626223211225e-02 1.528904614263375e-02 7.801172961973574e-02 1.350014615088807e-02 1.326751907877367e-01 5.295847304300003e-02 2.685195296493443e-01 -2.763378700192038e-01
            2.684655209114462e-01 -2.762252675507059e-01 1.326754015746616e-01 5.294615987742718e-02 7.865234108370146e-02 1.500527688975139e-02 7.309456546614111e-02 1.586009348483378e-02
            1.326263641001159e-01 5.294908665268408e-02 2.684961162663421e-01 -2.761947898923247e-01 7.304038789930956e-02 1.583493454289443e-02 7.881252191098523e-02 1.500846085088152e-02
923410000.0000000000 9.084633358219527e-02 1.570827103529097e-02 8.513943418987148e-02 1.801294121844694e-02 1.558372831786463e-01 -3.519882166380133e-01 1.400715103528337e-01 3.737227842904400e-03
            8.509705147192145e-02 1.804353066073006e-02 9.077939180610406e-02 1.569533602013544e-02 1.400437374738755e-01 3.717910189522704e-03 1.558435073497890e-01 -3.519244646984984e-01
            1.558063570970863e-01 -3.519568360131239e-01 1.400693330539036e-01 3.761389899634410e-03 9.147110161761840e-02 1.721398668901425e-02 8.563585438881750e-02 1.863966532031693e-02
            1.400203996626340e-01 3.735409250939075e-03 1.558089822465070e-01 -3.519312385419837e-01 8.560256501242966e-02 1.863031754015380e-02 9.144485394852719e-02 1.729385841133381e-02
924242500.0000000000 1.017887510221877e-01 8.992032033034994e-03 9.637337396316194e-02 1.177998401475869e-02 2.475983839186830e-02 -3.836216999466521e-01 1.307294143741261e-01 -4.397257912639726e-02
            9.641802337607391e-02 1.184245002598018e-02 1.018787050545570e-01 8.977823531898547e-03 1.307618054041150e-01 -4.390000194889214e-02 2.478008712200371e-02 -3.836203993474195e-01
            2.476714412179230e-02 -3.836041973778935e-01 1.307961544711880e-01 -4.384274186298973e-02 1.024941593069929e-01 1.073337521407255e-02 9.673057349835944e-02 1.266565159110682e-02
            1.307463020499505e-01 -4.390586891744399e-02 2.473332283948691e-02 -3.836722222092093e-01 9.673945575033541e-02 1.259586730544193e-02 1.025248554854033e-01 1.085106460086207e-02
925075000.0000000000 1.057465742507876e-01 -3.254891208877234e-03 1.008146299370895e-01 -1.782058292720157e-04 -1.085234815030410e-01 -3.686685344815955e-01 1.064493900718365e-01 -8.550456557653260e-02
            1.007996344770047e-01 -1.518204056847251e-04 1.057569078836476e-01 -3.237411735588249e-03 1.065260409249173e-01 -8.542226099921188e-02 -1.086246381446289e-01 -3.686666249808972e-01
            -1.085519750620502e-01 -3.687097251832132e-01 1.065255469342010e-01 -8.541896270806858e-02 1.066796192679781e-01 -1.335579438508455e-03 1.012445391923340e-01 9.036015762925706e-04
            1.065505517403729e-01 -8.541117760848883e-02 -1.085080628123963e-01 -3.686817924147462e-01 1.011908719572872e-01 8.774380705183222e-04 1.067054439335589e-01 -1.291253236907938e-03
925907500.0000000000 1.008251089034392e-01 -1.518429634721056e-02 9.643589399202308e-02 -1.205883514405630e-02 -2.288677973377168e-01 -3.095770597751825e-01 6.959957540021104e-02 -1.163327605782300e-01
            9.647758050166463e-02 -1.215509069750803e-02 1.008003947513122e-01 -1.508764172029010e-02 6.955031050142606e-02 -1.163014849115623e-01 -2.289223534257286e-01 -3.095439412079790e-01
            -2.289242126115111e-01 -3.095157153486370e-01 6.957324008512028e-02 -1.163582282241174e-01 1.020666679114130e-01 -1.324109873100487e-02 9.705690234786915e-02 -1.089865713710009e-02
            6.957055974017440e-02 -1.163352755543719e-01 -2.289075749691863e-01 -3.094996235123062e-01 9.710848376230530e-02 -1.090240633291590e-02 1.020815347445599e-01 -1.321088456148000e-02
926740000.0000000000 8.932840103654219e-02 -2.095054849726015e-02 8.523060504085921e-02 -1.821659090822041e-02 -3.224720671660413e-01 -2.126277630092046e-01 2.377401129560397e-02 -1.323856831764836e-01
            8.524619847005228e-02 -1.829064929358029e-02 8.930181824572550e-02 -2.101629461174468e-02 2.372534543043253e-02 -1.323762885912972e-01 -3.224278736460125e-01 -2.126296335086092e-01
            -3.223682035878397e-01 -2.125637401078074e-01 2.373749070272584e-02 -1.325104119949226e-01 9.072888490102561e-02 -1.921574202099741e-02 8.605676771609308e-02 -1.717930468527429e-02
            2.374783600739237e-02 -1.324139972952509e-01 -3.224701676522763e-01 -2.125554104790951e-01 8.617195039657051e-02 -1.719830008802832e-02 9.078909929976664e-02 -1.919307662388321e-02
927572500.0000000000 7.657829827524069e-02 -1.782623666673662e-02 7.270110806982465e-02 -1.572153154056433e-02 -3.774927649225017e-01 -8.840690105235209e-02 -2.483361344168597e-02 -1.306895064311664e-01
            7.260287518206861e-02 -1.564437899410015e-02 7.672566587500315e-02 -1.787323407702654e-02 -2.487546695702374e-02 -1.307309098740762e-01 -3.775312320852537e-01 -8.830963006589670e-02
            -3.775625366387772e-01 -8.834961812520038e-02 -2.488723199258636e-02 -1.307278255344514e-01 7.823274976026715e-02 -1.636838839336117e-02 7.369315505462803e-02 -1.466821727655781e-02
            -2.489332926638012e-02 -1.306095006143419e-01 -3.775491860163886e-01 -8.841869691070832e-02 7.371635740491778e-02 -1.466827574828309e-02 7.819362422651152e-02 -1.638562520208266e-02
928405000.0000000000 6.907080569538210e-02 -7.143455025959612e-03 6.495191546496581e-02 -5.242006719856387e-03 -3.859947071498093e-01 4.831029810680052e-02 -6.894076713126350e-02 -1.112464382048017e-01
            6.485328493136577e-02 -5.312546420381399e-03 6.907298522572984e-02 -7.101995017752751e-03 -6.891226540591011e-02 -1.111911273657362e-01 -3.859702920749366e-01 4.838583032482907e-02
            -3.860147991622326e-01 4.841820808103500e-02 -6.890724681158775e-02 -1.112294172953654e-01 7.054266863648556e-02 -5.942630136154315e-03 6.598312636657408e-02 -4.538164501614676e-03
            -6.889235132849272e-02 -1.112707155261793e-01 -3.860717444607657e-01 4.837972532738012e-02 6.598644984942575e-02 -4.548165957557807e-03 7.048111557250400e-02 -5.895006853023306e-03
929237500.0000000000 7.047407850211175e-02 5.981489485903409e-03 6.591487628577002e-02 7.711514847735182e-03 -3.455125337040406e-01 1.800777032620113e-01 -1.017493875138425e-01 -7.776466722876324e-02
            6.592039647227250e-02 7.654676456594711e-03 7.050823378109326e-02 5.973527633119795e-03 -1.017840624797090e-01 -7.775168578821752e-02 -3.455443465104379e-01 1.800423406746727e-01
            -3.455281031228431e-01 1.800332636127574e-01 -1.017523564486701e-01 -7.773122027071132e-02 7.181146119251665e-02 6.960770775469327e-03 6.689558451141139e-02 8.228326374092428e-03
            -1.018034172773236e-01 -7.772662388503732e-02 -3.456042362830871e-01 1.800405634332802e-01 6.689336070510708e-02 8.246552871948181e-03 7.178825665738024e-02 7.004854781223111e-03
930070000.0000000000 8.010807673849499e-02 1.477353382092702e-02 7.521952761007752e-02 1.670614655349625e-02 -2.612991937616968e-01 2.889505348494133e-01 -1.197822742937339e-01 -3.616186565533678e-02
            7.524921265204772e-02 1.667526084005339e-02 8.013354386269333e-02 1.484101455321486e-02 -1.197533791732149e-01 -3.621102927143964e-02 -2.612577545252674e-01 2.889375589725389e-01
            -2.613370817566217e-01 2.889817194325696e-01 -1.197349443353688e-01 -3.619150849219822e-02 8.115363641707508e-02 1.585500492738642e-02 7.599430390378706e-02 1.723857314927203e-02
            -1.197434630780198e-01 -3.623447544977577e-02 -2.613218800839557e-01 2.890474200758998e-01 7.598542373354476e-02 1.712650702498678e-02 8.117054083079221e-02 1.569940615609873e-02
930902500.0000000000 9.313644177577803e-02 1.503959356817250e-02 8.802618438499557e-02 1.718146520380501e-02 -1.448377801091877e-01 3.610656471955119e-01 -1.222820756994638e-01 7.283059932845754e-03
            8.804025811790581e-02 1.721573025307915e-02 9.309193621180729e-02 1.510918264522929e-02 -1.222699320396145e-01 7.291208981453685e-03 -1.448443721713671e-01 3.611064739328972e-01
            -1.447908747748507e-01 3.610581737910926e-01 -1.222862370856301e-01 7.333588946241735e-03 9.400607540756943e-02 1.621676410581504e-02 8.867427575325298e-02 1.790210968357089e-02
            -1.222547942928403e-01 7.328185976390251e-03 -1.448940132592482e-01 3.610671676608488e-01 8.864535033344013e-02 1.799226143506819e-02 9.385156508991979e-02 1.620646658847240e-02
931735000.0000000000 1.030459409803448e-01 6.905419850534282e-03 9.795699390943040e-02 9.397941570545423e-03 -1.149946730015590e-02 3.884017303955629e-01 -1.105152636706852e-01 4.812543137915897e-02
            9.807717574791150e-02 9.352074457519160e-03 1.029916095556917e-01 6.942048019699479e-03 -1.105477993107170e-01 4.817443951578441e-02 -1.157016518271552e-02 3.883713976382211e-01
            -1.151308590980013e-02 3.884438892878198e-01 -1.104905687274731e-01 4.814920972555739e-02 1.038279380189026e-01 8.315520061081008e-03 9.866030055023239e-02 1.021974485454405e-02
            -1.104277804776983e-01 4.820602739332128e-02 -1.149106117455633e-02 3.883510705410791e-01 9.870082607862338e-02 1.026900962081387e-02 1.037948870011393e-01 8.299233498457874e-03
932567500.0000000000 1.050103973599627e-01 -5.557573535853930e-03 1.004143487762171e-01 -3.036061256825731e-03 1.226067093597891e-01 3.687161356880838e-01 -8.611161784850295e-02 8.258996276434692e-02
            1.003077535898404e-01 -3.047449779854087e-03 1.050991305593609e-01 -5.615127201414909e-03 -8.605050117096759e-02 8.259638933238669e-02 1.226305017191017e-01 3.687366886646666e-01
            1.225799926727931e-01 3.687549027320520e-01 -8.604299200344769e-02 8.253575822013801e-02 1.060996685383033e-01 -4.033036492901457e-03 1.013148647486172e-01 -1.936519629365568e-03
            -8.603377693108186e-02 8.256376844812027e-02 1.226370379648804e-01 3.687350841909922e-01 1.012346090548889e-01 -1.937418204798953e-03 1.060505919566855e-01 -4.115202139791278e-03
933400000.0000000000 9.860492838662953e-02 -1.662369976288017e-02 9.409911215077768e-02 -1.411737326949988e-02 2.421808526990789e-01 3.047205853366414e-01 -5.125887640434808e-02 1.066577868162321e-01
            9.408802692795239e-02 -1.407612712550472e-02 9.855942971127328e-02 -1.656232478399767e-02 -5.122207840367344e-02 1.066842145097372e-01 2.422104421643121e-01 3.047108498137554e-01
            2.422442890193525e-01 3.047013256922128e-01 -5.115592485142386e-02 1.066741841038482e-01 9.980854766385981e-02 -1.492574280254329e-02 9.542193762562794e-02 -1.297105980857939e-02
            -5.118736537201495e-02 1.066792732123662e-01 2.422241822214334e-01 3.047457365725877e-01 9.540367760247398e-02 -1.278896571821147e-02 9.982521649474037e-02 -1.494990194546194e-02
934232500.0000000000 8.630605255281287e-02 -2.054706665520480e-02 8.197767807059851e-02 -1.834211210630936e-02 3.334990735870311e-01 2.033574408303638e-01 -9.670178156116422e-03 1.169058123228878e-01
            8.201221846603239e-02 -1.845138827177315e-02 8.634602757398152e-02 -2.053928584114678e-02 -9.686516288847109e-03 1.168998679752687e-01 3.333717090805621e-01 2.033663804297962e-01
            3.334362419526226e-01 2.034296166124545e-01 -9.690511073233475e-03 1.168204193128843e-01 8.785704700984320e-02 -1.911532891825950e-02 8.370099621227362e-02 -1.741089127350062e-02
            -9.667690421831807e-03 1.168498828111064e-01 3.333933638453660e-01 2.032619408406902e-01 8.364916118972238e-02 -1.740067099894910e-02 8.794351199300020e-02 -1.907911507562896e-02
935065000.0000000000 7.437485669888493e-02 -1.542035554112711e-02 6.992745690769989e-02 -1.379483736222908e-02 3.845644295608185e-01 7.564348365689065e-02 3.266729961633671e-02 1.109791893945424e-01
            6.988732023304858e-02 -1.374863020092345e-02 7.436150980946009e-02 -1.547140113374046e-02 3.266257968104681e-02 1.109748122620084e-01 3.846532474934359e-01 7.562461901292973e-02
            3.845522894511376e-01 7.563186906645915e-02 3.273224034008942e-02 1.109893396127545e-01 7.617605865151926e-02 -1.430999655148806e-02 7.187301855762734e-02 -1.311585892840310e-02
            3.269023452143197e-02 1.111132563295048e-01 3.846404232101815e-01 7.562909194633595e-02 7.177006307426458e-02 -1.307148803703928e-02 7.613134867953911e-02 -1.438913896095253e-02
935897500.0000000000 6.867474139543038e-02 -3.683805949620623e-03 6.382583653074353e-02 -2.202160182280551e-03 3.879311183290147e-01 -6.285591113639173e-02 6.921946717458834e-02 8.988144783887779e-02
            6.375748645316788e-02 -2.207573748374840e-03 6.868118369916650e-02 -3.750713509974216e-03 6.916366013162485e-02 8.987165528141373e-02 3.878675687634039e-01 -6.289072161577404e-02
            3.879525205487971e-01 -6.291795866657952e-02 6.914560565021609e-02 8.982622884628770e-02 7.048026069311060e-02 -2.944541576663905e-03 6.584051125288494e-02 -1.979581322883146e-03
            6.918774452204769e-02 8.986699508057074e-02 3.878652997167421e-01 -6.286311002239317e-02 6.579704414822134e-02 -2.030499485549342e-03 7.044199838746017e-02 -2.983257977735145e-03
936730000.0000000000 7.217312279383961e-02 9.072699321884939e-03 6.675456111111473e-02 1.053456106072789e-02 3.419911147555927e-01 -1.942735872315088e-01 9.425081959770697e-02 5.775791359082143e-02
            6.667345703147080e-02 1.049047113410391e-02 7.221127462638909e-02 9.022987410272821e-03 9.427999459967290e-02 5.773463863621740e-02 3.420270830069296e-01 -1.942140471637799e-01
            3.420050037413599e-01 -1.942242743413640e-01 9.439394984878149e-02 5.774567605625925e-02 7.379655997636114e-02 9.254639515340625e-03 6.852344080686729e-02 1.023840020939060e-02
            9.433902473090026e-02 5.778462079186724e-02 3.420010265053688e-01 -1.941922577047724e-01 6.866810394095423e-02 1.028711805959008e-02 7.377871227464382e-02 9.363299660848116e-03
937562500.0000000000 8.317289851962663e-02 1.627099437805058e-02 7.725661881359210e-02 1.810507857206140e-02 2.530634802588556e-01 -3.007348014442437e-01 1.057991073217059e-01 2.029239332008698e-02
            7.711212571016099e-02 1.811223488475488e-02 8.319931403848294e-02 1.634904058218944e-02 1.057532851338831e-01 2.029057587290902e-02 2.530080724721970e-01 -3.006684484596981e-01
            2.529921822129229e-01 -3.006392898517439e-01 1.057780594458374e-01 2.030667706325896e-02 8.436866559850262e-02 1.629449077055877e-02 7.878953656814897e-02 1.751504566546496e-02
            1.058917557319166e-01 2.035334780717862e-02 2.529878098549468e-01 -3.006452393562429e-01 7.890662093759687e-02 1.749832461159646e-02 8.438925120514340e-02 1.623318897704791e-02
938395000.0000000000 9.619602274168987e-02 1.459170172932232e-02 8.980060889671553e-02 1.713934905527157e-02 1.331979467483553e-01 -3.690350080868182e-01 1.038713092114115e-01 -1.726466187070583e-02
            8.985385874272105e-02 1.711859092999723e-02 9.616609957954891e-02 1.466793475884415e-02 1.038401375080029e-01 -1.725301447691526e-02 1.331316858591092e-01 -3.690298496812117e-01
            1.331401005474256e-01 -3.690366636448926e-01 1.038539221182558e-01 -1.725583179299918e-02 9.682451585606690e-02 1.441486450577150e-02 9.114520341889386e-02 1.620041041716019e-02
            1.038473370590256e-01 -1.725461450650993e-02 1.331834036286457e-01 -3.689925678265485e-01 9.116497855222752e-02 1.627383339304002e-02 9.690357920077361e-02 1.438377405173341e-02
939227500.0000000000 1.048387416226112e-01 5.041908951886168e-03 9.859987498058870e-02 8.143067899141704e-03 -2.051444555621746e-03 -3.918373807244438e-01 8.998933524826021e-02 -5.119179904133327e-02
            9.862527119295664e-02 8.140325163061873e-03 1.047758907292113e-01 5.073750474761806e-03 8.994025387823212e-02 -5.119695213193965e-02 -2.070447348185408e-03 -3.918213063707951e-01
            -2.160310031018028e-03 -3.917926002393148e-01 9.002949174435824e-02 -5.124120115920412e-02 1.050602316477010e-01 4.925611914426462e-03 9.959137179153370e-02 7.398693520787062e-03
            9.002011631414729e-02 -5.118271924997495e-02 -2.010495361652772e-03 -3.918899678909174e-01 9.947970568309239e-02 7.315301348753599e-03 1.050222629691844e-01 4.846216114780204e-03
940060000.0000000000 1.053569052247475e-01 -7.726131975972272e-03 9.937838823525412e-02 -4.096665814503084e-03 -1.364947001029981e-01 -3.674093689733510e-01 6.574204081670480e-02 -7.852933096659000e-02
            9.941836016336947e-02 -4.094595049556797e-03 1.052998337304851e-01 -7.780757037691832e-03 6.577330810043928e-02 -7.856731868599356e-02 -1.364949341964238e-01 -3.673920807617909e-01
            -1.365590458281341e-01 -3.674104153591086e-01 6.576655606535754e-02 -7.845207925245097e-02 1.050383452334794e-01 -7.766902109628662e-03 1.000399506568984e-01 -4.907824424623911e-03
            6.572826494300918e-02 -7.843767095671735e-02 -1.364963012682014e-01 -3.674265046275776e-01 1.000942666289122e-01 -4.844722744115219e-03 1.050762696655235e-01 -7.864313223180732e-03
940892500.0000000000 9.742153619135377e-02 -1.778648814592511e-02 9.188726805701261e-02 -1.376738755959750e-02 -2.549123719448039e-01 -2.986419364371612e-01 3.338817415624879e-02 -9.590273137942468e-02
            9.193885752189898e-02 -1.378913700894865e-02 9.746941068905474e-02 -1.777838709646821e-02 3.338667796649061e-02 -9.583601487702874e-02 -2.548797016852670e-01 -2.986521064224455e-01
            -2.549719060812068e-01 -2.986682275251429e-01 3.337342770249131e-02 -9.590500917947456e-02 9.663528995379374e-02 -1.758974897783532e-02 9.244124383886523e-02 -1.456539049185385e-02
            3.342502267218939e-02 -9.586463997554232e-02 -2.548995336445841e-01 -2.986971037901212e-01 9.245950933901087e-02 -1.450781793188639e-02 9.664731607445173e-02 -1.756188589469785e-02
941725000.0000000000 8.497192242344132e-02 -2.016975016890781e-02 7.995806304440890e-02 -1.619562699646006e-02 -3.434243435949857e-01 -1.930721615248136e-01 -3.477759179877222e-03 -1.004598074136047e-01
            7.995558468118905e-02 -1.624850608281244e-02 8.501357042257192e-02 -2.019291751298730e-02 -3.454140741595247e-03 -1.004025269032880e-01 -3.434078882087535e-01 -1.931086041674069e-01
            -3.434280776358973e-01 -1.930920516795965e-01 -3.502097402261726e-03 -1.004179602422206e-01 8.369192302053885e-02 -1.957756846160223e-02 8.022759021339586e-02 -1.682890435797502e-02
            -3.456846126855355e-03 -1.004194213677190e-01 -3.433876522073292e-01 -1.931166350746839e-01 8.010656285367310e-02 -1.683293743228120e-02 8.364128364120271e-02 -1.952066795018436e-02
942557500.0000000000 7.413169855458999e-02 -1.377682581325826e-02 6.928750927489187e-02 -9.931056650133573e-03 -3.902550366194418e-01 -6.236975525219441e-02 -3.921081168379590e-02 -9.073948581727771e-02
            6.926023344972410e-02 -9.916617931037314e-03 7.399535343334780e-02 -1.379454695711526e-02 -3.924973410435182e-02 -9.071529927807183e-02 -3.902336397337811e-01 -6.231446843067850e-02
            -3.902623172138069e-01 -6.231892586729088e-02 -3.921248836782483e-02 -9.068822726428952e-02 7.241172393620916e-02 -1.251508134026450e-02 6.933211963750655e-02 -1.049727455824019e-02
            -3.925990115622921e-02 -9.068255105952062e-02 -3.902408432656314e-01 -6.233327965891774e-02 6.929303924786008e-02 -1.053420464781725e-02 7.240099239238416e-02 -1.253828313984486e-02
943390000.0000000000 7.024803596913867e-02 -1.814267422213257e-03 6.543034357562687e-02 2.131187065864082e-03 -3.882600151193351e-01 7.750941002021454e-02 -6.794598777982608e-02 -6.853435478669230e-02
            6.553798126457905e-02 2.144789390628920e-03 7.019495955763504e-02 -1.712737033280939e-03 -6.803874433264442e-02 -6.852845394948001e-02 -3.882526253665288e-01 7.748813538076169e-02
            -3.882694218127633e-01 7.743207645024451e-02 -6.802835756800495e-02 -6.848089902217795e-02 6.834908766104399e-02 2.310905626761941e-04 6.529889227485276e-02 1.637259689337438e-03
            -6.798685650128165e-02 -6.851940608582353e-02 -3.882340703216101e-01 7.745483125625090e-02 6.525856127275829e-02 1.503046123222143e-03 6.834891323895992e-02 2.563069622107485e-04
944222500.0000000000 7.538197832959798e-02 9.664571970996409e-03 7.062737009115334e-02 1.370050679970108e-02 -3.369963040964707e-01 2.078287632824050e-01 -8.554680194343901e-02 -3.819864478945534e-02
            7.071325273798500e-02 1.367922355587785e-02 7.544751652048123e-02 9.695742137520773e-03 -8.568545345531769e-02 -3.825140581868541e-02 -3.370070133547738e-01 2.077283317954038e-01
            -3.370333241649394e-01 2.078566612968333e-01 -8.560818799920154e-02 -3.828068244993479e-02 7.358343409052256e-02 1.267209929632732e-02 7.030986700131936e-02 1.333745883760906e-02
            -8.563790801275956e-02 -3.830121525649626e-02 -3.370702756771864e-01 2.078466852511163e-01 7.031191304449044e-02 1.330823749136854e-02 7.362692262387882e-02 1.268058014333056e-02
945055000.0000000000 8.688930664800050e-02 1.479928815084891e-02 8.225551712950768e-02 1.895715582594509e-02 -2.435820062669461e-01 3.114177240318231e-01 -9.091137787979615e-02 -5.350114053326666e-03
            8.226110835964708e-02 1.890624089029274e-02 8.683212501953405e-02 1.483989696061941e-02 -9.084470284326082e-02 -5.302680654196130e-03 -2.435919356309889e-01 3.114148475314275e-01
            -2.435719824349387e-01 3.114142122313593e-01 -9.087950968082875e-02 -5.425041406890699e-03 8.547376046202385e-02 1.840816865890121e-02 8.166231473338219e-02 1.886059075837022e-02
            -9.087569990999100e-02 -5.376261980219650e-03 -2.436333515455974e-01 3.113830165167605e-01 8.168542017620400e-02 1.891183925536047e-02 8.544449090638793e-02 1.852327254142765e-02
945887500.0000000000 9.884598116415043e-02 1.095556702101420e-02 9.444448096285743e-02 1.537302773439664e-02 -1.207752217212364e-01 3.756082686058583e-01 -8.487708362250659e-02 2.603649348945960e-02
            9.442676561989201e-02 1.549809540087113e-02 9.886166535276528e-02 1.098614646655985e-02 -8.487806250220857e-02 2.599229084182213e-02 -1.208718572979735e-01 3.756109428420913e-01
            -1.208266130275918e-01 3.756561911354241e-01 -8.489892574954003e-02 2.603262434754479e-02 9.812218296060979e-02 1.520976468246721e-02 9.376761484274852e-02 1.559933681577820e-02
            -8.501628054207470e-02 2.597901429245131e-02 -1.207946325780250e-01 3.756155385003168e-01 9.386886954217628e-02 1.558899066609734e-02 9.809193987741630e-02 1.523264850942932e-02
946720000.0000000000 1.052361767136643e-01 3.440983535357087e-04 1.013873885741297e-01 4.954516034720990e-03 1.572953118336890e-02 3.938057968539233e-01 -6.933163688959390e-02 5.293631643357040e-02
            1.014087709870223e-01 4.920558122442902e-03 1.053223695148581e-01 3.800984374387342e-04 -6.934456479110597e-02 5.297967825970937e-02 1.581876752521095e-02 3.938215935956073e-01
            1.573721228822077e-02 3.937819447232206e-01 -6.930834971395525e-02 5.289722126447732e-02 1.053656313264188e-01 4.890104936323961e-03 1.008458558981023e-01 5.341205987148814e-03
            -6.934642933398311e-02 5.301024144027188e-02 1.574097764595731e-02 3.938285583149023e-01 1.008162342516485e-01 5.309946251804244e-03 1.054146109112278e-01 4.865368290624330e-03
947552500.0000000000 1.033273492395250e-01 -1.203446942118015e-02 9.996061570230549e-02 -7.510824847074637e-03 1.500920301421880e-01 3.646522339153973e-01 -4.575807407275549e-02 7.318810104429271e-02
            1.000013949565835e-01 -7.520775043373291e-03 1.033814759922326e-01 -1.198773941070086e-02 -4.583608879342875e-02 7.317220252747976e-02 1.500462500223878e-01 3.646219571881403e-01
            1.500395745203883e-01 3.646189016456253e-01 -4.580117785070395e-02 7.319183605050980e-02 1.041209585158188e-01 -7.669585712549577e-03 9.952688795699961e-02 -6.927802287499358e-03
            -4.576435582125969e-02 7.316099535362250e-02 1.501121362794025e-01 3.646058883384773e-01 9.950362012501099e-02 -6.932751834249454e-03 1.041574070954050e-01 -7.688056893542712e-03
948385000.0000000000 9.369151395848090e-02 -2.018715895788378e-02 9.080564865512618e-02 -1.602319528191221e-02 2.668370601391898e-01 2.914387658359717e-01 -1.623186917418349e-02 8.406517565210697e-02
            9.082890551109775e-02 -1.608561217837627e-02 9.374831095297638e-02 -2.024314748966553e-02 -1.629610611716283e-02 8.406304713888058e-02 2.668336951419667e-01 2.914800554692858e-01
            2.668389990939491e-01 2.913808379077071e-01 -1.628220266661248e-02 8.396086935824357e-02 9.503500565143473e-02 -1.621940491369587e-02 9.040626283541640e-02 -1.542919321955452e-02
            -1.628575324465660e-02 8.398612214124275e-02 2.668976920399149e-01 2.913721348059071e-01 9.035374412557677e-02 -1.544214637380080e-02 9.503036780999408e-02 -1.624094785405570e-02
949217500.0000000000 8.109209059813711e-02 -2.002519018625357e-02 7.834464858289474e-02 -1.648932986825152e-02 3.521689419702007e-01 1.819028937312777e-01 1.550011472348894e-02 8.309676153701488e-02
            7.839522816486691e-02 -1.646601839288236e-02 8.107653565294894e-02 -2.005990806117488e-02 1.551466486927965e-02 8.319031675051031e-02 3.520854983517309e-01 1.819273382681443e-01
            3.521601535566908e-01 1.818544363970944e-01 1.553924098669677e-02 8.311948021482424e-02 8.243780339915155e-02 -1.658675076273720e-02 7.791602086084880e-02 -1.592755980451431e-02
            1.553447678877865e-02 8.307857578681693e-02 3.521376878734977e-01 1.818918194935386e-01 7.785192597021544e-02 -1.581748080764682e-02 8.233998521744319e-02 -1.665477640087858e-02
950050000.0000000000 7.136534618546102e-02 -1.163183082945748e-02 6.868008322223065e-02 -8.512818570944937e-03 3.943962858031340e-01 4.857590315414365e-02 4.436290807152946e-02 7.007258687795122e-02
            6.863999021018602e-02 -8.493768736315481e-03 7.139676177171771e-02 -1.161060300169520e-02 4.440330807330848e-02 7.014112184999755e-02 3.944035658141865e-01 4.854406544325987e-02
            3.943895631325516e-01 4.855157099166256e-02 4.443612996950799e-02 7.007396573353263e-02 7.249209674889498e-02 -8.435336548437363e-03 6.803049110211237e-02 -7.771190807390676e-03
            4.443824769655019e-02 6.998566348424815e-02 3.944116253619721e-01 4.857007296306363e-02 6.808401008430162e-02 -7.875018826101157e-03 7.246313361992300e-02 -8.488025236110410e-03
950882500.0000000000 6.989230993794154e-02 1.189004983477541e-03 6.686058735864094e-02 3.879401969160745e-03 3.870604707681660e-01 -9.182834092103741e-02 6.548257787909312e-02 4.731173000615692e-02
            6.686516000187265e-02 3.935934202363323e-03 6.991571301365546e-02 1.207796569056159e-03 6.543627151653447e-02 4.730674703506053e-02 3.871174307333447e-01 -9.190687450268353e-02
            3.870588084229020e-01 -9.182339833067535e-02 6.530354267056340e-02 4.737256881933193e-02 7.057492269481204e-02 4.473321088957280e-03 6.594549419343067e-02 4.848321343826495e-03
            6.539880030032520e-02 4.725699208466747e-02 3.871314980135033e-01 -9.184483780944297e-02 6.600922588515906e-02 4.781284107137433e-03 7.056314410647506e-02 4.518150470574876e-03
951715000.0000000000 7.726028965310967e-02 1.180433184997104e-02 7.379479477471457e-02 1.438904291522148e-02 3.307162660184376e-01 -2.206793163815257e-01 7.564208790943740e-02 1.953738019868668e-02
            7.373097872479902e-02 1.438054843491518e-02 7.735968208213347e-02 1.176639981148601e-02 7.566667154614116e-02 1.953686163095203e-02 3.307084993713016e-01 -2.206173869468457e-01
            3.307445400166484e-01 -2.206128683371048e-01 7.563972034458581e-02 1.954820100374103e-02 7.764602988418687e-02 1.554788722426727e-02 7.274525187469169e-02 1.575058081257929e-02
            7.561051085914654e-02 1.948451935635207e-02 3.307042151510878e-01 -2.205501331751187e-01 7.272136841729866e-02 1.580559833874119e-02 7.757411606599218e-02 1.548215450498304e-02
952547500.0000000000 8.979418823700382e-02 1.484503914376089e-02 8.596358700628977e-02 1.762028041723206e-02 2.332422861037338e-01 -3.209412574430582e-01 7.519598519753058e-02 -8.424490816098872e-03
            8.588546748961715e-02 1.775024235495234e-02 8.986506996551774e-02 1.482297841671465e-02 7.500616170689213e-02 -8.456900418556396e-03 2.332672653152513e-01 -3.209409308029101e-01
            2.332674202720354e-01 -3.209477769633496e-01 7.516272467069549e-02 -8.510289902472757e-03 9.011940438404434e-02 1.930786030643932e-02 8.484991354546645e-02 1.951405685254487e-02
            7.503664421009848e-02 -8.517124390926048e-03 2.332949055152345e-01 -3.209778161060798e-01 8.499649607444297e-02 1.964023825449892e-02 9.010222914033920e-02 1.931234161733568e-02
953380000.0000000000 1.012510916017305e-01 8.923801055082094e-03 9.724292669835224e-02 1.216504322634227e-02 1.079859142501952e-01 -3.808341021129552e-01 6.548483747192625e-02 -3.347376995445604e-02
            9.724301087663373e-02 1.216894871974182e-02 1.012173168077634e-01 8.966976373561012e-03 6.550668336443734e-02 -3.338717418900856e-02 1.080411690248512e-01 -3.808306622254398e-01
            1.079739718102439e-01 -3.808477699682765e-01 6.556531447156420e-02 -3.337220706491970e-02 1.020160056973732e-01 1.412642255589593e-02 9.666296802384672e-02 1.464200372256398e-02
            6.556351422025246e-02 -3.343705082512503e-02 1.079668969038990e-01 -3.808587994983362e-01 9.661600567494899e-02 1.465366479156812e-02 1.020718073231755e-01 1.409680611086616e-02
954212500.0000000000 1.061922556849761e-01 -3.063746199738034e-03 1.023438998978441e-01 6.156375452401669e-04 -2.934742696428658e-02 -3.943906225864564e-01 4.876255824871211e-02 -5.341624650395761e-02
            1.024075089822245e-01 6.516897374898368e-04 1.061893354705149e-01 -2.979440125070410e-03 4.871167557457907e-02 -5.337618522246797e-02 -2.939787445019606e-02 -3.944056911684245e-01
            -2.934592001919630e-02 -3.943715296837731e-01 4.881689848610839e-02 -5.333906138201426e-02 1.077885268396230e-01 2.723003464521626e-03 1.021973316107152e-01 3.423346333231734e-03
            4.877453870306070e-02 -5.333580581228280e-02 -2.935163884732828e-02 -3.943753125708915e-01 1.022887995733540e-01 3.481262952562343e-03 1.078272576330351e-01 2.732840117762471e-03
955045000.0000000000 1.022216393649870e-01 -1.534584779515107e-02 9.884478364588362e-02 -1.152507805471821e-02 -1.630257076474835e-01 -3.606003171070425e-01 2.621480323675684e-02 -6.664471071991881e-02
            9.884173394553644e-02 -1.156815835974075e-02 1.022731262017736e-01 -1.538412375614882e-02 2.631468327152233e-02 -6.659938863676892e-02 -1.631166654898868e-01 -3.605755610565254e-01
            -1.631174110282626e-01 -3.605507932977234e-01 2.618160857647832e-02 -6.658445868041107e-02 1.047574010515010e-01 -9.747260995347905e-03 9.939328806468761e-02 -8.653145025515637e-03
            2.625567168013478e-02 -6.660774234978084e-02 -1.630985258123302e-01 -3.605557997308214e-01 9.932831847801536e-02 -8.652591373110039e-03 1.048076233313490e-01 -9.706086428447265e-03
955877500.0000000000 9.123165920384367e-02 -2.224561849843328e-02 8.827195957657492e-02 -1.858359833806024e-02 -2.779055617573376e-01 -2.829836872646173e-01 1.200375165263138e-04 -7.111095657795675e-02
            8.816793120984498e-02 -1.858698416445436e-02 9.111678760719705e-02 -2.234093973549971e-02 5.465189089184728e-05 -7.106199741203016e-02 -2.778200421790807e-01 -2.830847715492502e-01
            -2.778617929455356e-01 -2.830291576874290e-01 4.118157971094363e-05 -7.111050384303873e-02 9.455475261578866e-02 -1.714178914269963e-02 8.940680672686531e-02 -1.592472349872309e-02
            8.888028442306842e-05 -7.107990192648600e-02 -2.777627284131419e-01 -2.830314316095593e-01 8.941978101346726e-02 -1.595447356830660e-02 9.459475233081158e-02 -1.713735028488308e-02
956710000.0000000000 7.811302386280830e-02 -2.038037579322305e-02 7.552968527138902e-02 -1.706238180632288e-02 -3.595900605229518e-01 -1.700647242483593e-01 -2.629794659982667e-02 -6.520452872969132e-02
            7.555375491104387e-02 -1.692909568418232e-02 7.814155126667797e-02 -2.035094261019119e-02 -2.638163122951089e-02 -6.522540834891705e-02 -3.594796266722660e-01 -1.700583929377352e-01
            -3.596112443268688e-01 -1.699778259853946e-01 -2.630582242424053e-02 -6.523532915540908e-02 8.190460369835383e-02 -1.593158202618402e-02 7.702063284526875e-02 -1.482673226152680e-02
            -2.634946421102392e-02 -6.528814950937899e-02 -3.595766541335634e-01 -1.701593535898043e-01 7.706295235155539e-02 -1.485940883618885e-02 8.194145556651618e-02 -1.595148335303599e-02
957542500.0000000000 6.956153595048656e-02 -1.032065294111237e-02 6.698513368112538e-02 -7.493355105155368e-03 -3.971086333720867e-01 -3.473722336614306e-02 -4.823195675679906e-02 -4.939651823098533e-02
            6.700628361027947e-02 -7.450280163027822e-03 6.948389306217938e-02 -1.036484174899061e-02 -4.819677958868521e-02 -4.935561198309649e-02 -3.970481902966445e-01 -3.463688909464786e-02
            -3.971090779780759e-01 -3.459943774955657e-02 -4.816589590526076e-02 -4.937062859969144e-02 7.330792287147535e-02 -6.784301302085958e-03 6.850722038089570e-02 -5.824290980241864e-03
            -4.823884928566826e-02 -4.929925930572097e-02 -3.970476635396094e-01 -3.475987319052844e-02 6.845617501950127e-02 -5.847465210983099e-03 7.331970512133654e-02 -6.697913788659650e-03
958375000.0000000000 6.975969343237827e-02 2.871174043893949e-03 6.695122557730392e-02 5.320336031144134e-03 -3.844659534077747e-01 1.057687342497300e-01 -6.159103618812613e-02 -2.657454029175333e-02
            6.690111596296765e-02 5.302149211522018e-03 6.965910239861706e-02 2.849163496657738e-03 -6.153520777425443e-02 -2.660727577032430e-02 -3.845128407568474e-01 1.058100916994061e-01
            -3.845197169739694e-01 1.057664820366533e-01 -6.164782725877171e-02 -2.660138433566092e-02 7.302877111958675e-02 5.937485680330948e-03 6.802375196881805e-02 6.615550463329203e-03
            -6.153741121190499e-02 -2.666850940529884e-02 -3.845101542076402e-01 1.057779206799750e-01 6.809297068311687e-02 6.668403254495853e-03 7.298425291616294e-02 6.008170101296065e-03
959207500.0000000000 7.853875995182928e-02 1.253858572781901e-02 7.531577037150300e-02 1.499177345831931e-02 -3.233157066268238e-01 2.325879854548843e-01 -6.478203959620431e-02 -1.672977788869266e-03
            7.528805134208473e-02 1.493051920868151e-02 7.846761627127791e-02 1.257630559688021e-02 -6.474106612588311e-02 -1.556744186032044e-03 -3.232527760559588e-01 2.326118440911079e-01
            -3.232885673380813e-01 2.325342236657422e-01 -6.470807198936185e-02 -1.598711665833168e-03 8.107683867192736e-02 1.578097736233677e-02 7.603501447475121e-02 1.611762156803037e-02
            -6.474042278908305e-02 -1.661002179995858e-03 -3.233288372082664e-01 2.325363592376368e-01 7.609506982295641e-02 1.612122082257456e-02 8.113613906909450e-02 1.566275238730462e-02
960040000.0000000000 9.149023201004640e-02 1.413926739708557e-02 8.784766101808099e-02 1.657042614857577e-02 -2.222540614944654e-01 3.292940604013295e-01 -5.881787333579972e-02 2.128281331636403e-02
            8.791195242464767e-02 1.662029661181958e-02 9.142897808335919e-02 1.414625166725294e-02 -5.880418917266975e-02 2.131505914126882e-02 -2.222785940060564e-01 3.293343388030737e-01
            -2.222787775220156e-01 3.292699864273747e-01 -5.879269957902006e-02 2.135570481857504e-02 9.367008954440263e-02 1.766095523702518e-02 8.823104565559176e-02 1.799702929953292e-02
            -5.882577134259477e-02 2.135045372925256e-02 -2.222754714218323e-01 3.293651477020194e-01 8.835376043676670e-02 1.810866180567060e-02 9.361318215691071e-02 1.762497681387796e-02
960872500.0000000000 1.020700883632348e-01 6.765244094255049e-03 9.843226446614467e-02 9.722353395470982e-03 -9.493245839596344e-02 3.849164951390194e-01 -4.595405741676101e-02 3.981275069096633e-02
            9.845600838297147e-02 9.654995325912966e-03 1.021082076824834e-01 6.791908111918010e-03 -4.598595712399135e-02 3.987290963231730e-02 -9.492341937172549e-02 3.848824230066718e-01
            -9.496046505504632e-02 3.848072711395986e-01 -4.596555876783533e-02 3.989844523099887e-02 1.043424922984198e-01 1.091297809114587e-02 9.881882853507201e-02 1.150400460171629e-02
            -4.600874256579556e-02 3.988640906296437e-02 -9.492473267243620e-02 3.849144266976977e-01 9.869102154550848e-02 1.155147486953170e-02 1.043452770066086e-01 1.093591636417080e-02
961705000.0000000000 1.054763510247524e-01 -5.511967131527400e-03 1.020936964333040e-01 -2.368730715197502e-03 4.293269648179294e-02 3.937369147674901e-01 -2.826541132256739e-02 5.279236625183248e-02
            1.020103442368751e-01 -2.318927495545400e-03 1.054378866036641e-01 -5.668366324364010e-03 -2.827449650252330e-02 5.277502108519984e-02 4.297749309125490e-02 3.938093463914710e-01
            4.293583640222232e-02 3.937107924875493e-01 -2.826266760494545e-02 5.274824426529121e-02 1.080959931621126e-01 -9.763412091750433e-04 1.023604032195212e-01 -1.465201047463164e-04
            -2.828481165705070e-02 5.279672411054043e-02 4.301178140390074e-02 3.937404258599951e-01 1.024682860283246e-01 -1.605582164103838e-04 1.080589330524257e-01 -1.082442331173717e-03
962537500.0000000000 1.000656730835194e-01 -1.721581507489538e-02 9.707667472011562e-02 -1.376440171463756e-02 1.757927503532833e-01 3.553387028500429e-01 -7.114829627291024e-03 5.903422685349024e-02
            9.704366221107665e-02 -1.388959416856653e-02 9.999849612640491e-02 -1.712688351916683e-02 -7.057545806170283e-03 5.901419827838005e-02 1.757203755421455e-01 3.554135240508937e-01
            1.757828621846798e-01 3.553702405594926e-01 -7.163356972639881e-03 5.905072137852663e-02 1.031824802907399e-01 -1.251554323906954e-02 9.749083063118422e-02 -1.149544898275989e-02
            -7.053711822002105e-03 5.907166981495694e-02 1.757966811146367e-01 3.553436369860550e-01 9.752522435634291e-02 -1.145395370745756e-02 1.031358268025382e-01 -1.257570672700084e-02
963370000.0000000000 8.825774352462690e-02 -2.254183931924419e-02 8.586265345748652e-02 -1.939044390145365e-02 2.880474180544690e-01 2.737479238175207e-01 1.550528496943233e-02 5.728494643360242e-02
            8.583706579199429e-02 -1.937461535328958e-02 8.825886404570746e-02 -2.249814191735242e-02 1.548533761599129e-02 5.727673042450530e-02 2.880180900832258e-01 2.736690579178059e-01
            2.880645473513506e-01 2.736015933515597e-01 1.547423585707683e-02 5.731572706459947e-02 9.190723302534518e-02 -1.809209708358347e-02 8.639014428102203e-02 -1.696018298920923e-02
            1.551013443830232e-02 5.733110363535712e-02 2.880010778506734e-01 2.736927700166832e-01 8.642162884419198e-02 -1.693892840018929e-02 9.185997638235459e-02 -1.809021816371787e-02
964202500.0000000000 7.591105506196495e-02 -1.881582993781906e-02 7.384823085818257e-02 -1.616842623951476e-02 3.658789094219475e-01 1.574408806869146e-01 3.611068908584161e-02 4.665312220852470e-02
            7.389610675172506e-02 -1.613275926927368e-02 7.591728910907378e-02 -1.877100833128968e-02 3.608711840815040e-02 4.668596255110299e-02 3.659087215232386e-01 1.573918939296311e-01
            3.659207616656317e-01 1.573591404210791e-01 3.611786963381257e-02 4.666571182326550e-02 7.969634980172280e-02 -1.485673143308100e-02 7.422114767115369e-02 -1.382640411047859e-02
            3.610199395496706e-02 4.668067978368774e-02 3.658342006390081e-01 1.573602379658563e-01 7.421860138691626e-02 -1.374354400281384e-02 7.965638282694255e-02 -1.489071720451303e-02
965035000.0000000000 6.909077334743902e-02 -7.842160464435182e-03 6.702202343793004e-02 -5.934609234188416e-03 3.983709346971591e-01 2.038114195617206e-02 5.074374297045804e-02 2.843480116255736e-02
            6.704520872046739e-02 -5.864944077746017e-03 6.906462438452182e-02 -7.873401758949190e-03 5.085506639568598e-02 2.846060164256960e-02 3.984123248952816e-01 2.047259847787993e-02
            3.983547572003525e-01 2.044895445899483e-02 5.069937498475939e-02 2.839878455887410e-02 7.238395802371789e-02 -4.329011630167338e-03 6.707720813150624e-02 -3.206426442900366e-03
            5.073000101928827e-02 2.843320590399056e-02 3.984418727734460e-01 2.049532900379585e-02 6.710456287632512e-02 -3.249030483466506e-03 7.247267540695974e-02 -4.308343896409017e-03
965867500.0000000000 7.132177171400426e-02 4.857909471025049e-03 6.894883220943285e-02 6.258230522371342e-03 3.804323676571761e-01 -1.195283127158980e-01 5.650243796765402e-02 6.207357553273109e-03
            6.890052578848256e-02 6.317211598954917e-03 7.128948176498641e-02 4.921868078250805e-03 5.646366589083294e-02 6.071825578626034e-03 3.804566677316811e-01 -1.194451149662593e-01
            3.804916402709705e-01 -1.194428950853958e-01 5.640764578756315e-02 6.130783087313430e-03 7.400733059414739e-02 8.457287782590668e-03 6.860532753104649e-02 9.582843403412594e-03
            5.645715495553846e-02 6.178928074184600e-03 3.805599160779042e-01 -1.195735270430367e-01 6.856371819552746e-02 9.557229383413041e-03 7.401519810469386e-02 8.477816364378768e-03
966700000.0000000000 8.144487031755678e-02 1.288750468941158e-02 7.853462159103444e-02 1.390690127694405e-02 3.145828806440434e-01 -2.436898571577432e-01 5.276452925053067e-02 -1.553894802443765e-02
            7.845343733502971e-02 1.388131346784436e-02 8.146705129914851e-02 1.285746371674100e-02 5.273819681114988e-02 -1.548042275598479e-02 3.146406953075208e-01 -2.436556370245834e-01
            3.146595306391248e-01 -2.437633986805476e-01 5.280086342140023e-02 -1.550578960935381e-02 8.352639522009263e-02 1.702967209294747e-02 7.803705656348572e-02 1.828705203875568e-02
            5.284282331461949e-02 -1.554500534446804e-02 3.146025433787842e-01 -2.437776211945729e-01 7.800398764300098e-02 1.825247245959942e-02 8.349539403514282e-02 1.708383355363618e-02
967532500.0000000000 9.429212100684881e-02 1.217657993463447e-02 9.074869257815582e-02 1.317858761381811e-02 2.104375121621399e-01 -3.366323703415940e-01 4.179098749537447e-02 -3.307000490157883e-02
            9.065204896678991e-02 1.322713942181509e-02 9.440933796588791e-02 1.221702825633877e-02 4.174705936135320e-02 -3.310294067724439e-02 2.104165056649730e-01 -3.365860047133223e-01
            2.103530583875107e-01 -3.365927212540996e-01 4.179235693142066e-02 -3.308124957989756e-02 9.619322736183226e-02 1.745759550553426e-02 9.061583174576199e-02 1.874614182885649e-02
            4.179999561960896e-02 -3.303170102999377e-02 2.104320762848217e-01 -3.365928498623906e-01 9.063366506456369e-02 1.872871666607526e-02 9.613408530270019e-02 1.743822720603320e-02
968365000.0000000000 1.035302832911378e-01 3.234200768839126e-03 9.945912309117366e-02 4.502614628823466e-03 8.147638602040858e-02 -3.875567908391612e-01 2.609832405275992e-02 -4.497443581379286e-02
            9.945024351603046e-02 4.345939726968410e-03 1.035990186113507e-01 3.284607299506527e-03 2.618323490903013e-02 -4.494580895384815e-02 8.148989067566322e-02 -3.876763599086154e-01
            8.152874058190636e-02 -3.876205917306126e-01 2.612957522124388e-02 -4.499532470334532e-02 1.057586172241980e-01 9.456019588345412e-03 1.005785895194146e-01 1.110621434819983e-02
            2.615320268030513e-02 -4.503164588872689e-02 8.151368297364317e-02 -3.876677309164933e-01 1.005519368858697e-01 1.117180960907209e-02 1.058413516842637e-01 9.510847075420211e-03
969197500.0000000000 1.049019898767553e-01 -9.534192983738105e-03 1.005560805657068e-01 -8.088757008844512e-03 -5.648679179852786e-02 -3.917862045195549e-01 7.920283332785086e-03 -5.097850716260723e-02
            1.005445765387453e-01 -8.087924616466464e-03 1.049269249498097e-01 -9.501621509868510e-03 7.936066362468080e-03 -5.095208674116045e-02 -5.655647281020540e-02 -3.918208111468861e-01
            -5.659099014568791e-02 -3.917878610466116e-01 7.847267143519611e-03 -5.089440443314990e-02 1.080177672349142e-01 -2.608469691426760e-03 1.031127905813672e-01 -7.690992267777334e-04
            7.876715404675744e-03 -5.092810880330229e-02 -5.651297613646850e-02 -3.917636479730077e-01 1.030824540095928e-01 -7.413133295905623e-04 1.080249223763070e-01 -2.553880108599705e-03
970030000.0000000000 9.760663435882226e-02 -2.017014453930357e-02 9.308166881181672e-02 -1.841949721368669e-02 -1.878984193206220e-01 -3.488317090312454e-01 -1.151406998233515e-02 -5.036085919116141e-02
            9.315621702811812e-02 -1.836981998197511e-02 9.762710531612448e-02 -2.007134332671963e-02 -1.151872679599135e-02 -5.039995838313731e-02 -1.878522810221902e-01 -3.488125316117688e-01
            -1.878993783814980e-01 -3.487862476878463e-01 -1.158000860715001e-02 -5.038940880244318e-02 1.017875160203238e-01 -1.306843791946656e-02 9.737827627237050e-02 -1.139202215007980e-02
            -1.153432201637147e-02 -5.034280036166085e-02 -1.878870419132495e-01 -3.489145351433264e-01 9.735707770831088e-02 -1.132892636819990e-02 1.017668549400160e-01 -1.299148429613337e-02
970862500.0000000000 8.512016919640872e-02 -2.348206381741779e-02 8.066752094333479e-02 -2.161464638244958e-02 -2.973353047127210e-01 -2.631901017685925e-01 -3.008332653299252e-02 -4.257912508462419e-02
            8.070019608195794e-02 -2.163399074047792e-02 8.508388467744794e-02 -2.358120842414873e-02 -3.006835088989583e-02 -4.257879192814041e-02 -2.974286309148269e-01 -2.632725569755195e-01
            -2.973081593691997e-01 -2.631820550525795e-01 -3.008355597747145e-02 -4.257219269244668e-02 9.010827712295401e-02 -1.684967071468289e-02 8.623058207702568e-02 -1.539847242358092e-02
            -3.003873145172417e-02 -4.248174279084134e-02 -2.973396294209205e-01 -2.631369252394736e-01 8.625704490704664e-02 -1.546948222732186e-02 9.012959274156719e-02 -1.681282392244030e-02
971695000.0000000000 7.353943476294508e-02 -1.770453891012026e-02 6.899860515471595e-02 -1.595814750614256e-02 -3.709143352271959e-01 -1.440884784909347e-01 -4.465846781306895e-02 -2.746146992736701e-02
            6.899538877561394e-02 -1.586369110165928e-02 7.352430109925662e-02 -1.768668901399775e-02 -4.474962050912423e-02 -2.749328041945380e-02 -3.709234352178331e-01 -1.440417387211919e-01
            -3.708477613150790e-01 -1.441068521387518e-01 -4.469216255847980e-02 -2.745377570460323e-02 7.875410844967723e-02 -1.187191464260343e-02 7.522347525675467e-02 -1.105433559164310e-02
            -4.468365561955463e-02 -2.754643680933581e-02 -3.708723141409304e-01 -1.440756311770812e-01 7.532705696740113e-02 -1.103297149721342e-02 7.873877277300458e-02 -1.186656439540665e-02
972527500.0000000000 6.868674299033796e-02 -5.736328282448914e-03 6.397727529677966e-02 -4.030099853622542e-03 -3.981957976488338e-01 -6.150566576786396e-03 -5.194905883295371e-02 -7.301837002806360e-03
            6.395500628501212e-02 -4.091688988040686e-03 6.858181227137047e-02 -5.719865569044092e-03 -5.193894824035514e-02 -7.332219119921895e-03 -3.981915299096724e-01 -6.037625238550146e-03
            -3.981528098378928e-01 -6.071429249091935e-03 -5.187087976475805e-02 -7.337654009948165e-03 7.340945097992210e-02 -2.961614699134376e-04 6.996783307460712e-02 -2.753555996558418e-04
            -5.195318211060709e-02 -7.363407733257004e-03 -3.981641230850935e-01 -6.106381814201567e-03 6.991437999245143e-02 -3.307861303716954e-04 7.332842260985260e-02 -4.154437697573013e-04
973360000.0000000000 7.322511374181671e-02 6.440072299640187e-03 6.807987614859776e-02 8.199707076465251e-03 -3.749318573892068e-01 1.327394495650825e-01 -4.993064623789967e-02 1.397263038097876e-02
            6.807244888194651e-02 8.268957384796253e-03 7.317572855269831e-02 6.361425832472237e-03 -4.992823504349790e-02 1.382347753786700e-02 -3.749231735446320e-01 1.328278724940181e-01
            -3.749389790319412e-01 1.327959979132169e-01 -4.994064265789880e-02 1.388561075497749e-02 7.699172642878786e-02 1.206763229086510e-02 7.328595777744643e-02 1.146045459493242e-02
            -4.992574570668919e-02 1.385619800345595e-02 -3.749573433435558e-01 1.327452481895495e-01 7.326020554673685e-02 1.138465655790023e-02 7.697011953975524e-02 1.204187351041340e-02
974192500.0000000000 8.480609205205364e-02 1.236085699395433e-02 7.924919330842517e-02 1.452982693726934e-02 -3.047733304990433e-01 2.538538708890870e-01 -3.970808490653325e-02 3.177264766907398e-02
            7.926919890196416e-02 1.450927889260674e-02 8.473997182297144e-02 1.243250732157211e-02 -3.968370220756590e-02 3.177512233680096e-02 -3.048275351047805e-01 2.539378569795088e-01
            -3.048669479811171e-01 2.539336931155912e-01 -3.969991238399408e-02 3.175253209388851e-02 8.777211587891143e-02 1.925413830598095e-02 8.350917385228276e-02 1.799092025621311e-02
            -3.972723368024170e-02 3.175106004187914e-02 -3.048005723511241e-01 2.539116500033767e-01 8.360778541529511e-02 1.806086130108060e-02 8.784575961408042e-02 1.929839725709530e-02
975025000.0000000000 9.761843489846167e-02 9.323873706600682e-03 9.180071547251863e-02 1.195824159810517e-02 -1.977792512846734e-01 3.425442156731859e-01 -2.397636569560313e-02 4.361562264501630e-02
            9.180743566081789e-02 1.192010469798311e-02 9.759322051533863e-02 9.322739238722694e-03 -2.410228829871647e-02 4.354719077077191e-02 -1.978308423987334e-01 3.424931498107707e-01
            -1.977313086625347e-01 3.425875828940329e-01 -2.405777474559328e-02 4.363733537827944e-02 1.006328102991496e-01 1.777249703981704e-02 9.567188744349753e-02 1.636970186088745e-02
            -2.403095013892049e-02 4.362471706457113e-02 -1.977012696768639e-01 3.426435839507775e-01 9.567552571053772e-02 1.641809661929494e-02 1.005889703986700e-01 1.773535208419697e-02
975857500.0000000000 1.054460582886062e-01 -1.474581982821596e-03 9.974885598950406e-02 1.693370083359462e-03 -6.773761294230952e-02 3.888113667267881e-01 -6.103545314406905e-03 4.874614957582093e-02
            9.965819538489298e-02 1.715635594008598e-03 1.053945134543494e-01 -1.516938911124146e-03 -6.032951645463281e-03 4.881926284794216e-02 -6.776983026052363e-02 3.888262414684177e-01
            -6.773480742596374e-02 3.887949632112386e-01 -6.119782766446404e-03 4.880880805644006e-02 1.093801816560642e-01 8.714852781598420e-03 1.040306841230414e-01 7.543046381431050e-03
            -6.039775620001052e-03 4.879506012739814e-02 -6.774838162262395e-02 3.888982639044847e-01 1.040687034404146e-01 7.389786662376705e-03 1.093783168859071e-01 8.715241897635593e-03
976690000.0000000000 1.045530133936141e-01 -1.487662814956923e-02 9.908642882167350e-02 -1.130703849249790e-02 6.978557012832472e-02 3.882831438791522e-01 1.216874688520376e-02 4.766535250308922e-02
            9.919691383329221e-02 -1.125921482167448e-02 1.046524547518319e-01 -1.488627758289256e-02 1.219587440509984e-02 4.768986483968930e-02 6.972560990932544e-02 3.882058344052599e-01
            6.973484106400872e-02 3.883417896145410e-01 1.214576334757121e-02 4.769055156523582e-02 1.101781680183329e-01 -3.543542186482009e-03 1.044661376490685e-01 -4.513419121709007e-03
            1.220257205265785e-02 4.761949594107077e-02 6.979213762746313e-02 3.882913152533082e-01 1.045959911191317e-01 -4.552672224397487e-03 1.101789736037214e-01 -3.582535940840458e-03
977522500.0000000000 9.539528316611005e-02 -2.473886331734197e-02 9.039374544967260e-02 -2.096482017810806e-02 1.992308449764303e-01 3.410458745120297e-01 2.938135160626930e-02 4.045575043496218e-02
            9.043913205434041e-02 -2.097165590177028e-02 9.544009468541913e-02 -2.464770283425837e-02 2.940971903886083e-02 4.039500543772225e-02 1.992237812181895e-01 3.409873790575899e-01
            1.992492656674428e-01 3.409882489564883e-01 2.939234218049804e-02 4.043121780565562e-02 1.028985064607445e-01 -1.323945578248645e-02 9.726312271283043e-02 -1.391606665284002e-02
            2.932965850624616e-02 4.041579742586298e-02 1.992405787094130e-01 3.410002188161685e-01 9.727785266155889e-02 -1.397083329047177e-02 1.028436048447460e-01 -1.322065792647869e-02
978355000.0000000000 8.228290661592809e-02 -2.638977042269734e-02 7.767480511382323e-02 -2.273666058149942e-02 3.052778048891783e-01 2.516536764188148e-01 4.346278545889627e-02 2.687873495552837e-02
            7.765788064503160e-02 -2.278837192310579e-02 8.228684093238271e-02 -2.634955361280943e-02 4.352053002726276e-02 2.688206063793159e-02 3.053498260155654e-01 2.517292210296943e-01
            3.053046805377681e-01 2.516957957641195e-01 4.353606325811005e-02 2.693007780571924e-02 9.104760654301115e-02 -1.536273515341107e-02 8.562443192598385e-02 -1.610153599560095e-02
            4.355851667458855e-02 2.683240304548205e-02 3.053246903156381e-01 2.516607364410537e-01 8.565793805307155e-02 -1.618799817664389e-02 9.093948760106102e-02 -1.537480594190016e-02
979187500.0000000000 7.156344942386431e-02 -1.907643555085034e-02 6.707313908288949e-02 -1.583990081269191e-02 3.743550472947796e-01 1.302566355215818e-01 5.174051113649666e-02 7.930354681884362e-03
            6.711678286377337e-02 -1.579877198142071e-02 7.154031948520738e-02 -1.900142812080141e-02 5.177282721319144e-02 7.923360436404727e-03 3.742547050679835e-01 1.302481991822968e-01
            3.742547991687782e-01 1.302404453649350e-01 5.177028008269782e-02 7.920315545195528e-03 8.051597936048162e-02 -8.734368455909799e-03 7.539929882477124e-02 -9.847195110093002e-03
            5.177427098591515e-02 7.814720479985706e-03 3.743363221947942e-01 1.301974904062825e-01 7.535546718289396e-02 -9.902026594648693e-03 8.050957895357340e-02 -8.738274879139767e-03
980020000.0000000000 6.894245080216838e-02 -6.759934543247752e-03 6.406430523470551e-02 -3.875928423839277e-03 3.961841737209354e-01 -8.172705681447920e-03 5.147502532138928e-02 -1.356124055423884e-02
            6.416339414638743e-02 -3.955964405994395e-03 6.890837042759090e-02 -6.685980976575732e-03 5.147214189795300e-02 -1.361750502890775e-02 3.961824916204341e-01 -8.186094936656747e-03
            3.962656769078162e-01 -8.176315337412686e-03 5.147718725426799e-02 -1.359559472367069e-02 7.698893007717263e-02 3.847703366641876e-03 7.189649990897873e-02 2.128538011015670e-03
            5.150234483469784e-02 -1.355917607941000e-02 3.962455280192778e-01 -8.186383528141059e-03 7.180128258199631e-02 2.078057876244092e-03 7.699781268059089e-02 3.768780484580332e-03
980852500.0000000000 7.567386746333719e-02 3.728250880461704e-03 7.021167084402422e-02 6.590502296637431e-03 3.678061594015588e-01 -1.452610940940910e-01 4.194941887344338e-02 -3.317715875620213e-02
            7.021683719732739e-02 6.531141552200139e-03 7.574048582542328e-02 3.797755764689199e-03 4.194571893720641e-02 -3.314350353395670e-02 3.677478776169965e-01 -1.452415080527869e-01
            3.677961271830479e-01 -1.452526595256392e-01 4.189404868319378e-02 -3.321756957298923e-02 8.285483968774636e-02 1.640234884366761e-02 7.723375771031610e-02 1.407263337331632e-02
            4.192800452082603e-02 -3.313888501693838e-02 3.678036467698186e-01 -1.452713850952857e-01 7.721524986837167e-02 1.398460294437706e-02 8.295366678020594e-02 1.635622147114702e-02
981685000.0000000000 8.839741154158455e-02 6.314732126768827e-03 8.211475013463117e-02 9.551701979546232e-03 2.935878290772657e-01 -2.627697994428679e-01 2.546270627598397e-02 -4.668352490566403e-02
            8.210183401406929e-02 9.444802533840391e-03 8.843662322048418e-02 6.312799238467509e-03 2.548191018949339e-02 -4.664912411167493e-02 2.936498765336489e-01 -2.628432962356763e-01
            2.935958753292287e-01 -2.627869298466591e-01 2.547713021836173e-02 -4.668233005076428e-02 9.580597587007295e-02 2.284019496869193e-02 8.950235382037111e-02 2.012355129311665e-02
            2.543476937688212e-02 -4.665879103717203e-02 2.936107864035348e-01 -2.627846973671952e-01 8.951946012648297e-02 2.007624262231170e-02 9.580795280023759e-02 2.285654880686728e-02
982517500.0000000000 1.000653593230013e-01 -1.238462453492432e-03 9.346642195772756e-02 2.803633709324342e-03 1.843861126591014e-01 -3.466291428226804e-01 5.735472453767536e-03 -5.232593971266069e-02
            9.344568475438002e-02 2.747166093683505e-03 1.001741320379275e-01 -1.258750113586194e-03 5.675622658973729e-03 -5.227524637704060e-02 1.843587152790692e-01 -3.465990132422835e-01
            1.843294696028931e-01 -3.466197502802149e-01 5.657869925236425e-03 -5.240484425694530e-02 1.104867003724054e-01 2.041306273591467e-02 1.032169291645911e-01 1.756249840903547e-02
            5.652157147769803e-03 -5.231903032300143e-02 1.843652542822608e-01 -3.465778923509075e-01 1.032192697431839e-01 1.752168661232643e-02 1.104485820266850e-01 2.032355362168464e-02
983350000.0000000000 1.044675481358923e-01 -1.608043778519551e-02 9.791521620373449e-02 -1.105407279134722e-02 5.407529022817859e-02 -3.878860741464601e-01 -1.378707982464408e-02 -5.048848102230175e-02
            9.787616114782882e-02 -1.098330914905598e-02 1.044359867827676e-01 -1.600753508192964e-02 -1.380161086128894e-02 -5.047059323385637e-02 5.408831547981683e-02 -3.877625931815545e-01
            5.414733479127786e-02 -3.878847909710313e-01 -1.373673697434308e-02 -5.047134117275251e-02 1.212219958843438e-01 1.005272425997130e-02 1.130487791770743e-01 7.679216937073132e-03
            -1.379230184691626e-02 -5.043349724779842e-02 5.409004411548568e-02 -3.878784855690031e-01 1.130403645551144e-01 7.673592618786628e-03 1.212101242039662e-01 1.018824401594143e-02
984182500.0000000000 9.813984192963245e-02 -3.195868737524061e-02 9.194831838165629e-02 -2.603885005829334e-02 -8.191079974992325e-02 -3.826474729473843e-01 -3.107993500253037e-02 -4.243194174545091e-02
            9.200309038933079e-02 -2.600437098986198e-02 9.811814214664714e-02 -3.199052983345578e-02 -3.113026934931129e-02 -4.237416845347014e-02 -8.194094713750999e-02 -3.826165609270063e-01
            -8.194806262972149e-02 -3.826594512916324e-01 -3.108615372046046e-02 -4.247841283105123e-02 1.243821983401106e-01 -3.714884221308756e-03 1.157183940598484e-01 -5.521205505646494e-03
            -3.109957765261383e-02 -4.249045552573403e-02 -8.188309810239201e-02 -3.826503841336620e-01 1.156816614963147e-01 -5.463129815830744e-03 1.243315648312195e-01 -3.700424603640845e-03
985015000.0000000000 8.216583852679377e-02 -4.213268639179478e-02 7.692743661828375e-02 -3.560046340915752e-02 -2.084556535985994e-01 -3.317056247803891e-01 -4.502038842905678e-02 -2.916389322535776e-02
            7.691970955223733e-02 -3.559978564834678e-02 8.220149842548445e-02 -4.209288980907956e-02 -4.501123455237507e-02 -2.913816167794437e-02 -2.084335568547012e-01 -3.316599545756216e-01
            -2.084239253433857e-01 -3.316813664156107e-01 -4.509987511024474e-02 -2.922439108183624e-02 1.200347117191912e-01 -1.607510677944187e-02 1.111567397234176e-01 -1.710779267523968e-02
            -4.499515499341957e-02 -2.911196318134167e-02 -2.084456957443994e-01 -3.317223881121540e-01 1.111537841849588e-01 -1.709680543268283e-02 1.199492672978953e-01 -1.600989502412514e-02
985847500.0000000000 6.195791368106521e-02 -4.128146780010099e-02 5.757818459947332e-02 -3.490136268151003e-02 -3.106692055253504e-01 -2.401579710810048e-01 -5.419404518012330e-02 -1.120513279390764e-02
            5.761592221153558e-02 -3.494458246227580e-02 6.197564444944220e-02 -4.127374134529634e-02 -5.421084535549575e-02 -1.124730199464968e-02 -3.105780673387272e-01 -2.400966403471704e-01
            -3.105501005708699e-01 -2.400596756367594e-01 -5.428629730265071e-02 -1.125102069020027e-02 1.109987348743457e-01 -2.291252257475080e-02 1.023707878313489e-01 -2.335458200109422e-02
            -5.421274605913113e-02 -1.122406598065840e-02 -3.106360029181577e-01 -2.401571738932613e-01 1.022785479898718e-01 -2.333756713753352e-02 1.110803943213838e-01 -2.281879223590635e-02
986680000.0000000000 4.490138356936428e-02 -2.890275277483260e-02 4.124232189279278e-02 -2.304782669860882e-02 -3.752224037296696e-01 -1.179564086067997e-01 -5.652198017357546e-02 9.993865698624389e-03
            4.123705505862300e-02 -2.309065053519324e-02 4.485857608903610e-02 -2.884566365497504e-02 -5.654782831328677e-02 1.000605597870743e-02 -3.752236426710465e-01 -1.180016610268887e-01
            -3.752940135524888e-01 -1.179379643323764e-01 -5.646359338708710e-02 9.989937566396948e-03 1.020499377644178e-01 -2.328378888730921e-02 9.373274026185482e-02 -2.346688879310616e-02
            -5.649675584450999e-02 9.977216903949402e-03 -3.753006197398612e-01 -1.179320660219535e-01 9.367190690116919e-02 -2.347040646124825e-02 1.019524782052695e-01 -2.325925706919008e-02
987512500.0000000000 3.751350090908985e-02 -9.070617402422605e-03 3.410429908583967e-02 -4.007116611196828e-03 -3.932575574000029e-01 1.971316284543261e-02 -5.009900455165940e-02 3.174458396157898e-02
            3.401952899246977e-02 -3.924212943016110e-03 3.743880357666564e-02 -9.086362433387011e-03 -5.005687878224616e-02 3.172696965848336e-02 -3.932493165390881e-01 1.977425982031027e-02
            -3.932489369297502e-01 1.962490794697940e-02 -5.015993497206733e-02 3.168835394211678e-02 9.701658774134088e-02 -1.950418464115871e-02 8.911289897429261e-02 -1.973319267260436e-02
            -5.014129678079406e-02 3.167781770303153e-02 -3.932501577443990e-01 1.972067327293775e-02 8.912339456912595e-02 -1.976411971446244e-02 9.708169845247241e-02 -1.948836262311320e-02
988345000.0000000000 4.223040956881895e-02 1.067969756910762e-02 3.824211408182846e-02 1.523208513878586e-02 -3.616499703159164e-01 1.550555440105415e-01 -3.504385836871957e-02 4.966775887700805e-02
            3.827118334454393e-02 1.526492580070941e-02 4.215699505205055e-02 1.069571450067077e-02 -3.511005398493759e-02 4.960648272535827e-02 -3.616527241816727e-01 1.550398083100338e-01
            -3.616475217081533e-01 1.550973863929849e-01 -3.507689954074038e-02 4.966016328037976e-02 9.724385689317194e-02 -1.584806869664496e-02 8.936002374722254e-02 -1.644546460706697e-02
            -3.506484147429159e-02 4.968122346199746e-02 -3.616762408424425e-01 1.551250675780186e-01 8.935975158141310e-02 -1.642783758592413e-02 9.726628766254447e-02 -1.587316382677281e-02
989177500.0000000000 5.588596169737484e-02 2.336770817662545e-02 5.125184604486292e-02 2.769340977315920e-02 -2.849688645619500e-01 2.703712296154043e-01 -1.378159121121065e-02 6.035952621229505e-02
            5.122752470370484e-02 2.771118418497891e-02 5.588419008885501e-02 2.333189302928333e-02 -1.380787785556988e-02 6.030160951401364e-02 -2.848758442884035e-01 2.703254157181595e-01
            -2.849213824931331e-01 2.703657534039493e-01 -1.375292392840438e-02 6.031080796606452e-02 1.004200661112079e-01 -1.612986713051654e-02 9.232921534650337e-02 -1.696396849633530e-02
            -1.374882914423727e-02 6.031068635700267e-02 -2.849947010284069e-01 2.703467748853247e-01 9.230546345913615e-02 -1.698938240109383e-02 1.004756097569931e-01 -1.615045687189453e-02
990010000.0000000000 7.207612191844516e-02 2.561781547882901e-02 6.678629233262108e-02 3.026132885414061e-02 -1.735941039892401e-01 3.514909336100499e-01 9.847348910610274e-03 6.184073899542263e-02
            6.675078474910891e-02 3.022622030034400e-02 7.210041429517423e-02 2.560599008178241e-02 9.883497232822204e-03 6.191564232075395e-02 -1.735823533055229e-01 3.514898088768845e-01
            -1.737117027473563e-01 3.514831970060307e-01 9.915977789621054e-03 6.192276176977075e-02 1.023764113639611e-01 -2.121120146403778e-02 9.390901854944098e-02 -2.217419605594672e-02
            9.989748927592568e-03 6.191243518017371e-02 -1.736386050665152e-01 3.514194687512500e-01 9.389834421345424e-02 -2.219099340431654e-02 1.024099392235445e-01 -2.119914447801419e-02
990842500.0000000000 8.403781646475469e-02 1.894404269771739e-02 7.827302199662430e-02 2.436788977550023e-02 -4.172258482480833e-02 3.893770288452364e-01 3.235320885721731e-02 5.476760552641593e-02
            7.840979908976502e-02 2.435043413079146e-02 8.407524889042020e-02 1.898626974345217e-02 3.226271044548332e-02 5.471540670497858e-02 -4.172719483792665e-02 3.892987117413683e-01
            -4.179377683818718e-02 3.893332799329568e-01 3.232458781221249e-02 5.475582751883806e-02 9.941447304754782e-02 -2.902244559263386e-02 9.052401628801951e-02 -2.977123906885950e-02
            3.233342529458847e-02 5.468501616369084e-02 -4.170489390274088e-02 3.892728341269639e-01 9.051223341697624e-02 -2.972356854894595e-02 9.947427381533598e-02 -2.893820403616827e-02
991675000.0000000000 8.800225977394964e-02 8.662664373288343e-03 8.232459813353089e-02 1.495359649486211e-02 9.503224717151566e-02 3.798138941023206e-01 5.092670185664969e-02 4.017729877304652e-02
            8.229881002619392e-02 1.493373211326385e-02 8.796896443237039e-02 8.635004369026597e-03 5.087064064804336e-02 4.014727224638370e-02 9.498019553032259e-02 3.797582245332433e-01
            9.504646648952476e-02 3.798257979037085e-01 5.084990828815480e-02 4.014109988136573e-02 9.048465693918678e-02 -3.482278162679047e-02 8.134414576580370e-02 -3.517375181989336e-02
            5.087449048104180e-02 4.017230649241549e-02 9.502520420468669e-02 3.796896785288817e-01 8.128008661169657e-02 -3.524613484801604e-02 9.060185902487157e-02 -3.501512758028391e-02
992507500.0000000000 8.414860317955780e-02 6.333105635494930e-04 7.893332999188619e-02 7.638874641192773e-03 2.205331307417769e-01 3.238514031330989e-01 6.361980901498157e-02 1.951373514135486e-02
            7.890143343513177e-02 7.673832540520354e-03 8.413300149615402e-02 7.263390059718778e-04 6.368034070977832e-02 1.949185223466041e-02 2.205068241296251e-01 3.237907436054115e-01
            2.205373246146398e-01 3.238686653739811e-01 6.364940755546866e-02 1.953660676525924e-02 7.784225961754156e-02 -3.485508864864138e-02 6.866751660836291e-02 -3.470757254911617e-02
            6.365664942746149e-02 1.952504004173901e-02 2.205493691372529e-01 3.238271301617507e-01 6.869523185502151e-02 -3.477588587686201e-02 7.772161582550859e-02 -3.480660482930248e-02
993340000.0000000000 7.665462486323686e-02 -7.864087345327732e-04 7.197421907921092e-02 6.504983550561350e-03 3.193476329745827e-01 2.274830453704988e-01 6.852016389312073e-02 -5.283645043833235e-03
            7.199306807274067e-02 6.471747716694998e-03 7.656985498242659e-02 -6.648013330715180e-04 6.849415107980854e-02 -5.270552007314027e-03 3.192535810720224e-01 2.274610155764384e-01
            3.194236112243880e-01 2.274611672252415e-01 6.847111540336556e-02 -5.327345630694218e-03 6.608352600094722e-02 -2.703074969603797e-02 5.736208643798917e-02 -2.655989161211300e-02
            6.849600670012587e-02 -5.206546245682171e-03 3.193684724938246e-01 2.274532727505951e-01 5.733239202310190e-02 -2.652339418150061e-02 6.598449410759488e-02 -2.694797879445989e-02
994172500.0000000000 7.107642140934525e-02 4.923296111474574e-03 6.699185937028862e-02 1.194593564858593e-02 3.784562029201979e-01 1.021492786975496e-01 6.351681423602526e-02 -3.131869169679209e-02
            6.696214019413191e-02 1.193038652313900e-02 7.102878593119873e-02 4.837425340814740e-03 6.351105489813706e-02 -3.126630116564789e-02 3.784511503882230e-01 1.021137099739807e-01
            3.784946333328670e-01 1.021629946187511e-01 6.347969260412896e-02 -3.122298708923216e-02 6.045805290730798e-02 -1.327075794954446e-02 5.222120065011383e-02 -1.292346103060765e-02
            6.353270478877986e-02 -3.127551542204171e-02 3.784759382293850e-01 1.021954523323670e-01 5.225827138505830e-02 -1.288566413987954e-02 6.036682218418437e-02 -1.322718297949264e-02
995005000.0000000000 7.187064485743887e-02 1.382160997021173e-02 6.791279654407255e-02 2.064381238299168e-02 3.897375160098242e-01 -3.580291540121446e-02 4.829942913590556e-02 -5.422220101528472e-02
            6.784521393641924e-02 2.062995590789917e-02 7.184344215371057e-02 1.380090563846783e-02 4.826649164312642e-02 -5.424691233863999e-02 3.897171987429523e-01 -3.575004979870270e-02
            3.896700954794456e-01 -3.574398985395286e-02 4.829088345769589e-02 -5.421662915137099e-02 6.374778152156434e-02 1.303618093805838e-03 5.608106327962002e-02 1.184600435028553e-03
            4.825737566926863e-02 -5.418531968337383e-02 3.896826659602978e-01 -3.577149200205889e-02 5.606825952500603e-02 1.104461557789619e-03 6.370867251066367e-02 1.290046081603463e-03
995837500.0000000000 7.963599127504796e-02 2.046911844988538e-02 7.530108204490106e-02 2.714878080482720e-02 3.519078145288345e-01 -1.682801356953567e-01 2.480255416513813e-02 -6.951108032313424e-02
            7.539332386904035e-02 2.714413397443265e-02 7.960533393613320e-02 2.051463433002307e-02 2.487183590513885e-02 -6.963086576338835e-02 3.519600312449236e-01 -1.683761844963207e-01
            3.519707176684566e-01 -1.682669474114666e-01 2.482256705421821e-02 -6.954295822453652e-02 7.458408837954603e-02 1.085661388937238e-02 6.697144581036664e-02 9.786103332664921e-03
            2.486338151816505e-02 -6.959564744646951e-02 3.519421475598032e-01 -1.682241670391880e-01 6.703603926484467e-02 9.781537984809742e-03 7.462389798492372e-02 1.087811198156614e-02
996670000.0000000000 9.089624050677715e-02 2.059255583520355e-02 8.603210599772314e-02 2.759626987707499e-02 2.712163069701153e-01 -2.785595050415841e-01 -2.857639645031720e-03 -7.455359139267410e-02
            8.611417750849876e-02 2.756031603444454e-02 9.091711254754736e-02 2.057266921059289e-02 -2.786137993887898e-03 -7.457703602819479e-02 2.712361754264513e-01 -2.785288611898200e-01
            2.711767859255533e-01 -2.785472956328755e-01 -2.733535539849535e-03 -7.461121555915157e-02 8.809535429667625e-02 1.169852451306040e-02 8.028777239264397e-02 9.704544576287966e-03
            -2.777918302267491e-03 -7.458921905106931e-02 2.711360764186201e-01 -2.786194351005787e-01 8.023979674300873e-02 9.708917641212645e-03 8.813342820500193e-02 1.177171190468508e-02
997502500.0000000000 1.003159403865439e-01 1.332780748790290e-02 9.498163507792408e-02 2.109084027477889e-02 1.582961240171639e-01 -3.539263050300882e-01 -2.994475984934651e-02 -6.906478809262623e-02
            9.508150861714534e-02 2.115651938440725e-02 1.002483956831537e-01 1.336937705336711e-02 -2.990649493945400e-02 -6.913411408474433e-02 1.582604348533629e-01 -3.538919008788967e-01
            1.582320514720608e-01 -3.539320888323854e-01 -2.997333760511980e-02 -6.908971109420697e-02 9.834756221976759e-02 4.299189034715258e-03 8.964607292773998e-02 1.528074211541580e-03
            -2.992046641527258e-02 -6.913158493520648e-02 1.583472618397733e-01 -3.539545142506313e-01 8.966024407300559e-02 1.575259012179022e-03 9.843221702341498e-02 4.335993320864300e-03
998335000.0000000000 1.032579945321693e-01 1.523211163169438e-03 9.820505355778389e-02 1.045041638159063e-02 2.695952241583777e-02 -3.862561210649516e-01 -5.309637068503195e-02 -5.454301871879114e-02
            9.808619184108769e-02 1.042928677973247e-02 1.033537480913372e-01 1.711007902528341e-03 -5.311681527981808e-02 -5.454195326406307e-02 2.705745745373598e-02 -3.862078923432936e-01
            2.700506109156918e-02 -3.861110388845330e-01 -5.320986980291390e-02 -5.447789375280678e-02 1.011265574953587e-01 -7.282635558637805e-03 9.132729919382647e-02 -1.038478955332984e-02
            -5.311322896776079e-02 -5.448511540134960e-02 2.697371451502020e-02 -3.862596549730357e-01 9.128096681231254e-02 -1.027344120337311e-02 1.011171659999700e-01 -7.329720879853996e-03
999167500.0000000000 9.837177208680666e-02 -9.387329199911842e-03 9.396613348405412e-02 5.132823725249526e-04 -1.075824357333976e-01 -3.719981032002275e-01 -7.014323182471371e-02 -3.303948373080393e-02
            9.400349949409322e-02 4.647636325825672e-04 9.852037793656611e-02 -9.395292066656350e-03 -7.010530162637660e-02 -3.297516490053316e-02 -1.076453135746422e-01 -3.719748368778506e-01
            -1.075864152670321e-01 -3.720222034814005e-01 -7.006787291313764e-02 -3.302610330141563e-02 9.547602476665040e-02 -1.735026771799706e-02 8.456625729151783e-02 -2.027839830256797e-02
            -7.014791952427954e-02 -3.297433091987034e-02 -1.075353471637917e-01 -3.719168665299583e-01 8.449853924560390e-02 -2.019910575227814e-02 9.541330550452752e-02 -1.744051380795251e-02
1000000000.0000000000 8.796965368151610e-02 -1.451245900010469e-02 8.449986477345325e-02 -4.190458952011841e-03 -2.296385435178780e-01 -3.122931392003132e-01 -7.926000222624413e-02 -6.293022859849421e-03
            8.453855336177307e-02 -4.191616582144599e-03 8.800762094735033e-02 -1.461362973204204e-02 -7.928516783062890e-02 -6.264785886033673e-03 -2.296497858874677e-01 -3.122070469970874e-01
            -2.296085702487350e-01 -3.122453638400489e-01 -7.917772441063593e-02 -6.339765646864286e-03 8.434228622561890e-02 -2.095187675635587e-02 7.277361144109248e-02 -2.328260651068885e-02
            -7.918456865215011e-02 -6.361811205086989e-03 -2.296614544171801e-01 -3.121561628570810e-01 7.276010610337939e-02 -2.326347746499457e-02 8.436319770767503e-02 -2.098123158419381e-02
