! synthetic lab measurement T=125C
! synthetic measurement, noise -85.0 dB
# Hz S RI R 50
1000000.0000000000 8.014870861763566e-02 4.395412804627905e-02 2.772382081220220e-02 5.985215797635476e-02 8.549794319712510e-01 -3.905175691164432e-01 -9.088177421153429e-03 -1.061189779649034e-02
            2.766550042849146e-02 5.971008950887113e-02 8.017441923870100e-02 4.397684527856340e-02 -9.139178589905365e-03 -1.055855604326571e-02 8.549191865366884e-01 -3.905827302947173e-01
            8.548493291881396e-01 -3.905569637282040e-01 -9.104773761887206e-03 -1.068424660891253e-02 8.016638472147709e-02 4.403108274551538e-02 2.779279369445232e-02 5.970550384002631e-02
            -9.101796541071374e-03 -1.062807050096966e-02 8.549335775624817e-01 -3.905752370693574e-01 2.767076963162734e-02 5.977112626957279e-02 8.024660162037429e-02 4.400251898905146e-02
1832500.0000000000 1.285162424508651e-01 4.457409491849906e-02 7.701419025003216e-02 7.753304685532886e-02 6.564496453236677e-01 -6.487185104509572e-01 -2.033822801298246e-02 -6.294269799769863e-03
            7.694428249884482e-02 7.755929968526373e-02 1.285656936125714e-01 4.465047847919296e-02 -2.028809273025405e-02 -6.229318035985622e-03 6.564583871533909e-01 -6.486618676001974e-01
            6.565217157487965e-01 -6.486558732058584e-01 -2.037596191933174e-02 -6.231913418703638e-03 1.285512650596619e-01 4.469805168316606e-02 7.693409993261197e-02 7.762743311287874e-02
            -2.027235898460017e-02 -6.256123790961516e-03 6.563785419186656e-01 -6.486946047277101e-01 7.695590472264140e-02 7.760477076664203e-02 1.285597447885664e-01 4.477155014593619e-02
2665000.0000000000 1.646685031057861e-01 1.413637679001595e-02 1.240336895701399e-01 6.084063224795673e-02 3.922959234036619e-01 -8.207768257469227e-01 -2.328497029230640e-02 5.270783698436040e-03
            1.240326544964908e-01 6.077116542564514e-02 1.646885603909555e-01 1.415705515471620e-02 -2.335672965888432e-02 5.223262018577278e-03 3.922807319070052e-01 -8.207555795232994e-01
            3.923185586495280e-01 -8.207650682550049e-01 -2.329116900931339e-02 5.301337419084192e-03 1.646559404253303e-01 1.421433557323336e-02 1.239703972331633e-01 6.084489557168087e-02
            -2.335673073875308e-02 5.294168317449091e-03 3.922655857475986e-01 -8.207798501281860e-01 1.239850808656724e-01 6.079506549228764e-02 1.646789185730939e-01 1.426023559641887e-02
3497500.0000000000 1.733576622550619e-01 -3.295105525770569e-02 1.491227331904057e-01 1.960949498685997e-02 9.315899344139683e-02 -8.969059579387781e-01 -1.744086732910537e-02 1.373677883927450e-02
            1.491049719954511e-01 1.964066614566511e-02 1.732611664263241e-01 -3.292605422104021e-02 -1.745857241143503e-02 1.382271180957457e-02 9.320125692385899e-02 -8.968999270689971e-01
            9.311814473849696e-02 -8.969641140083759e-01 -1.740456752560703e-02 1.374933230719558e-02 1.732550252861564e-01 -3.277336503701882e-02 1.491504477170676e-01 1.964475512499458e-02
            -1.742541877470572e-02 1.378355410187648e-02 9.319674960670712e-02 -8.969060422664324e-01 1.491858299267371e-01 1.962654246178883e-02 1.732759271951549e-01 -3.277475606866167e-02
4330000.0000000000 1.501269209896270e-01 -7.681360317425506e-02 1.429556917626564e-01 -2.748716776124657e-02 -2.132111695671788e-01 -8.739477576725166e-01 -1.051431010394800e-02 1.405789187683856e-02
            1.429122753573777e-01 -2.751685453700582e-02 1.500775891324813e-01 -7.680900264165803e-02 -1.048082040214476e-02 1.406365052096101e-02 -2.131770019353031e-01 -8.738351699161417e-01
            -2.132184625768051e-01 -8.739534525247606e-01 -1.048893769312894e-02 1.396620357928832e-02 1.501803733587103e-01 -7.662149804628914e-02 1.429867500349390e-01 -2.754956970794939e-02
            -1.059557389271389e-02 1.402973720789735e-02 -2.131814687754182e-01 -8.738034606148904e-01 1.428773762471773e-01 -2.757169415345978e-02 1.501175777189121e-01 -7.667688306746130e-02
5162500.0000000000 1.026643683062069e-01 -9.841805770707346e-02 1.078107679350624e-01 -5.997201830768537e-02 -4.984602772508165e-01 -7.511403816636021e-01 -1.065166717297944e-02 1.070948073779949e-02
            1.077728405206149e-01 -6.003165105353817e-02 1.027433178092577e-01 -9.850423598022634e-02 -1.077217301401098e-02 1.068984114513635e-02 -4.984980730893010e-01 -7.511384405745587e-01
            -4.985509054015657e-01 -7.511994543763439e-01 -1.080695198352709e-02 1.074862844225018e-02 1.028220000699289e-01 -9.823870551643460e-02 1.077689736064023e-01 -5.995854913282043e-02
            -1.074828361542931e-02 1.071678130517915e-02 -4.985199424441598e-01 -7.511578673337271e-01 1.078661480427719e-01 -5.998883396193993e-02 1.028590390213402e-01 -9.827948628100909e-02
5995000.0000000000 4.949390678777602e-02 -8.546531205748586e-02 5.919423512566257e-02 -6.137575461455588e-02 -7.297361313079125e-01 -5.346528011970544e-01 -1.763623686667585e-02 1.399676140185263e-02
            5.914539919799537e-02 -6.137605310599555e-02 4.948252698747418e-02 -8.542899782253853e-02 -1.759193810254728e-02 1.395047233655138e-02 -7.297255950305453e-01 -5.346141194116926e-01
            -7.297421830919462e-01 -5.346562366833032e-01 -1.760298809622811e-02 1.395402885998807e-02 4.967406579875736e-02 -8.543703013465496e-02 5.917231286403062e-02 -6.145612115558984e-02
            -1.769091175635188e-02 1.400022958194972e-02 -7.297031610423025e-01 -5.347056672903500e-01 5.915557342733936e-02 -6.142988691170711e-02 4.970301072269719e-02 -8.531608791127125e-02
6827500.0000000000 1.559889280354468e-02 -4.010555327376778e-02 2.177856582185110e-02 -2.914279924444953e-02 -8.710745843461878e-01 -2.451648029032620e-01 -2.041368797610482e-02 2.889573468928497e-02
            2.178355456487670e-02 -2.913348656730193e-02 1.553864088551177e-02 -4.010157697788219e-02 -2.044351960331674e-02 2.889072817499620e-02 -8.711322817368807e-01 -2.451236707104368e-01
            -8.709986498960168e-01 -2.451424272147086e-01 -2.046780279849552e-02 2.886217409982604e-02 1.578885254994623e-02 -3.995037076892595e-02 2.186798528853970e-02 -2.915150868993608e-02
            -2.037543718547363e-02 2.881193154482031e-02 -8.710598752349046e-01 -2.450910395877401e-01 2.180305524654176e-02 -2.915768176281107e-02 1.583037745246733e-02 -3.999547615050739e-02
7660000.0000000000 1.949992400634987e-02 1.675746496043376e-02 1.663252253489016e-02 1.986008685335063e-02 -8.963326388822149e-01 7.653101109528097e-02 -7.995954663231501e-03 4.733815812583250e-02
            1.664845352545026e-02 1.985502780326370e-02 1.946304248533622e-02 1.669970516533039e-02 -8.020400279272179e-03 4.727437171188147e-02 -8.963831454192714e-01 7.658988338941343e-02
            -8.963721718388830e-01 7.661283876356066e-02 -8.149679424129338e-03 4.729680238770380e-02 1.958173656537205e-02 1.669472577963196e-02 1.668267091688337e-02 1.982071697800267e-02
            -8.088756433526259e-03 4.724927519954537e-02 -8.962889569133121e-01 7.657171913509389e-02 1.666917949668838e-02 1.992948095971878e-02 1.958989916518586e-02 1.671098779998090e-02
8492500.0000000000 5.869648145707566e-02 5.586493521995394e-02 4.550471626336857e-02 5.836404499911851e-02 -8.040550918293335e-01 3.801655818431196e-01 1.797516110096838e-02 5.415754702619083e-02
            4.549957096325347e-02 5.839293301093886e-02 5.872111693974968e-02 5.594735487285742e-02 1.801787283523906e-02 5.411564673994172e-02 -8.040503858600372e-01 3.800951886613916e-01
            -8.039880186938880e-01 3.801271475389217e-01 1.795545667272055e-02 5.418695092032580e-02 5.877040578097723e-02 5.590243907429136e-02 4.550311490336991e-02 5.830570416630226e-02
            1.798548677712372e-02 5.409163663445932e-02 -8.040259003800705e-01 3.800643148316796e-01 4.549913600097254e-02 5.834137298946108e-02 5.875514125458412e-02 5.594440135765519e-02
9325000.0000000000 1.116149586329610e-01 5.981345635282199e-02 9.084250659581350e-02 6.753572198563591e-02 -6.164071807841701e-01 6.245390485297507e-01 4.400230798563624e-02 4.279679332090726e-02
            9.092635339799202e-02 6.747848798955695e-02 1.116494304147441e-01 5.981404878285911e-02 4.388807806021872e-02 4.280002792916190e-02 -6.164628825364900e-01 6.245257581354238e-01
            -6.163791966826516e-01 6.245464756454447e-01 4.400660300089290e-02 4.285262270700971e-02 1.116402227995320e-01 5.972433813386642e-02 9.080597615949812e-02 6.754329467874681e-02
            4.405898955123204e-02 4.275731619255549e-02 -6.164055284774317e-01 6.245318496728872e-01 9.086743844258065e-02 6.756208687728511e-02 1.116746554619807e-01 5.978650263374043e-02
10157500.0000000000 1.528117728674178e-01 3.004166180243939e-02 1.299300946707034e-01 4.610308188639795e-02 -3.652247466298181e-01 7.873885326631753e-01 5.802845077373017e-02 2.016316457005831e-02
            1.299041857298441e-01 4.607969513977825e-02 1.527500906339839e-01 3.007474705232783e-02 5.802824975268450e-02 2.005789705764194e-02 -3.651747166688397e-01 7.874300869385918e-01
            -3.652924939320032e-01 7.874137032142502e-01 5.805982200028693e-02 2.016992791228239e-02 1.527855251057575e-01 3.006690107984260e-02 1.298900531181065e-01 4.607745104127869e-02
            5.798308693410088e-02 2.015871951866148e-02 -3.651668330736894e-01 7.874144566510967e-01 1.298438556583271e-01 4.607422499103570e-02 1.527564454614392e-01 3.011242416573321e-02
10990000.0000000000 1.653750525287507e-01 -1.760750959725660e-02 1.462995712843312e-01 5.835627501098535e-03 -7.969692452648855e-02 8.594080250657197e-01 5.867018567756527e-02 -2.132881549503239e-03
            1.463575961166152e-01 5.806183851437388e-03 1.654372911354494e-01 -1.759322301278756e-02 5.871716527281289e-02 -2.157172950614497e-03 -7.966202876514501e-02 8.593731572002905e-01
            -7.969512661132250e-02 8.594129547613198e-01 5.872571107743286e-02 -2.123298336942307e-03 1.654352091670366e-01 -1.759814188281554e-02 1.462505278358058e-01 5.735732739395288e-03
            5.874386335540836e-02 -2.166543852121349e-03 -7.974633275233546e-02 8.593813067710073e-01 1.463012062593238e-01 5.855413197025062e-03 1.653864466817419e-01 -1.761285214417371e-02
11822500.0000000000 1.452739334992115e-01 -6.243788403251841e-02 1.338089945602364e-01 -3.573155041167933e-02 2.138139332978676e-01 8.362753764313097e-01 5.345358457213666e-02 -1.775118914580577e-02
            1.338504097815984e-01 -3.579747402281770e-02 1.453816481123053e-01 -6.251608941734611e-02 5.338771082255495e-02 -1.774004801039470e-02 2.138763094681591e-01 8.363304564166666e-01
            2.138113379811246e-01 8.363169853859945e-01 5.342807977363149e-02 -1.781044826025589e-02 1.453173511143374e-01 -6.254444992743050e-02 1.338766099864331e-01 -3.573261386766968e-02
            5.349211803447253e-02 -1.776189801812988e-02 2.138942878218625e-01 8.363008059392674e-01 1.338855603983350e-01 -3.579714894943466e-02 1.452863100882733e-01 -6.249117618562663e-02
12655000.0000000000 1.005595074134115e-01 -8.494597032849263e-02 9.713168833937133e-02 -6.039951549649584e-02 4.875290173675815e-01 7.167676966408114e-01 4.956242735260485e-02 -2.990807879751359e-02
            9.715994832956602e-02 -6.042807751126766e-02 1.006064740806796e-01 -8.497815134679024e-02 4.958616135573748e-02 -2.979817646195694e-02 4.874749415269807e-01 7.167061531315949e-01
            4.874878730893811e-01 7.167076824378998e-01 4.961106848535504e-02 -2.982699576156738e-02 1.005069609640327e-01 -8.504480139855053e-02 9.711462117967869e-02 -6.039036380583682e-02
            4.961796400387693e-02 -2.987140766435186e-02 4.875017539181798e-01 7.166966453217766e-01 9.712591360352310e-02 -6.041482408261222e-02 1.004010403028963e-01 -8.498788780000188e-02
13487500.0000000000 5.050909576287081e-02 -7.296030510795856e-02 5.209231659512124e-02 -5.489515706484459e-02 7.085670028070093e-01 5.061763824393087e-01 4.658528123035216e-02 -4.615394082778512e-02
            5.209661989092629e-02 -5.479351037540820e-02 5.048201220926399e-02 -7.294200873085213e-02 4.660487690044086e-02 -4.609047119323937e-02 7.085183085729820e-01 5.062310099417313e-01
            7.085188069394306e-01 5.061892560064962e-01 4.656026689879849e-02 -4.614735992157170e-02 5.016843439804986e-02 -7.316478261205792e-02 5.207181309810879e-02 -5.485910346312602e-02
            4.663400080986199e-02 -4.614136706237969e-02 7.085221207071566e-01 5.062323108506450e-01 5.208574150149460e-02 -5.485171763492649e-02 5.011099323679774e-02 -7.308978423998361e-02
14320000.0000000000 1.995500362770989e-02 -2.989205214039713e-02 2.173520540419457e-02 -1.991993571944948e-02 8.416595125573552e-01 2.259605657777108e-01 3.503976703785019e-02 -6.897330080244780e-02
            2.171265502511611e-02 -1.977410854714125e-02 1.995442593691864e-02 -3.002887246083845e-02 3.502948849404573e-02 -6.894568352621035e-02 8.415782291505040e-01 2.258640030625400e-01
            8.415791514384526e-01 2.260317000691814e-01 3.497829145948456e-02 -6.892410909177527e-02 1.941003336290018e-02 -2.997839877428865e-02 2.164843496993174e-02 -1.976418343649087e-02
            3.505465111349373e-02 -6.895229965285633e-02 8.415446392981530e-01 2.259872506503542e-01 2.159993274095795e-02 -1.986663851511156e-02 1.929439280165916e-02 -2.997949683952727e-02
15152500.0000000000 2.597745045164768e-02 2.273950046645080e-02 2.332503183720126e-02 2.643207063553929e-02 8.624160697899687e-01 -8.374225190054699e-02 6.949362994090315e-03 -8.863606853961466e-02
            2.335339717308935e-02 2.647329322983584e-02 2.594705622215416e-02 2.265281464668414e-02 6.964090441386774e-03 -8.857576525286343e-02 8.624178124065773e-01 -8.373977534093792e-02
            8.624697779596134e-01 -8.370869735764602e-02 6.942368564565103e-03 -8.860704087118143e-02 2.514088347650449e-02 2.290120595239663e-02 2.318056504473889e-02 2.655350794033326e-02
            6.934616294776187e-03 -8.871655862393972e-02 8.624975151508976e-01 -8.374062338303903e-02 2.316142291223924e-02 2.662345023805963e-02 2.507143217436750e-02 2.295292456404839e-02
15985000.0000000000 6.480286241833541e-02 5.716600945965475e-02 5.510139458315858e-02 5.885254348048358e-02 7.710416243140278e-01 -3.744786005076009e-01 -3.286533531414852e-02 -9.106943997530328e-02
            5.523180002780904e-02 5.878607185321062e-02 6.489220573222752e-02 5.716076981404300e-02 -3.284193748537937e-02 -9.112731103162265e-02 7.710078569947131e-01 -3.745123005058679e-01
            7.710025225539040e-01 -3.745242456695110e-01 -3.288779941317703e-02 -9.103741250388611e-02 6.369302093703462e-02 5.785088618302149e-02 5.516408454868994e-02 5.894653424113813e-02
            -3.292003372226320e-02 -9.097390457342919e-02 7.709721337780865e-01 -3.745641682708920e-01 5.507980615392385e-02 5.894655043224588e-02 6.381802317893398e-02 5.775327860704812e-02
16817500.0000000000 1.150065492308992e-01 5.748594775599215e-02 9.877701088436910e-02 6.192041558860559e-02 5.890567981211547e-01 -6.082759643682637e-01 -6.949400071792086e-02 -7.185769743273250e-02
            9.875220539766412e-02 6.185856812205760e-02 1.149635739585068e-01 5.760648789118795e-02 -6.949078963574216e-02 -7.172635043205651e-02 5.889780590007843e-01 -6.082285055201464e-01
            5.890829132907952e-01 -6.082831954882956e-01 -6.955450245584478e-02 -7.184274760428011e-02 1.139990759363837e-01 5.863058524867264e-02 9.880871995421370e-02 6.203302605687473e-02
            -6.952449045860515e-02 -7.178179495283721e-02 5.890110523489795e-01 -6.083422886042356e-01 9.887841540644585e-02 6.204840687013383e-02 1.139397510408265e-01 5.861715488961319e-02
17650000.0000000000 1.522378799799417e-01 2.665117139047645e-02 1.329528172698090e-01 3.691180221168241e-02 3.460067841632521e-01 -7.641787695070151e-01 -9.099628788877659e-02 -3.918166439713817e-02
            1.329174265108611e-01 3.696538415429856e-02 1.522221336299887e-01 2.665796128136814e-02 -9.097621100036794e-02 -3.917760503878585e-02 3.460080385516803e-01 -7.641751040474971e-01
            3.460621277202640e-01 -7.642063187576280e-01 -9.099268478589009e-02 -3.911420599190489e-02 1.515744578161514e-01 2.827976294171902e-02 1.330907627106763e-01 3.704814039242661e-02
            -9.099896753720577e-02 -3.914678673445859e-02 3.460231210444666e-01 -7.642146740802801e-01 1.329979352358221e-01 3.705803627683518e-02 1.515929614672032e-01 2.836728401421656e-02
18482500.0000000000 1.614481019613673e-01 -1.985285128779958e-02 1.433954709887371e-01 -3.141722137197822e-03 6.953183622677610e-02 -8.326088147647216e-01 -9.632162948413994e-02 -5.206149531165432e-03
            1.433747066451015e-01 -3.119831462814703e-03 1.614994461661698e-01 -1.986950639626162e-02 -9.626202242573657e-02 -5.227144889602478e-03 6.950434429450106e-02 -8.325323687315996e-01
            6.955145054799358e-02 -8.326270944792430e-01 -9.625585231940377e-02 -5.228218425047217e-03 1.613571620025262e-01 -1.802441557549016e-02 1.435770429257664e-01 -3.119088453585197e-03
            -9.619900296637084e-02 -5.164014933503770e-03 6.952982405656499e-02 -8.325959368111751e-01 1.435499571633151e-01 -3.086758220906308e-03 1.613603751685383e-01 -1.797342214980108e-02
19315000.0000000000 1.393299586101523e-01 -6.193986300140705e-02 1.264032855338004e-01 -4.092211803320880e-02 -2.152188383427928e-01 -8.084911439974318e-01 -9.199652581251493e-02 2.353912815668283e-02
            1.263439889061221e-01 -4.097726278994254e-02 1.393041043450650e-01 -6.184250832397347e-02 -9.195989742484013e-02 2.355458225721348e-02 -2.152503524119641e-01 -8.084801176699374e-01
            -2.152581144781567e-01 -8.084083241000951e-01 -9.196158741849220e-02 2.359870126992692e-02 1.398220409927789e-01 -6.005139328471469e-02 1.265244220267634e-01 -4.096091771333513e-02
            -9.201805029463560e-02 2.352037350726279e-02 -2.152996879574740e-01 -8.084879503392581e-01 1.266434668503451e-01 -4.095036617783002e-02 1.398405767352148e-01 -6.011265888345350e-02
20147500.0000000000 9.482886957216839e-02 -8.064387959296411e-02 8.839447979688202e-02 -5.957571432957420e-02 -4.805335547282883e-01 -6.897356950863651e-01 -8.438172174721977e-02 4.920319968922545e-02
            8.835907295771313e-02 -5.958427233639229e-02 9.480398424610179e-02 -8.067306658141396e-02 -8.436237949529089e-02 4.924165374686312e-02 -4.804891833162426e-01 -6.898669420834735e-01
            -4.804086215187303e-01 -6.897242532618009e-01 -8.434616352910214e-02 4.919774619731531e-02 9.572190387404224e-02 -7.915342467825055e-02 8.844169179048335e-02 -5.968648103990710e-02
            -8.438885052811250e-02 4.924371329318145e-02 -4.804117006024319e-01 -6.897871980269936e-01 8.847201295976656e-02 -5.974445086051797e-02 9.582219790836637e-02 -7.915006088457734e-02
20980000.0000000000 4.749602853550421e-02 -6.579488144893997e-02 4.616765349138052e-02 -4.861566434746052e-02 -6.927703640413843e-01 -4.826026749902276e-01 -7.218488135056937e-02 7.730851243211741e-02
            4.613766458224899e-02 -4.857874378618036e-02 4.738872918393447e-02 -6.585332838113869e-02 -7.209413876420440e-02 7.732363057550530e-02 -6.927729081067111e-01 -4.825588923244968e-01
            -6.926901399192669e-01 -4.826081656743215e-01 -7.219371227178087e-02 7.737611457923163e-02 4.869697790340079e-02 -6.482190407449995e-02 4.629140391742195e-02 -4.873715800129767e-02
            -7.214142406493425e-02 7.736880982068517e-02 -6.927483627844198e-01 -4.825891781404690e-01 4.628378913278049e-02 -4.875462700420866e-02 4.868670199004888e-02 -6.476272578106486e-02
21812500.0000000000 2.122515712052679e-02 -2.259027529424445e-02 2.181510014633989e-02 -1.138068343594695e-02 -8.179023344669357e-01 -2.090374781191666e-01 -4.695198357443493e-02 1.071994892114695e-01
            2.190807417761110e-02 -1.129660028926562e-02 2.129518882545538e-02 -2.256502560474447e-02 -4.698961678166889e-02 1.071929089302310e-01 -8.180048946849374e-01 -2.089483714247216e-01
            -8.179543094047792e-01 -2.090125729798344e-01 -4.697909477830893e-02 1.071709939233246e-01 2.251681027543068e-02 -2.207518358893737e-02 2.187617225869892e-02 -1.150385116870473e-02
            -4.701451602464223e-02 1.072173354605475e-01 -8.179400287741326e-01 -2.089961931530090e-01 2.175049948102753e-02 -1.153686033316560e-02 2.254303776880696e-02 -2.209427891518300e-02
22645000.0000000000 3.080594198180305e-02 2.697855600244728e-02 2.918700501553129e-02 3.254646604702180e-02 -8.340332671674657e-01 9.063679062886577e-02 -4.043128062381634e-03 1.274915889394410e-01
            2.918865961971741e-02 3.256624659188630e-02 3.080377722680400e-02 2.693934298831894e-02 -4.155704606976516e-03 1.274729938339996e-01 -8.340277026269931e-01 9.064804472312384e-02
            -8.340726793737598e-01 9.065174180771314e-02 -4.128625140441133e-03 1.275602281161267e-01 3.170525989519178e-02 2.703887975403868e-02 2.907618725184039e-02 3.237452399320837e-02
            -4.137049842653232e-03 1.274912792273817e-01 -8.340120175327220e-01 9.070493149489187e-02 2.911989135709403e-02 3.239237595185211e-02 3.164702983712528e-02 2.709360633647084e-02
23477500.0000000000 7.009732513488601e-02 5.680416936236928e-02 6.353829466281453e-02 5.935653629328701e-02 -7.426953432021995e-01 3.703388879698393e-01 4.850993494387177e-02 1.252315110442530e-01
            6.339803310771254e-02 5.935733966017742e-02 7.005671829587977e-02 5.681003967065344e-02 4.847258189446584e-02 1.252566879778319e-01 -7.426596715464895e-01 3.702648571527882e-01
            -7.427083391309632e-01 3.702958849967055e-01 4.845274255386155e-02 1.252542315471900e-01 7.051944027593472e-02 5.676406245070059e-02 6.325349411143526e-02 5.937549648901793e-02
            4.846054129546384e-02 1.252627429475003e-01 -7.426803428774496e-01 3.703992473394992e-01 6.323729585981028e-02 5.937862711927871e-02 7.053089077387178e-02 5.678066915801507e-02
24310000.0000000000 1.174784904836417e-01 5.367516765920433e-02 1.053605309672423e-01 5.699518520080835e-02 -5.651684968475381e-01 5.948386562922403e-01 9.464091606762086e-02 9.815769803073715e-02
            1.054077117202930e-01 5.697952579313759e-02 1.174053519915347e-01 5.370115500671466e-02 9.463637529592871e-02 9.824941936507309e-02 -5.652066112523805e-01 5.947522944637551e-01
            -5.651633442285265e-01 5.947744898105981e-01 9.461966380283497e-02 9.825510495372861e-02 1.176793646689166e-01 5.375908171754206e-02 1.052929461216604e-01 5.710439928400721e-02
            9.469711544492235e-02 9.815533595358934e-02 -5.651337502202797e-01 5.947778850281955e-01 1.052771453749485e-01 5.707619374428254e-02 1.176809921485174e-01 5.379268733921562e-02
25142500.0000000000 1.506715008420892e-01 2.183213514819690e-02 1.351107115747519e-01 2.910674420705699e-02 -3.290177998749528e-01 7.443845994900549e-01 1.228839182508538e-01 5.598544824834423e-02
            1.351329101670274e-01 2.916503375734957e-02 1.505792933748162e-01 2.182268050153542e-02 1.228701683868974e-01 5.601728165972610e-02 -3.290102915253504e-01 7.443900065950930e-01
            -3.290037217192284e-01 7.444264748708125e-01 1.228910319631506e-01 5.602115166677705e-02 1.506812543497945e-01 2.210857625303576e-02 1.351331487119088e-01 2.921635520148489e-02
            1.229196660896318e-01 5.604478336448663e-02 -3.290662925621318e-01 7.443527244016085e-01 1.351659903753693e-01 2.919765910297239e-02 1.506744655988580e-01 2.204436687063259e-02
25975000.0000000000 1.558387346565341e-01 -2.301425354647288e-02 1.404053775646698e-01 -1.045843118322815e-02 -5.997577232042535e-02 8.093799037687900e-01 1.322454051227215e-01 1.104131776114057e-02
            1.404992059074945e-01 -1.051255336119324e-02 1.559131426888449e-01 -2.305644126312650e-02 1.322181078792923e-01 1.101376150946492e-02 -5.992864813536988e-02 8.094090648130002e-01
            -6.000699927154379e-02 8.094186064482642e-01 1.322320311130839e-01 1.101247785426222e-02 1.559660179331932e-01 -2.254800509268045e-02 1.404878891507908e-01 -1.045530781093177e-02
            1.322067432501400e-01 1.106805976604276e-02 -6.000302624160427e-02 8.094383549234700e-01 1.404410651528437e-01 -1.042239251181536e-02 1.559800327948904e-01 -2.254337090027744e-02
26807500.0000000000 1.316592280146970e-01 -6.119848364633679e-02 1.194825467492793e-01 -4.488255587819108e-02 2.174342802351540e-01 7.839599843961291e-01 1.286230244408492e-01 -3.025343247716470e-02
            1.194446376876756e-01 -4.486425228312236e-02 1.316403655166490e-01 -6.113179808367974e-02 1.286303187489985e-01 -3.029103738492487e-02 2.173868204969747e-01 7.838931584551159e-01
            2.174383012752295e-01 7.839211218626000e-01 1.286576024111772e-01 -3.028441975879289e-02 1.318585638430193e-01 -6.055293694523672e-02 1.195725378118350e-01 -4.481117261859569e-02
            1.286307741364381e-01 -3.019336041006043e-02 2.174333498214971e-01 7.838447135594723e-01 1.195374213895575e-01 -4.483856773121282e-02 1.318265987439709e-01 -6.063493240501039e-02
27640000.0000000000 8.765819167506182e-02 -7.526901672613430e-02 8.061205145654578e-02 -5.806543033653642e-02 4.749033575688646e-01 6.653433587571762e-01 1.171532539691983e-01 -6.886380840067798e-02
            8.068033366063121e-02 -5.802339691260398e-02 8.779243129130773e-02 -7.518742642984795e-02 1.171790610203914e-01 -6.899698301994861e-02 4.749152264719062e-01 6.652743459245150e-01
            4.749492359503430e-01 6.653211860707589e-01 1.171477243777374e-01 -6.889553346721156e-02 8.791857391031156e-02 -7.477351289156370e-02 8.062795086490399e-02 -5.810088218658116e-02
            1.171286756132276e-01 -6.892245984751882e-02 4.748924237541406e-01 6.654025431395922e-01 8.068536799447099e-02 -5.809101372899764e-02 8.792128296613512e-02 -7.479632033033844e-02
28472500.0000000000 4.407775846310630e-02 -5.660946419805355e-02 4.154671226325473e-02 -4.212810458835999e-02 6.789725468358497e-01 4.602815605122563e-01 9.558099659676193e-02 -1.081977389795174e-01
            4.148490663588841e-02 -4.211812906502430e-02 4.411672020107944e-02 -5.668876428070668e-02 9.564171449284338e-02 -1.082840852395393e-01 6.790120974354334e-01 4.603611949109176e-01
            6.789817526630773e-01 4.603629545400163e-01 9.559046691172357e-02 -1.082577015703715e-01 4.433827795008789e-02 -5.636387917235035e-02 4.141176087297250e-02 -4.216747682615823e-02
            9.561838238186003e-02 -1.081772591115021e-01 6.789475850607116e-01 4.604069520154121e-01 4.145316312145156e-02 -4.217982549441398e-02 4.429622723422817e-02 -5.634596191230468e-02
29305000.0000000000 2.361175074221769e-02 -1.299260638717673e-02 2.279898201364874e-02 -3.249179449029872e-03 7.963480241011162e-01 1.925319094619775e-01 5.699839056526565e-02 -1.444468906963095e-01
            2.292486173947772e-02 -3.351885252068155e-03 2.359513867723009e-02 -1.296939843951198e-02 5.700328557761977e-02 -1.444420631250953e-01 7.962903855757321e-01 1.925838823246652e-01
            7.963135218383055e-01 1.926271360163976e-01 5.702887530732425e-02 -1.444452348351440e-01 2.356337417944291e-02 -1.284707589190845e-02 2.280248192852879e-02 -3.366932772928683e-03
            5.703826710816109e-02 -1.443752059798109e-01 7.962344974298828e-01 1.925947330662214e-01 2.284912611586725e-02 -3.384956450880657e-03 2.360184314144338e-02 -1.277969522639721e-02
30137500.0000000000 3.753797863261182e-02 3.314506930303478e-02 3.545056649449799e-02 3.767005257118248e-02 8.074007812060162e-01 -9.768293401955978e-02 -1.124766529241104e-04 -1.647908165621520e-01
            3.549444734858277e-02 3.770403434287355e-02 3.756746565733522e-02 3.308241224060994e-02 -1.849821732976516e-04 -1.647939087433614e-01 8.073746635744751e-01 -9.768987617744243e-02
            8.073482248736316e-01 -9.769948629257412e-02 -1.886876176485557e-04 -1.648163858187957e-01 3.740685704564375e-02 3.332439538779167e-02 3.538438259298636e-02 3.777510960155091e-02
            -1.838016242870351e-04 -1.647796322368317e-01 8.073455760285277e-01 -9.769344793060888e-02 3.537120544326906e-02 3.780010766278264e-02 3.750148724178173e-02 3.334897907071790e-02
30970000.0000000000 7.799241099162715e-02 5.765848881441992e-02 7.158318761508485e-02 5.910940876518388e-02 7.156579666970616e-01 -3.666400448180107e-01 -6.483318933882898e-02 -1.574317183060759e-01
            7.160826099399395e-02 5.925888057684688e-02 7.798457902315277e-02 5.762363815971393e-02 -6.496778750351037e-02 -1.574021218651576e-01 7.157066476020006e-01 -3.666210881195496e-01
            7.157320689380338e-01 -3.666204664111911e-01 -6.479397198734968e-02 -1.574078744155064e-01 7.764954191908995e-02 5.803731995836096e-02 7.153360756884924e-02 5.925578927729369e-02
            -6.484479834006870e-02 -1.574093940045663e-01 7.157821622080425e-01 -3.666791597695353e-01 7.145682843095205e-02 5.920755742334451e-02 7.759209263699732e-02 5.798035214584432e-02
31802500.0000000000 1.230667510054523e-01 5.012538341018202e-02 1.115195918393690e-01 5.183193397873314e-02 5.423349361085349e-01 -5.819504071252903e-01 -1.198999557122954e-01 -1.224005326642337e-01
            1.114900047743543e-01 5.181980648817541e-02 1.231172811711442e-01 5.017496119664867e-02 -1.199381141029313e-01 -1.223779374835363e-01 5.424330917407267e-01 -5.819474864933389e-01
            5.423277952739737e-01 -5.819455513925830e-01 -1.198026814757701e-01 -1.224079379557026e-01 1.227958251723542e-01 5.067495158674909e-02 1.115103540844513e-01 5.195161635215991e-02
            -1.198660874461230e-01 -1.223993880252392e-01 5.423729914706725e-01 -5.819564298700363e-01 1.114968755765615e-01 5.191197405699626e-02 1.227549208762205e-01 5.061287316475006e-02
32635000.0000000000 1.522180196747270e-01 1.656880693201275e-02 1.367649233183106e-01 2.146774489930648e-02 3.126993965659187e-01 -7.253471967860240e-01 -1.540831109373124e-01 -7.077724250512046e-02
            1.367674495807210e-01 2.143515018944896e-02 1.522143359726101e-01 1.655752561938668e-02 -1.541048975199739e-01 -7.072021935103225e-02 3.127270075356816e-01 -7.254433369825756e-01
            3.126942733849000e-01 -7.254428575024268e-01 -1.540670908852573e-01 -7.079396744001114e-02 1.518202293767489e-01 1.705518901038980e-02 1.368977375341018e-01 2.142687113738600e-02
            -1.540782126345030e-01 -7.075752972753409e-02 3.127521274370912e-01 -7.254033409940889e-01 1.368717238073743e-01 2.144389190535928e-02 1.518726630283224e-01 1.708909288633662e-02
33467500.0000000000 1.537792837554098e-01 -2.720301976259410e-02 1.371336167705405e-01 -1.746920732467683e-02 5.088343542378360e-02 -7.870505640353482e-01 -1.666941477640235e-01 -1.505391447822352e-02
            1.372304845565993e-01 -1.745295584418316e-02 1.536881485425899e-01 -2.719479511607214e-02 -1.667633435515581e-01 -1.503436145558947e-02 5.087765961653155e-02 -7.870746182123122e-01
            5.076646327305159e-02 -7.870263810414719e-01 -1.667152562302590e-01 -1.506422016832844e-02 1.534322787936981e-01 -2.681702068973281e-02 1.372815153015115e-01 -1.767928591333283e-02
            -1.667185109001104e-01 -1.501778865692279e-02 5.084660120135216e-02 -7.870622145239398e-01 1.371891000678050e-01 -1.766298465656943e-02 1.534163460663850e-01 -2.681910078973288e-02
34300000.0000000000 1.271825990409613e-01 -6.222879313162530e-02 1.128008583867379e-01 -4.819784605857121e-02 -2.192608033438430e-01 -7.601075895040494e-01 -1.632002936198409e-01 3.816783210283958e-02
            1.127185819589362e-01 -4.825143796333163e-02 1.271978124294793e-01 -6.224077115557471e-02 -1.631855707581262e-01 3.815301093399933e-02 -2.192576206356848e-01 -7.600330300784599e-01
            -2.192313405731195e-01 -7.600952335747709e-01 -1.631880546104875e-01 3.806615865143143e-02 1.268487727407618e-01 -6.214536386572996e-02 1.126792977101984e-01 -4.853095847414942e-02
            -1.631967992143721e-01 3.818461170091933e-02 -2.192485790109824e-01 -7.601243967148132e-01 1.125765029130407e-01 -4.843933386390802e-02 1.268489374595833e-01 -6.220623514107852e-02
35132500.0000000000 8.383266837740579e-02 -7.228607803509081e-02 7.347621724128962e-02 -5.636286965451477e-02 -4.690738152732384e-01 -6.416856748522628e-01 -1.473990258432891e-01 8.882881555382124e-02
            7.344598020362592e-02 -5.637725929566074e-02 8.383961724737309e-02 -7.237026097054763e-02 -1.474211994954202e-01 8.888203189560305e-02 -4.691121226823878e-01 -6.416809079692219e-01
            -4.691208422533166e-01 -6.416480725066708e-01 -1.473748474367327e-01 8.886957630400953e-02 8.293752176052176e-02 -7.264631081493023e-02 7.301107556773222e-02 -5.658620561473141e-02
            -1.473980578332320e-01 8.889380035166594e-02 -4.692196643923802e-01 -6.417579641224234e-01 7.300430509635952e-02 -5.665371285477772e-02 8.284794087226169e-02 -7.264343587454684e-02
35965000.0000000000 4.360120949990458e-02 -5.112309287663090e-02 3.750464566838405e-02 -3.614329401713382e-02 -6.651421818675941e-01 -4.392772244973467e-01 -1.167032053070643e-01 1.382591997417381e-01
            3.743369152359068e-02 -3.617714250175054e-02 4.362278018582078e-02 -5.114173298150606e-02 -1.166597161138059e-01 1.382138049584203e-01 -6.652005111272933e-01 -4.392614525726879e-01
            -6.651855570761284e-01 -4.392661720862677e-01 -1.166061899840203e-01 1.382521998127708e-01 4.183355523014035e-02 -5.148013759490765e-02 3.685563126055420e-02 -3.616892698294220e-02
            -1.166497754538002e-01 1.381975619631338e-01 -6.651482608740517e-01 -4.392173533000431e-01 3.679174920636327e-02 -3.621219429882221e-02 4.181538968090443e-02 -5.147779649957137e-02
36797500.0000000000 2.783030279586992e-02 -8.140186309567187e-03 2.414991671991018e-02 3.473274863905638e-03 -7.751007526414536e-01 -1.774802481441024e-01 -6.538692099169741e-02 1.797784503021316e-01
            2.420306602779961e-02 3.562690308696785e-03 2.779987425510388e-02 -8.114248723954843e-03 -6.528405164066975e-02 1.797729855088100e-01 -7.751405964700107e-01 -1.774732894155339e-01
            -7.751173870762116e-01 -1.774867014088835e-01 -6.534597254286252e-02 1.797301136913549e-01 2.488748951441849e-02 -8.079235525930874e-03 2.332752982050140e-02 3.993367521494940e-03
            -6.538257603963722e-02 1.797084164913357e-01 -7.752189634217976e-01 -1.774032786568712e-01 2.332651343912160e-02 3.924310396539390e-03 2.488237289908288e-02 -8.034406051020206e-03
37630000.0000000000 4.505074686552761e-02 3.371476989536586e-02 4.108445992161362e-02 4.160772125154947e-02 -7.818132642670363e-01 1.036101057236145e-01 5.051536190979082e-03 1.997388368583631e-01
            4.112226226560790e-02 4.162805818129675e-02 4.510204534825545e-02 3.377962582067171e-02 4.989881647580488e-03 1.997977980970241e-01 -7.817970365010002e-01 1.037377350734604e-01
            -7.818786322135095e-01 1.035981867739908e-01 4.987626041231560e-03 1.997166479812104e-01 4.132986007595437e-02 3.515708689045737e-02 4.048087112290200e-02 4.258086170853789e-02
            4.935549731609552e-03 1.997594453941176e-01 -7.818624539361706e-01 1.037334426272054e-01 4.048550362768632e-02 4.252207457582011e-02 4.129701401272189e-02 3.514506068530876e-02
38462500.0000000000 8.498863089671639e-02 5.279767086073466e-02 7.813237846212236e-02 5.814458862234822e-02 -6.904510008018301e-01 3.626731621909826e-01 8.076277804215531e-02 1.876100395100947e-01
            7.816422976310847e-02 5.811490622796863e-02 8.494438686997398e-02 5.278151224563601e-02 8.077345803301869e-02 1.876007274193562e-01 -6.903861294913943e-01 3.627718528707196e-01
            -6.904052036271267e-01 3.626771110691204e-01 8.079563826240042e-02 1.875659325186377e-01 8.092921405756989e-02 5.581313482178218e-02 7.813921784759313e-02 5.951194344746433e-02
            8.072427590360697e-02 1.876060239746896e-01 -6.903480352446384e-01 3.627239107543643e-01 7.814186142033974e-02 5.946365046388359e-02 8.091511296946288e-02 5.588303696103075e-02
39295000.0000000000 1.262730208162547e-01 4.129832438146556e-02 1.157648967140703e-01 4.668549882147550e-02 -5.209055747292524e-01 5.697514641112149e-01 1.440918070512976e-01 1.452386782082671e-01
            1.157805371620886e-01 4.671194619937907e-02 1.263176255080521e-01 4.129324463506123e-02 1.441058046181158e-01 1.452792537787582e-01 -5.209172338090023e-01 5.698019442155046e-01
            -5.208930940129280e-01 5.698013380735248e-01 1.441828377958280e-01 1.452910515859981e-01 1.227067411305611e-01 4.609042727513798e-02 1.164398842129267e-01 4.802405708937136e-02
            1.441450697889777e-01 1.452300482885577e-01 -5.209556128222569e-01 5.698409457055957e-01 1.163390136403550e-01 4.801931901571235e-02 1.227850528992948e-01 4.602275901512146e-02
40127500.0000000000 1.499352549051650e-01 6.565408481624238e-03 1.367905283746292e-01 1.458555578596725e-02 -2.971457282937990e-01 7.077015037150250e-01 1.841712884188961e-01 8.476788401482928e-02
            1.367672982381790e-01 1.466929673961992e-02 1.499248482039681e-01 6.682042137932587e-03 1.841687163692679e-01 8.475091185671005e-02 -2.971446670289296e-01 7.076317944698298e-01
            -2.971406824605967e-01 7.076378138553920e-01 1.841483703313565e-01 8.467537750163628e-02 1.478389855027039e-01 1.284645639485672e-02 1.380546372978541e-01 1.557804404636513e-02
            1.842204694331424e-01 8.476971581931127e-02 -2.972648768900912e-01 7.076490202606747e-01 1.380261636566671e-01 1.559768164702269e-02 1.477928907582788e-01 1.286974716475229e-02
40960000.0000000000 1.461534883800260e-01 -3.504069143068437e-02 1.327491140622537e-01 -2.303976010870638e-02 -4.176296665172969e-02 7.659204004377470e-01 2.003118603210294e-01 1.862765859365958e-02
            1.327412802354329e-01 -2.305465798783078e-02 1.461732801019928e-01 -3.513711617179966e-02 2.003195415367590e-01 1.861252945418167e-02 -4.168431186791336e-02 7.658814309191990e-01
            -4.168940871903393e-02 7.658806274173330e-01 2.002103541233579e-01 1.860376547054019e-02 1.460010699218066e-01 -2.817904228271120e-02 1.343759352024129e-01 -2.280598936538105e-02
            2.003065767633528e-01 1.860387804329409e-02 -4.175455824487435e-02 7.658613687342282e-01 1.343751263609425e-01 -2.278284312185720e-02 1.460440371927312e-01 -2.822216238164508e-02
41792500.0000000000 1.164781629616821e-01 -6.538713459352362e-02 1.054394606342656e-01 -4.979262797634772e-02 2.215882234932176e-01 7.369502605920734e-01 1.968376078900713e-01 -4.632124902871951e-02
            1.054314262343223e-01 -4.983902359934315e-02 1.164548519267425e-01 -6.539629718943873e-02 1.968958741578499e-01 -4.636995135787168e-02 2.216182402257235e-01 7.369993008944854e-01
            2.215823029521082e-01 7.369709002092705e-01 1.968569299448443e-01 -4.635577484966926e-02 1.182205411545605e-01 -5.864936859704597e-02 1.070441394869923e-01 -5.033359736162552e-02
            1.968238030049513e-01 -4.633199467071106e-02 2.216664978114337e-01 7.369765465200161e-01 1.070234623899836e-01 -5.037531404934360e-02 1.182338669428657e-01 -5.870736556664088e-02
42625000.0000000000 7.309672575415400e-02 -6.964788294752886e-02 6.638477759716449e-02 -5.282115023238677e-02 4.640205707799228e-01 6.180845033631505e-01 1.765514905347108e-01 -1.091849515130960e-01
            6.639455477114792e-02 -5.284226863033013e-02 7.309903160125400e-02 -6.959391391650364e-02 1.765130669518591e-01 -1.090991835473020e-01 4.640765367424935e-01 6.181110691802116e-01
            4.640458193358900e-01 6.180991370590111e-01 1.765587037880196e-01 -1.091436183352229e-01 7.651946597126637e-02 -6.406752463740975e-02 6.747917818944543e-02 -5.393889449382282e-02
            1.765866479544463e-01 -1.091504225289570e-01 4.640843433443319e-01 6.181306550313208e-01 6.744346718873052e-02 -5.396603531728889e-02 7.660285496484269e-02 -6.412491356010450e-02
43457500.0000000000 3.660847810482684e-02 -4.378409157692505e-02 3.425495922688243e-02 -2.861165153398450e-02 6.515626403363912e-01 4.178424448590062e-01 1.363703879612990e-01 -1.681918261433942e-01
            3.426268109600836e-02 -2.853276642678962e-02 3.660274843900365e-02 -4.368838393772450e-02 1.364004859688651e-01 -1.682401206041785e-01 6.517171157478751e-01 4.177685918221928e-01
            6.516352577253209e-01 4.178286904309660e-01 1.364035227731447e-01 -1.682286489484517e-01 4.078979877343685e-02 -3.998479211141391e-02 3.460777622576470e-02 -3.003194387822783e-02
            1.364335464339016e-01 -1.681740466967247e-01 6.516353714648923e-01 4.178152269835523e-01 3.461864898599092e-02 -3.014164392804111e-02 4.079298288191480e-02 -3.999505578894047e-02
44290000.0000000000 2.641863056670965e-02 3.307478394091728e-04 2.670484561474725e-02 1.148649730857570e-02 7.537718377362965e-01 1.620004314861077e-01 7.216313646991861e-02 -2.145736455688933e-01
            2.669481823509092e-02 1.147142663167675e-02 2.637291650396954e-02 3.494276653717324e-04 7.219496121586791e-02 -2.144785683584833e-01 7.537856127378362e-01 1.620424647238274e-01
            7.537870225653109e-01 1.620976902149169e-01 7.211631077427744e-02 -2.145083143871543e-01 3.044158217511187e-02 2.317011719015839e-03 2.622896924165986e-02 1.012893515389943e-02
            7.228717964053284e-02 -2.144589507010313e-01 7.538782044647538e-01 1.620068973567434e-01 2.615912617205543e-02 1.009873916051458e-02 3.035050579678574e-02 2.387846910045414e-03
45122500.0000000000 4.806137358567018e-02 3.949536370692668e-02 4.805587233453208e-02 4.598448469234060e-02 7.559569990645432e-01 -1.096849889480928e-01 -1.111433151614686e-02 -2.334579638232760e-01
            4.806108421178320e-02 4.595598993013698e-02 4.801537560094186e-02 3.948486185182878e-02 -1.109342175319032e-02 -2.334577955442010e-01 7.560205669443398e-01 -1.097902221085020e-01
            7.559664157532163e-01 -1.097084315964234e-01 -1.107106448549259e-02 -2.334828132652582e-01 5.097873326527125e-02 4.043877022715005e-02 4.688126132813149e-02 4.517330482030017e-02
            -1.112455417373532e-02 -2.334732757014841e-01 7.559680332089389e-01 -1.097713301922500e-01 4.693088885706934e-02 4.515220886003573e-02 5.098350859459234e-02 4.041717246231358e-02
45955000.0000000000 8.908348015577633e-02 5.409634201868736e-02 8.604392349946019e-02 5.715934654022659e-02 6.647313960474304e-01 -3.585457508376620e-01 -9.741120171530150e-02 -2.160924260128075e-01
            8.602296224879646e-02 5.716924158169084e-02 8.905168933984357e-02 5.419994903515629e-02 -9.741798285708911e-02 -2.161213087312734e-01 6.647783718695374e-01 -3.585943935767932e-01
            6.646470571423682e-01 -3.585720040778846e-01 -9.738560749304027e-02 -2.161223493736606e-01 9.067062412415826e-02 5.487690026772004e-02 8.483816304318792e-02 5.721390994200209e-02
            -9.736361450228639e-02 -2.160593272623857e-01 6.647106821199775e-01 -3.585672750866548e-01 8.491751100878142e-02 5.720222160889823e-02 9.069708500859235e-02 5.491469878007495e-02
46787500.0000000000 1.284233364541096e-01 3.905955506816698e-02 1.210373650584887e-01 4.124263164466031e-02 4.993175503089283e-01 -5.571861075576306e-01 -1.683748517887347e-01 -1.664044434254328e-01
            1.210468137660720e-01 4.131021989431020e-02 1.284374834919795e-01 3.909617926273845e-02 -1.683187933261473e-01 -1.663439122211560e-01 4.993219200902194e-01 -5.571921665715399e-01
            4.993178956608096e-01 -5.571836720520857e-01 -1.683754027177214e-01 -1.663071499066358e-01 1.291179346504083e-01 4.039016660292096e-02 1.202404664306435e-01 4.194930207432895e-02
            -1.684063647475578e-01 -1.662541635989830e-01 4.993157123390875e-01 -5.571554366746092e-01 1.202211670755669e-01 4.199738902422014e-02 1.291712929219963e-01 4.032550772738346e-02
47620000.0000000000 1.485994965140925e-01 3.247485639272734e-03 1.374593505433161e-01 7.430813387970360e-03 2.815757500391231e-01 -6.892677317639816e-01 -2.136225366680135e-01 -9.701612087363966e-02
            1.375113405098768e-01 7.458418345617042e-03 1.486265827730827e-01 3.221289865319965e-03 -2.135780500868764e-01 -9.697976548562551e-02 2.816918684623939e-01 -6.893498161024040e-01
            2.815477105089969e-01 -6.892697479297440e-01 -2.136116051761676e-01 -9.697917839836845e-02 1.489860314234470e-01 5.565405842789190e-03 1.373699809550813e-01 8.434056357179424e-03
            -2.136664324716057e-01 -9.699817827710046e-02 2.816420500981510e-01 -6.892088032821402e-01 1.374141932474835e-01 8.456049901426076e-03 1.490000942668918e-01 5.487575295579097e-03
48452500.0000000000 1.416442070555511e-01 -3.696106953099686e-02 1.289689028437507e-01 -2.885145124039974e-02 3.282892313814828e-02 -7.440233229783432e-01 -2.324748140606054e-01 -2.083709860068127e-02
            1.289695844047765e-01 -2.884751284116021e-02 1.415614770876842e-01 -3.693080959572860e-02 -2.325894851903191e-01 -2.078882130647318e-02 3.281737346243806e-02 -7.440560044996335e-01
            3.284125168400498e-02 -7.441331206058851e-01 -2.325075485439494e-01 -2.074291077484215e-02 1.424190612770983e-01 -3.383739538098988e-02 1.295430761440232e-01 -2.814588405619199e-02
            -2.325915834505431e-01 -2.079464291938254e-02 3.287239862468028e-02 -7.441176761142115e-01 1.295422938548448e-01 -2.816823780041650e-02 1.423417793139742e-01 -3.385249577808453e-02
49285000.0000000000 1.101536143745673e-01 -6.378633625851649e-02 9.890418633118969e-02 -5.182439363240716e-02 -2.234799747945778e-01 -7.134025112072656e-01 -2.287378961939497e-01 5.549845272687652e-02
            9.884616608414061e-02 -5.178212645359074e-02 1.102791451672901e-01 -6.374621274932513e-02 -2.288434902341502e-01 5.555496504312522e-02 -2.234959355790641e-01 -7.133714642234862e-01
            -2.234407448182533e-01 -7.134775856692637e-01 -2.287292635030633e-01 5.548716568181785e-02 1.118584291963029e-01 -6.033173653721420e-02 9.987982273139037e-02 -5.165618671077108e-02
            -2.287219075916755e-01 5.549588945595513e-02 -2.234652379837545e-01 -7.134147991329277e-01 9.981577351093526e-02 -5.167852782828209e-02 1.119631814610516e-01 -6.033037082789816e-02
50117500.0000000000 6.788773480747572e-02 -6.393381815927447e-02 6.018413574458097e-02 -4.985401431731964e-02 -4.581703511906974e-01 -5.943843548824190e-01 -2.037239797942367e-01 1.295959721162105e-01
            6.016870999559663e-02 -4.983743365325598e-02 6.797221767065960e-02 -6.400369778105432e-02 -2.037578537207313e-01 1.296070861121619e-01 -4.581193193413954e-01 -5.944295801834243e-01
            -4.580761434026016e-01 -5.943814928006358e-01 -2.037041990417651e-01 1.295874311425202e-01 7.065467002469505e-02 -6.075560615310811e-02 6.110109389864517e-02 -5.045041705672126e-02
            -2.037373778150790e-01 1.296189539033623e-01 -4.581431675014706e-01 -5.944258670419003e-01 6.108569141647439e-02 -5.034666122930413e-02 7.065186671005962e-02 -6.068263088990457e-02
50950000.0000000000 3.548124347954220e-02 -3.569558904394187e-02 3.181665587500603e-02 -2.219755002673227e-02 -6.372929158694780e-01 -3.967102127212641e-01 -1.540803099155912e-01 1.974801804997725e-01
            3.171046261677202e-02 -2.231079333064700e-02 3.530690983172802e-02 -3.560350682174458e-02 -1.540104845318899e-01 1.974372557954500e-01 -6.372530213424095e-01 -3.967308195134816e-01
            -6.373524720893355e-01 -3.967380062135624e-01 -1.540624705997945e-01 1.974425478467592e-01 3.877159301414928e-02 -3.326757780868997e-02 3.218608833748034e-02 -2.318559933840777e-02
            -1.540425095136935e-01 1.974780685856823e-01 -6.372657999510237e-01 -3.966352905330039e-01 3.213591197062606e-02 -2.321937650256337e-02 3.863024244150576e-02 -3.327656179998605e-02
51782500.0000000000 3.007159055256349e-02 7.447688324619525e-03 2.931144297212013e-02 1.784327942678144e-02 -7.319500403223231e-01 -1.473459974843439e-01 -7.758913306079890e-02 2.477342921524751e-01
            2.937647711678487e-02 1.788926475535748e-02 3.012934817042106e-02 7.431209835818632e-03 -7.758306383955429e-02 2.477629085534240e-01 -7.319540365090983e-01 -1.474414980868119e-01
            -7.319919013030235e-01 -1.473573920697692e-01 -7.752945457689420e-02 2.477416870346774e-01 3.333708913430044e-02 8.911568050022035e-03 2.904935638499179e-02 1.676891891761784e-02
            -7.763153130416144e-02 2.476965433807989e-01 -7.320078417835013e-01 -1.473797376266356e-01 2.905496324012757e-02 1.673629519244316e-02 3.322128428908883e-02 8.777797165388236e-03
52615000.0000000000 5.474143726412050e-02 4.268574055121247e-02 5.424155497948484e-02 4.882195027794561e-02 -7.300937940379649e-01 1.149631950270990e-01 1.779887141155009e-02 2.653994296116972e-01
            5.429620555303193e-02 4.887495927519785e-02 5.466348636900595e-02 4.268218063503519e-02 1.780608597139232e-02 2.653611536622273e-01 -7.301795315649008e-01 1.149958611795403e-01
            -7.300755924304039e-01 1.149645052613111e-01 1.774842960586676e-02 2.653637823663766e-01 5.723117588860743e-02 4.334093333713815e-02 5.333070964713838e-02 4.822373165016139e-02
            1.771283960967854e-02 2.652861034556604e-01 -7.301032859102475e-01 1.149375850481362e-01 5.339008906408660e-02 4.819088795749778e-02 5.730937328487586e-02 4.331511419425022e-02
53447500.0000000000 9.535787838530992e-02 5.242066178800370e-02 9.258800008590801e-02 5.524900973188174e-02 -6.393332140848476e-01 3.539672391203805e-01 1.139076803302717e-01 2.428235780899629e-01
            9.256458776250413e-02 5.523083267097308e-02 9.533216906913221e-02 5.245806993652647e-02 1.138089493107836e-01 2.429021908559729e-01 -6.393841837679052e-01 3.538338069029259e-01
            -6.393652980489896e-01 3.538905604719687e-01 1.138148136279085e-01 2.428526857276518e-01 9.699875576645005e-02 5.306918346500254e-02 9.148416325809933e-02 5.534878434810748e-02
            1.138227859715405e-01 2.428937576837027e-01 -6.393363700060017e-01 3.539030265750769e-01 9.142282779940920e-02 5.534942449766447e-02 9.694886306923263e-02 5.305098222133996e-02
54280000.0000000000 1.314067423909840e-01 3.408790922286670e-02 1.247758302172184e-01 3.577802446425853e-02 -4.780521780004851e-01 5.443313817154818e-01 1.920605422557934e-01 1.860009141308100e-01
            1.247524894003145e-01 3.567764462511623e-02 1.315089042737778e-01 3.408907679723192e-02 1.919432123708508e-01 1.859414743981416e-01 -4.780959148210107e-01 5.443799618024077e-01
            -4.780215375962823e-01 5.443860926876269e-01 1.919571397793408e-01 1.859415403470448e-01 1.323352679235110e-01 3.530154912584321e-02 1.239580747050736e-01 3.647340475818998e-02
            1.919542948447705e-01 1.859202025874723e-01 -4.780899594072501e-01 5.444054180331979e-01 1.240796400414784e-01 3.645640796165055e-02 1.323832517245290e-01 3.526545476787449e-02
55112500.0000000000 1.473482304054404e-01 -2.362155721323096e-03 1.369461729229810e-01 7.882557969541415e-04 -2.661784120917398e-01 6.707936932577544e-01 2.422359484256664e-01 1.081584841828123e-01
            1.370205308541051e-01 8.175517987155248e-04 1.473319407621342e-01 -2.419647827636280e-03 2.421669361991336e-01 1.081839227160222e-01 -2.662976685133554e-01 6.707853220921337e-01
            -2.662605637202453e-01 6.707193747111054e-01 2.422203119135116e-01 1.082282695041341e-01 1.479809874583444e-01 -3.186953038764498e-04 1.370016744795123e-01 1.934491362356891e-03
            2.422061956378648e-01 1.081854330512182e-01 -2.662211789632167e-01 6.708172890753246e-01 1.369060207216220e-01 1.917493839849890e-03 1.479560189719301e-01 -2.751377292917407e-04
55945000.0000000000 1.365293989564130e-01 -4.051524903188322e-02 1.243610547436719e-01 -3.373461744597222e-02 -2.404830862311404e-02 7.220427556410879e-01 2.637032424346824e-01 2.206579836549007e-02
            1.243358348015613e-01 -3.373265761100998e-02 1.364853848139700e-01 -4.047557494827000e-02 2.637887944700056e-01 2.202962472346483e-02 -2.413897446093645e-02 7.221452351971095e-01
            -2.405554152090377e-02 7.220235063805084e-01 2.637930948508569e-01 2.211848798790727e-02 1.376000757217361e-01 -3.754463982213089e-02 1.250210301103925e-01 -3.278181527108764e-02
            2.637956728629164e-01 2.204023390751376e-02 -2.407246157162815e-02 7.220596770291400e-01 1.251001509672387e-01 -3.276946961304054e-02 1.376481287072009e-01 -3.754991195918230e-02
56777500.0000000000 1.033516262703423e-01 -6.327094496065969e-02 9.206636078076776e-02 -5.265941869392506e-02 2.249978644343110e-01 6.894873729717942e-01 2.593354614179243e-01 -6.517631293868766e-02
            9.204606242197590e-02 -5.268915731566832e-02 1.033335537604931e-01 -6.329642964901049e-02 2.592899815316811e-01 -6.521857839288046e-02 2.251505071925442e-01 6.894727419116323e-01
            2.250743098333556e-01 6.894521636944928e-01 2.593452494135248e-01 -6.516590276735307e-02 1.054989225843822e-01 -5.978772789858273e-02 9.335664358615690e-02 -5.232161560121102e-02
            2.593248614467759e-01 -6.526820069139670e-02 2.250837707609186e-01 6.895373696083388e-01 9.332219053781100e-02 -5.235319944278696e-02 1.055137161949335e-01 -5.979912368564408e-02
57610000.0000000000 6.224551903033221e-02 -5.901389259924732e-02 5.420863507832255e-02 -4.602453931504314e-02 4.516207468447663e-01 5.703386354098929e-01 2.291906440146374e-01 -1.501742660206925e-01
            5.427489670755193e-02 -4.603472544132786e-02 6.226861750777130e-02 -5.898284914468664e-02 2.291667305838678e-01 -1.500745764366780e-01 4.515537549078882e-01 5.704232994033339e-01
            4.516664408136719e-01 5.703165112412055e-01 2.292557231379089e-01 -1.501654937916336e-01 6.564742161466558e-02 -5.570414779488245e-02 5.563250253667138e-02 -4.656302171215115e-02
            2.292153141801542e-01 -1.500602107775846e-01 4.516337395423446e-01 5.703871268491991e-01 5.554318292351828e-02 -4.653357357406997e-02 6.564624241046277e-02 -5.571338878408508e-02
58442500.0000000000 3.364848118169873e-02 -2.819555133130060e-02 2.976435752138333e-02 -1.530716479561934e-02 6.222053279887264e-01 3.756050988112581e-01 1.701015392212447e-01 -2.261403245774039e-01
            2.980613415144693e-02 -1.535446663596662e-02 3.370896245658914e-02 -2.808632102151778e-02 1.701258980501848e-01 -2.260944769766904e-01 6.220794353674866e-01 3.755814996857555e-01
            6.221547944770741e-01 3.756322942636970e-01 1.700355115800573e-01 -2.261520593920568e-01 3.816738911958007e-02 -2.567115502294035e-02 3.090499979202100e-02 -1.649249467232764e-02
            1.700312488018150e-01 -2.261727418126759e-01 6.221683373690086e-01 3.755746983770162e-01 3.091831345765931e-02 -1.655369814517038e-02 3.820877526737105e-02 -2.576197898194174e-02
59275000.0000000000 3.303804400135986e-02 1.421640360653001e-02 3.237298618024729e-02 2.427356215546880e-02 7.093900901094309e-01 1.330877195789936e-01 8.176703097041879e-02 -2.797368550053577e-01
            3.233617071604537e-02 2.427571206219816e-02 3.305399695556821e-02 1.417976400114057e-02 8.177047440920564e-02 -2.796429229702282e-01 7.094400664529803e-01 1.331172521181202e-01
            7.094302038076170e-01 1.330407452108069e-01 8.172775142274134e-02 -2.796376869770270e-01 3.793679334652193e-02 1.521392605663479e-02 3.273198332269791e-02 2.248143952786514e-02
            8.170422800885711e-02 -2.796689425815638e-01 7.093364217840146e-01 1.331372293958225e-01 3.276013495509298e-02 2.244608820706031e-02 3.787912851112370e-02 1.520873171529123e-02
60107500.0000000000 6.034875330975913e-02 4.570759206672555e-02 6.052419382461892e-02 5.152249957130987e-02 7.040126449958852e-01 -1.195765753970203e-01 -2.498882692859982e-02 -2.956365638190219e-01
            6.052981451654418e-02 5.161299817610519e-02 6.031086787443463e-02 4.562122724626955e-02 -2.509482187889085e-02 -2.955353887171678e-01 7.038890601923460e-01 -1.195910501124341e-01
            7.038667626391127e-01 -1.195934468851837e-01 -2.503686522524656e-02 -2.955794694959891e-01 6.481383045750191e-02 4.521479049119163e-02 5.990575251562580e-02 4.984609129121097e-02
            -2.500835756053088e-02 -2.955445016060586e-01 7.038830568804048e-01 -1.196666967213081e-01 5.997751541706033e-02 4.989147213472810e-02 6.489363286536130e-02 4.525275027603702e-02
60940000.0000000000 1.001669939370718e-01 5.127837820033857e-02 9.870830224047521e-02 5.333581786651927e-02 6.139582336488557e-01 -3.486420653645306e-01 -1.301834482584208e-01 -2.679701172555057e-01
            9.875670615231193e-02 5.345937848670450e-02 1.001642791834977e-01 5.130500035797149e-02 -1.302486789345022e-01 -2.679908719892592e-01 6.139024755348017e-01 -3.486658392663397e-01
            6.139236628545908e-01 -3.486274106664110e-01 -1.302204585553350e-01 -2.679646605302161e-01 1.040187705862773e-01 4.986736196370623e-02 9.753665651635472e-02 5.215904267375437e-02
            -1.301362104511133e-01 -2.680081182536901e-01 6.139639353583894e-01 -3.486256579595230e-01 9.760251846199793e-02 5.212431582032872e-02 1.040028990656872e-01 4.986031779304802e-02
61772500.0000000000 1.332418110129395e-01 3.056627730212172e-02 1.282838350769550e-01 3.079807484068071e-02 4.568088399255454e-01 -5.310327239817653e-01 -2.150132013961210e-01 -2.042371457594306e-01
            1.281989739512301e-01 3.071824318407603e-02 1.332621928981205e-01 3.064938319140280e-02 -2.150030378459820e-01 -2.042622900852120e-01 4.568427514340511e-01 -5.310056915649065e-01
            4.567952334009232e-01 -5.310471269544295e-01 -2.149251922852071e-01 -2.042734514187740e-01 1.359818316865024e-01 2.839504047942937e-02 1.267084004070494e-01 3.004424083529776e-02
            -2.150018807367694e-01 -2.042561478330775e-01 4.568213846874402e-01 -5.310512764386435e-01 1.268120714521118e-01 3.004869194648804e-02 1.359632504130408e-01 2.832344933044409e-02
62605000.0000000000 1.452192881867789e-01 -5.517054979990059e-03 1.364456947220204e-01 -4.846488682447337e-03 2.509232354308338e-01 -6.518676469451704e-01 -2.700256427476694e-01 -1.183600119438025e-01
            1.364863966254035e-01 -4.811835719518240e-03 1.452932489216069e-01 -5.456918560642550e-03 -2.699696664319980e-01 -1.182843035284258e-01 2.508987921906885e-01 -6.518981043413765e-01
            2.509336023981512e-01 -6.519186588234216e-01 -2.699718380887870e-01 -1.183148936947453e-01 1.468385858648274e-01 -8.040352889582795e-03 1.349540412519918e-01 -5.029549401761581e-03
            -2.699128179383649e-01 -1.182629254345111e-01 2.508885302017554e-01 -6.518924134003474e-01 1.349216038953213e-01 -4.981563052544607e-03 1.467422262395673e-01 -8.061424506348272e-03
63437500.0000000000 1.315641271277578e-01 -4.073574306648375e-02 1.204174370654616e-01 -3.750304794767958e-02 1.548934879051084e-02 -6.996366576258110e-01 -2.938548175243929e-01 -2.256311189474474e-02
            1.204086546102057e-01 -3.752688817121931e-02 1.315318573587523e-01 -4.077198226477623e-02 -2.938149501426804e-01 -2.248290537303807e-02 1.540376233975357e-02 -6.996596295940128e-01
            1.550822206518706e-02 -6.995818933527761e-01 -2.937613101705630e-01 -2.259954252949040e-02 1.319981413803174e-01 -4.333392992623109e-02 1.190573372575842e-01 -3.742868854093420e-02
            -2.938352242544844e-01 -2.252219977064221e-02 1.540062493675306e-02 -6.995711672649825e-01 1.189852973976154e-01 -3.742406529499732e-02 1.319672643725537e-01 -4.331374506221460e-02
64270000.0000000000 9.813901949176183e-02 -5.913436022260009e-02 8.676715115779951e-02 -5.273083358866062e-02 -2.263295737551722e-01 -6.649684037109987e-01 -2.884593785944491e-01 7.553752769330539e-02
            8.671172851276152e-02 -5.266810767749377e-02 9.807473843168270e-02 -5.900819041834673e-02 -2.885034119541239e-01 7.547001241466426e-02 -2.263365647965372e-01 -6.649498636648309e-01
            -2.263925401314034e-01 -6.648880022215933e-01 -2.884623922321050e-01 7.541396817994986e-02 9.729041431212633e-02 -6.144029217257352e-02 8.538645125523885e-02 -5.233800686001980e-02
            -2.884954263619341e-01 7.550240733157540e-02 -2.263783308741208e-01 -6.649105631456189e-01 8.544159225774274e-02 -5.240982370784806e-02 9.734561769943754e-02 -6.145453083959972e-02
65102500.0000000000 6.008447346796956e-02 -5.074382552694445e-02 5.056512709459771e-02 -4.199882096242112e-02 -4.444998934115785e-01 -5.459404965364048e-01 -2.530892300118281e-01 1.707802247306252e-01
            5.057793989369922e-02 -4.201351919944380e-02 6.012208522907415e-02 -5.075751623259165e-02 -2.530256517119938e-01 1.707744643361964e-01 -4.444648789832726e-01 -5.458391502644430e-01
            -4.444389229789560e-01 -5.458759733565430e-01 -2.530030698100935e-01 1.707924938604793e-01 5.804267873499761e-02 -5.250056374967295e-02 4.919309520165951e-02 -4.150685990676915e-02
            -2.530072625810164e-01 1.707891738916731e-01 -4.445060724720952e-01 -5.457809099988856e-01 4.917592695057169e-02 -4.139457217119603e-02 5.811967770013317e-02 -5.260960087714307e-02
65935000.0000000000 3.700601823437309e-02 -1.839334385346145e-02 3.037199181157885e-02 -9.425689121088009e-03 -6.060711889346483e-01 -3.543609991674861e-01 -1.843845971903345e-01 2.542601579409557e-01
            3.042551602418459e-02 -9.396786238714738e-03 3.706235921417383e-02 -1.835722103316263e-02 -1.844643277319941e-01 2.542552149630430e-01 -6.061008413925522e-01 -3.543620493725125e-01
            -6.060994604106429e-01 -3.544279186016410e-01 -1.844109673499047e-01 2.542952429698694e-01 3.388538782779656e-02 -1.942017837964119e-02 2.893884041028578e-02 -8.424004382250865e-03
            -1.843385759600452e-01 2.542502307937174e-01 -6.059944817108377e-01 -3.544123244572088e-01 2.888485638726636e-02 -8.448513533805366e-03 3.393105562360391e-02 -1.940005698590491e-02
66767500.0000000000 4.187425578040616e-02 2.121417130724492e-02 3.729146794676166e-02 2.827515035808141e-02 -6.859615942530141e-01 -1.192221911509425e-01 -8.453680662844115e-02 3.103593077169619e-01
            3.727952872975238e-02 2.827992734864728e-02 4.190095783931368e-02 2.127157310717096e-02 -8.449526483881716e-02 3.104396267676612e-01 -6.859689164836861e-01 -1.192069780917620e-01
            -6.859685707914402e-01 -1.192628986944912e-01 -8.451654966042600e-02 3.103626295157946e-01 3.787320509639200e-02 2.148779898558548e-02 3.616244675869373e-02 2.990522287248909e-02
            -8.447633086543674e-02 3.103608627214533e-01 -6.859583386349579e-01 -1.192288835225697e-01 3.607051278683499e-02 2.988096827001543e-02 3.791080139453014e-02 2.156071675393335e-02
67600000.0000000000 7.184072526370275e-02 4.707647350166290e-02 6.749443611677246e-02 5.119120037150026e-02 -6.770197224072203e-01 1.235765612262024e-01 3.298688310985356e-02 3.242432717075006e-01
            6.748046517089784e-02 5.119020305381684e-02 7.175429756935189e-02 4.709826318565951e-02 3.293678606304409e-02 3.240724054681739e-01 -6.770756698392668e-01 1.235712002396487e-01
            -6.770690196665011e-01 1.235679471142389e-01 3.302006983733888e-02 3.241699144371141e-01 6.750176269173815e-02 4.897874242878936e-02 6.679507137514744e-02 5.338615848338436e-02
            3.299848763836460e-02 3.241180675559043e-01 -6.770538313267385e-01 1.235456315714445e-01 6.681510063553907e-02 5.337653030210546e-02 6.744600975421616e-02 4.901545674490548e-02
68432500.0000000000 1.104835424887682e-01 4.684790393779052e-02 1.041433830764891e-01 4.854993862440585e-02 -5.882384260544299e-01 3.425916261982310e-01 1.465328643261165e-01 2.915302102333034e-01
            1.040802102675545e-01 4.845546288287855e-02 1.104948374188759e-01 4.697304574660272e-02 1.465436449021728e-01 2.915005377822305e-01 -5.882276003631491e-01 3.426410947164122e-01
            -5.881776461036180e-01 3.426725186416679e-01 1.465501713943376e-01 2.914669653914674e-01 1.063236469963647e-01 5.042481071765463e-02 1.045846765863234e-01 5.088362209922288e-02
            1.465966065279391e-01 2.914745280063994e-01 -5.881851527809898e-01 3.426782874322384e-01 1.044963028872237e-01 5.084526414667564e-02 1.064173712464449e-01 5.046476083758606e-02
69265000.0000000000 1.393700169397078e-01 2.243359422616313e-02 1.295366220087795e-01 2.332162926078743e-02 -4.354713046232228e-01 5.170907169793647e-01 2.376451355869704e-01 2.211081447549309e-01
            1.295943360587278e-01 2.334202815934655e-02 1.394176417428164e-01 2.239651235402238e-02 2.376274897761219e-01 2.209634918595692e-01 -4.354586685920702e-01 5.169929826818260e-01
            -4.354788581059049e-01 5.170022384711497e-01 2.375724602355490e-01 2.210547515997764e-01 1.361245027953374e-01 2.729301155723556e-02 1.310356135059063e-01 2.524653043168750e-02
            2.375860385921875e-01 2.210925144066481e-01 -4.354436760550320e-01 5.170254269326807e-01 1.310410692950909e-01 2.517995897390458e-02 1.361300326946399e-01 2.729819675324189e-02
70097500.0000000000 1.462139907888148e-01 -1.441138471392599e-02 1.330932729427981e-01 -1.189875827216587e-02 -2.357175137589608e-01 6.322927738105201e-01 2.967658500892501e-01 1.271119100061747e-01
            1.331003952598690e-01 -1.200316753128042e-02 1.461829588362868e-01 -1.453686222965015e-02 2.967201852231713e-01 1.270876217395856e-01 -2.357056977946616e-01 6.321898074553012e-01
            -2.356804256400231e-01 6.322399216018256e-01 2.967871219307303e-01 1.272101384462486e-01 1.441325215218264e-01 -8.691763549005279e-03 1.352814059923773e-01 -1.090278891879299e-02
            2.967859445051610e-01 1.271147926999041e-01 -2.357469176213496e-01 6.322574766475684e-01 1.352798567492922e-01 -1.092013527599749e-02 1.441586972228915e-01 -8.704064764534539e-03
70930000.0000000000 1.280693607690667e-01 -4.743469567832788e-02 1.133891456957281e-01 -4.145675913317046e-02 -7.157550740161429e-03 6.763257324889813e-01 3.226117280015915e-01 2.206210641318082e-02
            1.133882479447707e-01 -4.132582568877827e-02 1.280395216745894e-01 -4.742487238175978e-02 3.226971656339295e-01 2.198697999151644e-02 -7.122004138349047e-03 6.763074089478845e-01
            -7.158612008169180e-03 6.762464249099975e-01 3.226829392167918e-01 2.203415704233013e-02 1.274588116920161e-01 -4.152376892164842e-02 1.156184481175484e-01 -4.173533662796669e-02
            3.226673455840586e-01 2.201679393127058e-02 -7.174574091077387e-03 6.762890578279918e-01 1.156185131425328e-01 -4.166112305555674e-02 1.275169848673694e-01 -4.156336782781640e-02
71762500.0000000000 9.246008456334850e-02 -6.143281190732201e-02 7.869581244854444e-02 -5.144784239879802e-02 2.268824600008756e-01 6.396591513656424e-01 3.160778488609573e-01 -8.631674013708202e-02
            7.866367155048910e-02 -5.154624125055401e-02 9.240879338885424e-02 -6.139204552269237e-02 3.160766531895990e-01 -8.626587548510850e-02 2.269043092282989e-01 6.397259471785612e-01
            2.268102311410040e-01 6.396434068845419e-01 3.160735640916475e-01 -8.622957807050856e-02 9.290431603038998e-02 -5.610054083196206e-02 8.016497577646396e-02 -5.289700038798717e-02
            3.160893957035090e-01 -8.627937741649218e-02 2.268668362627294e-01 6.397337381065115e-01 8.012581125423333e-02 -5.289321312759297e-02 9.288438048326336e-02 -5.611211672497295e-02
72595000.0000000000 5.558955787109400e-02 -4.836276682644947e-02 4.492733765859338e-02 -3.601705262716021e-02 4.363671445921931e-01 5.209583876770952e-01 2.750761824279692e-01 -1.913006526331068e-01
            4.493225414010748e-02 -3.599951765251363e-02 5.569637974395123e-02 -4.826204071222460e-02 2.751059689847282e-01 -1.912978797678537e-01 4.362792186190962e-01 5.209415989272895e-01
            4.363291957131673e-01 5.209230422716024e-01 2.751187199716759e-01 -1.912801512948392e-01 5.636222860487313e-02 -4.399668841478638e-02 4.499062159090283e-02 -3.802107601706602e-02
            2.751232308295227e-01 -1.912855293899490e-01 4.363347211424911e-01 5.209684307939411e-01 4.513810681569898e-02 -3.801699015470270e-02 5.638460979063321e-02 -4.409187511454701e-02
73427500.0000000000 3.661961417635051e-02 -1.350642032442055e-02 2.994612942858954e-02 -1.254372159273386e-03 5.889327096074980e-01 3.333574012765511e-01 1.970722475022473e-01 -2.814683006371555e-01
            2.993263269805304e-02 -1.226334388343345e-03 3.669170625884365e-02 -1.349823481685385e-02 1.970978616925589e-01 -2.815249833566456e-01 5.889275893796463e-01 3.333501540831815e-01
            5.888694808445425e-01 3.333568104770623e-01 1.970961215291900e-01 -2.815406943697725e-01 3.669106809488806e-02 -1.003997600086706e-02 2.852415122913169e-02 -2.817692441376148e-03
            1.970616477805866e-01 -2.814528628550513e-01 5.889335274378928e-01 3.333536107644369e-01 2.853124819362966e-02 -2.826360476959847e-03 3.672416151991863e-02 -1.002855235257869e-02
74260000.0000000000 4.609048090078020e-02 2.511967442339259e-02 4.235007839934540e-02 3.462925757440459e-02 6.618332948577934e-01 1.058242558533032e-01 8.613102179479813e-02 -3.396202533692715e-01
            4.231436428283929e-02 3.461778558838439e-02 4.609644010618690e-02 2.506134363345826e-02 8.616215797974641e-02 -3.396263336649604e-01 6.617904449886355e-01 1.058569756267489e-01
            6.617435087934586e-01 1.058595298296209e-01 8.619768751446695e-02 -3.396452988057126e-01 4.495907540871391e-02 2.846949941441506e-02 3.983836732646890e-02 3.452245342210599e-02
            8.611864070703627e-02 -3.396653205184332e-01 6.617890423331246e-01 1.058510992575494e-01 3.987026232986908e-02 3.452220103297498e-02 4.496970426401094e-02 2.841831604355641e-02
75092500.0000000000 7.834394666292153e-02 4.717317751419065e-02 7.517453459937312e-02 5.268141451720465e-02 6.498245699737742e-01 -1.267452702555472e-01 -4.134468698504966e-02 -3.509835344642350e-01
            7.518453942639851e-02 5.268978309522869e-02 7.831255266045742e-02 4.730622468215580e-02 -4.139825454458829e-02 -3.509705030519384e-01 6.497023351812161e-01 -1.268170297635443e-01
            6.497753352117863e-01 -1.268181948164876e-01 -4.139811994490807e-02 -3.509925685244826e-01 7.609105457745395e-02 5.151898052714590e-02 7.285705967526272e-02 5.445312200196154e-02
            -4.133692816979963e-02 -3.510559497544227e-01 6.497831360723497e-01 -1.267724770909538e-01 7.278061058025534e-02 5.444740356459481e-02 7.612497739205897e-02 5.152997807345373e-02
75925000.0000000000 1.164663125296363e-01 4.284846749236867e-02 1.109045814017300e-01 4.471308263553513e-02 5.622244625857987e-01 -3.358501119413307e-01 -1.628197322780180e-01 -3.132836757665128e-01
            1.108862771196208e-01 4.475955221615553e-02 1.163779608953756e-01 4.293861408439784e-02 -1.627455846445884e-01 -3.132930338683237e-01 5.622036417790455e-01 -3.359098943073179e-01
            5.622860370827916e-01 -3.358915763394374e-01 -1.628411483643561e-01 -3.132594081125564e-01 1.136133491405748e-01 4.895752002630042e-02 1.098810157040701e-01 4.806202207845561e-02
            -1.627743859040172e-01 -3.133174436966070e-01 5.621987288516942e-01 -3.358925824544290e-01 1.098797586780124e-01 4.808294105483849e-02 1.135523181825455e-01 4.889089482803548e-02
76757500.0000000000 1.425109171245833e-01 1.578815966718770e-02 1.327042292765292e-01 1.618056092323659e-02 4.141018077987977e-01 -5.020961966902197e-01 -2.595283613757561e-01 -2.363571641837977e-01
            1.326757688709217e-01 1.619516513263722e-02 1.424907619530857e-01 1.585442122057306e-02 -2.595433633134865e-01 -2.362504566398767e-01 4.140779650802581e-01 -5.021545456562461e-01
            4.140698647738131e-01 -5.021337430801353e-01 -2.595646761918959e-01 -2.363173885043554e-01 1.400678156035647e-01 2.388008710242348e-02 1.336262774812985e-01 2.000826633793506e-02
            -2.594727580842912e-01 -2.363174384245567e-01 4.141226263832917e-01 -5.021251632766579e-01 1.336110570156903e-01 2.002400276972261e-02 1.399553673061827e-01 2.379287658778932e-02
77590000.0000000000 1.456658822164390e-01 -2.140490559971083e-02 1.312696899860875e-01 -1.938063797148830e-02 2.206857261421460e-01 -6.116627624324503e-01 -3.224891516415523e-01 -1.346433955387738e-01
            1.313252779236521e-01 -1.936942300239843e-02 1.456564781095717e-01 -2.138731497879948e-02 -3.225333892207708e-01 -1.345755568530957e-01 2.207378294964405e-01 -6.116905663992998e-01
            2.206662547424516e-01 -6.117523864695237e-01 -3.224582733478676e-01 -1.346808113850547e-01 1.447482940527328e-01 -1.163566921010154e-02 1.343821521231263e-01 -1.640137238000901e-02
            -3.225140987468423e-01 -1.346525212035763e-01 2.207480090894095e-01 -6.116307150340092e-01 1.343696499440246e-01 -1.638850581187801e-02 1.446859896548547e-01 -1.160687665568836e-02
78422500.0000000000 1.246577835929343e-01 -5.259383459744391e-02 1.074352560186182e-01 -4.628324645722853e-02 -5.655200459593392e-04 -6.522269270940545e-01 -3.500037224677818e-01 -2.057804011747483e-02
            1.074554927056708e-01 -4.628038399808144e-02 1.246774051224399e-01 -5.255021873890517e-02 -3.500139081632926e-01 -2.061346906068364e-02 -4.905358707249858e-04 -6.521671213437374e-01
            -5.516027191661957e-04 -6.521350424554659e-01 -3.500359003400335e-01 -2.057272602594373e-02 1.258902141913253e-01 -4.190736130355159e-02 1.118322686617690e-01 -4.529287042395828e-02
            -3.499763108344723e-01 -2.045760698889412e-02 -5.535947642030316e-04 -6.521511139681162e-01 1.118158311340742e-01 -4.525766763822620e-02 1.258638621798876e-01 -4.190052702052913e-02
79255000.0000000000 8.795365983047841e-02 -6.339642022967300e-02 7.105367410431164e-02 -5.181729351715469e-02 -2.265098906885750e-01 -6.138612592560407e-01 -3.416725354044587e-01 9.745284285229562e-02
            7.110443385304786e-02 -5.187499736952345e-02 8.787711762640119e-02 -6.336755375241801e-02 -3.416578305430575e-01 9.736267639991421e-02 -2.265517288616408e-01 -6.139891372209156e-01
            -2.264776511849736e-01 -6.138329649743505e-01 -3.417416942152587e-01 9.744524116524224e-02 9.161396331946881e-02 -5.292744033508572e-02 7.540798337330712e-02 -5.331415686129129e-02
            -3.417614134350098e-01 9.742008702511118e-02 -2.264767996842336e-01 -6.139068933257187e-01 7.546630361537998e-02 -5.324505499413885e-02 9.165293180160852e-02 -5.303004445421596e-02
80087500.0000000000 5.257616653985080e-02 -4.723911648305659e-02 3.898006062109220e-02 -3.165577921606434e-02 -4.269624476576167e-01 -4.959989074660930e-01 -2.950871070670337e-01 2.112682051023245e-01
            3.897964879250226e-02 -3.160643346728283e-02 5.254380785569150e-02 -4.726875785530362e-02 -2.951708996013192e-01 2.113203498006550e-01 -4.269194703232295e-01 -4.960884845284634e-01
            -4.269399860890883e-01 -4.960144694274314e-01 -2.951621107352241e-01 2.112202088810871e-01 5.803679592632798e-02 -3.839744456068018e-02 4.179153896064636e-02 -3.517856504036201e-02
            -2.951621714219443e-01 2.113012238241629e-01 -4.269748125976146e-01 -4.960584755318614e-01 4.176818780274105e-02 -3.520022786043506e-02 5.800146627516202e-02 -3.843516766187716e-02
80920000.0000000000 3.666828911290376e-02 -1.145071395457140e-02 2.814034358179525e-02 5.496072648444204e-03 -5.707370340482752e-01 -3.130215099326746e-01 -2.082204515360611e-01 3.072353441441985e-01
            2.813931762821022e-02 5.474509710452814e-03 3.664536604949373e-02 -1.154081834797635e-02 -2.081814994246405e-01 3.072020320942170e-01 -5.707260810711009e-01 -3.130171899793626e-01
            -5.707549769337146e-01 -3.129090012600589e-01 -2.082009636117612e-01 3.072508394174946e-01 4.280381534470423e-02 -4.726491231691025e-03 2.853833543936393e-02 1.088661763639342e-03
            -2.082753333345821e-01 3.072391413546444e-01 -5.706832952990464e-01 -3.129787875831520e-01 2.851578925019473e-02 1.148638281123880e-03 4.277782805636581e-02 -4.707692429331040e-03
81752500.0000000000 4.880325573160285e-02 2.534501357846793e-02 4.509685145312638e-02 4.038227686412174e-02 -6.371205676340985e-01 -9.349040698872942e-02 -8.713772819664369e-02 3.669202826976460e-01
            4.508873505868166e-02 4.037585326643042e-02 4.879682785896941e-02 2.531931709065465e-02 -8.716969232172371e-02 3.669077839049983e-01 -6.371433197431008e-01 -9.353134735936097e-02
            -6.370970255241081e-01 -9.349978360325079e-02 -8.718844800035447e-02 3.669021411963152e-01 5.432746924845148e-02 3.035792817117462e-02 4.293614304922623e-02 3.690968920647087e-02
            -8.715611598214523e-02 3.668266560279958e-01 -6.371149588648977e-01 -9.357008007923621e-02 4.292343291039696e-02 3.689041876725253e-02 5.428433326660709e-02 3.033358734190525e-02
82585000.0000000000 8.157708306543338e-02 4.422454117501307e-02 8.034861652610144e-02 5.497551157895750e-02 -6.226989379836018e-01 1.291621838294292e-01 4.952717987420617e-02 3.762057951374780e-01
            8.041874005914780e-02 5.489595366031440e-02 8.162537896396556e-02 4.423666422760610e-02 4.945886241228695e-02 3.762277052783843e-01 -6.226713267782860e-01 1.290966618031382e-01
            -6.227352965619735e-01 1.291715371829705e-01 4.957552047120875e-02 3.762277842638690e-01 8.569657629976490e-02 4.846233534599585e-02 7.688325145978087e-02 5.371170820483193e-02
            4.958220842243357e-02 3.762366790620539e-01 -6.226025512314592e-01 1.291249668505532e-01 7.685929869117045e-02 5.364277321674573e-02 8.583400941611649e-02 4.835418052574337e-02
83417500.0000000000 1.176195551889334e-01 3.728329477349746e-02 1.157266741571747e-01 4.323476820132639e-02 -5.367036995600460e-01 3.287357189650320e-01 1.782818687090757e-01 3.339838854639909e-01
            1.157902496982167e-01 4.318528086328009e-02 1.175200866702358e-01 3.722955911453212e-02 1.783277567451890e-01 3.339389422910775e-01 -5.367758794802011e-01 3.287341239251893e-01
            -5.367224675467772e-01 3.286803147548121e-01 1.783119993516579e-01 3.339372987015224e-01 1.204316219787655e-01 4.151005746235172e-02 1.125125155907432e-01 4.427157697244262e-02
            1.782334546057676e-01 3.339258954362467e-01 -5.366921210248224e-01 3.287188341705780e-01 1.125670470105715e-01 4.425412891386907e-02 1.203953071914110e-01 4.153508362025247e-02
84250000.0000000000 1.402487992270695e-01 9.541509807727853e-03 1.349171066035105e-01 1.225242769054755e-02 -3.929782812972324e-01 4.872679915793652e-01 2.805394538749826e-01 2.509174492603130e-01
            1.349415456234977e-01 1.219324469104245e-02 1.402688966572029e-01 9.566557241039837e-03 2.806138431738807e-01 2.509162572887274e-01 -3.929213775148327e-01 4.871690153552781e-01
            -3.929548125609917e-01 4.872189431842125e-01 2.806671771456810e-01 2.508866286683478e-01 1.421896424743338e-01 1.467576818324215e-02 1.333004652842824e-01 1.500962464542833e-02
            2.806012603733393e-01 2.508617651172376e-01 -3.929574414462327e-01 4.872977229116411e-01 1.333259493128715e-01 1.486537134122383e-02 1.421541754916146e-01 1.469471407347904e-02
85082500.0000000000 1.401579613675825e-01 -2.594163538999232e-02 1.301422855379226e-01 -2.360025816145313e-02 -2.056383113914873e-01 5.911268290605877e-01 3.475913987395344e-01 1.416707037954183e-01
            1.302076393661680e-01 -2.351068500402241e-02 1.401979476109651e-01 -2.587040120122728e-02 3.475721580704342e-01 1.416548546950543e-01 -2.055770122485302e-01 5.911201838095499e-01
            -2.055160412064279e-01 5.911709418631902e-01 3.475346877950964e-01 1.417554448084372e-01 1.420092526239005e-01 -1.969143156120583e-02 1.307884883121760e-01 -2.064622443449280e-02
            3.476446787897116e-01 1.416283368804013e-01 -2.055649250852880e-01 5.911412608064779e-01 1.307239108160177e-01 -2.071671441537057e-02 1.419577574602396e-01 -1.972847121248140e-02
85915000.0000000000 1.174785604617921e-01 -5.332262181515247e-02 1.037274717145616e-01 -4.833771484751734e-02 8.513946981918151e-03 6.276409013143944e-01 3.766470731948869e-01 1.875900239473683e-02
            1.037432437779041e-01 -4.830811937982137e-02 1.174663426066696e-01 -5.329894319653349e-02 3.765934998343911e-01 1.868390334054581e-02 8.501897434272467e-03 6.276806118003584e-01
            8.529616882054574e-03 6.276205684274028e-01 3.766898666678467e-01 1.877338616305882e-02 1.197789013841082e-01 -4.637003448391535e-02 1.059014304785062e-01 -4.677535569818454e-02
            3.766164053942321e-01 1.872228036091519e-02 8.554574821807838e-03 6.276689208694761e-01 1.059322854903028e-01 -4.681040635033501e-02 1.198600146800485e-01 -4.639396694974974e-02
86747500.0000000000 8.185718847793350e-02 -5.960382938148129e-02 6.684102601430389e-02 -5.031677456465267e-02 2.260516302092214e-01 5.873750155789386e-01 3.664378425677517e-01 -1.090481529472911e-01
            6.685419657847431e-02 -5.036644227051137e-02 8.187099906576796e-02 -5.964088121378380e-02 3.664418416194000e-01 -1.089355888226785e-01 2.260138380681911e-01 5.874798583040087e-01
            2.260702460152196e-01 5.874393850091354e-01 3.664618618107578e-01 -1.089830038869166e-01 8.495886909337449e-02 -5.273856098754354e-02 6.913139981222985e-02 -5.097654815895709e-02
            3.664329792380766e-01 -1.090447634827741e-01 2.260091997913998e-01 5.873873215397990e-01 6.917703531187275e-02 -5.090754208648536e-02 8.489727464393082e-02 -5.267148955949171e-02
87580000.0000000000 5.047530828634690e-02 -4.053841050661078e-02 3.721377689992181e-02 -2.712063141418151e-02 4.170110436537866e-01 4.705334502782178e-01 3.138852266623890e-01 -2.313521315875375e-01
            3.714258112651592e-02 -2.709673453117523e-02 5.058824546070651e-02 -4.053946215572833e-02 3.139597937561726e-01 -2.313869600508737e-01 4.169859300456839e-01 4.704684094469337e-01
            4.170116944875733e-01 4.705123905083065e-01 3.139301185336420e-01 -2.314000826648147e-01 5.370333944398183e-02 -3.409477208894721e-02 3.794777016297002e-02 -2.936156707935376e-02
            3.138968032662225e-01 -2.314008484469281e-01 4.170146277552339e-01 4.704272012210632e-01 3.795258704625853e-02 -2.937925816024943e-02 5.369488764523382e-02 -3.417486336432548e-02
88412500.0000000000 4.012071285793574e-02 -4.964826386336432e-03 3.056079935474497e-02 1.044130619964054e-02 5.517000414670706e-01 2.922348276791522e-01 2.178999571115241e-01 -3.326011580361981e-01
            3.053992678086601e-02 1.053784034359980e-02 4.014369633124554e-02 -4.963090745387196e-03 2.179454674710475e-01 -3.325207451174547e-01 5.516625574438787e-01 2.921733042386844e-01
            5.516312225009933e-01 2.922429805898266e-01 2.179295074110735e-01 -3.325461397326552e-01 4.264147164957189e-02 8.976917936836687e-04 2.887399307398883e-02 8.015377880760280e-03
            2.179288004581126e-01 -3.325252518869738e-01 5.517202340457102e-01 2.921792358837386e-01 2.884934959189014e-02 8.066895253457034e-03 4.258257991056324e-02 9.438154568221699e-04
89245000.0000000000 5.646286441476379e-02 2.810152762507127e-02 5.089870662733915e-02 4.260719259507960e-02 6.115451935284087e-01 8.136615177288289e-02 8.697581109928429e-02 -3.931064827334757e-01
            5.095422284553233e-02 4.258213966635864e-02 5.648211061854644e-02 2.812901654716998e-02 8.700536806401414e-02 -3.931634371824139e-01 6.115050607846516e-01 8.134254345976430e-02
            6.115619673247126e-01 8.130522710870548e-02 8.697131985850909e-02 -3.931570072056895e-01 5.769751820835711e-02 3.431909142542781e-02 4.698636866918617e-02 4.197313063204986e-02
            8.694442012967557e-02 -3.932018049784812e-01 6.114879357873910e-01 8.132439756058457e-02 4.698690979339474e-02 4.185180870189893e-02 5.769879156646774e-02 3.430689343909477e-02
90077500.0000000000 9.023957423724183e-02 4.145647306097995e-02 8.685180170307789e-02 5.272838096244577e-02 5.948124354414762e-01 -1.310051510710161e-01 -5.830717005281741e-02 -3.998508823953102e-01
            8.682817155020951e-02 5.271445545850494e-02 9.022952994180281e-02 4.149103879633497e-02 -5.837246949898405e-02 -3.997863070969431e-01 5.947468799374189e-01 -1.309718126337701e-01
            5.947792949110664e-01 -1.309683105717764e-01 -5.832728879774044e-02 -3.997864335264057e-01 9.000158033444092e-02 4.913806885660915e-02 8.241801458091565e-02 5.522270729722401e-02
            -5.831350711457013e-02 -3.998325053122935e-01 5.947275434925089e-01 -1.310417892633346e-01 8.242431982229700e-02 5.515669408125956e-02 9.004233900843060e-02 4.906837790432659e-02
90910000.0000000000 1.239040155580786e-01 2.976778477389692e-02 1.198605099627901e-01 3.703689486602646e-02 5.105567222623514e-01 -3.208020604813750e-01 -1.938138591283423e-01 -3.528949996131544e-01
            1.198116585131843e-01 3.704886285371041e-02 1.238659719127935e-01 2.970767564683228e-02 -1.937139731113247e-01 -3.529488283077489e-01 5.105434243611494e-01 -3.208207828938578e-01
            5.106532876132678e-01 -3.208353554707937e-01 -1.937499420910687e-01 -3.528758725979625e-01 1.230866356906376e-01 3.962099495574563e-02 1.171265318398302e-01 4.267861315802315e-02
            -1.937933419413622e-01 -3.529666218465232e-01 5.105989119747928e-01 -3.207530683983789e-01 1.171641688102701e-01 4.262417896701490e-02 1.230678438749600e-01 3.975401671387821e-02
91742500.0000000000 1.420999062168047e-01 -4.485316309610581e-04 1.346402263558213e-01 4.401288772283175e-03 3.715042250273037e-01 -4.715430866579046e-01 -3.011832293381250e-01 -2.639127820187653e-01
            1.347307964013080e-01 4.333703712804489e-03 1.421436447942727e-01 -4.589190925802901e-04 -3.011880021695424e-01 -2.639648244386489e-01 3.715436400471094e-01 -4.714284943276928e-01
            3.715968551978616e-01 -4.714588797130513e-01 -3.011596685092808e-01 -2.639040427667823e-01 1.419332643467979e-01 1.232319291403398e-02 1.355967883401910e-01 1.157548212985108e-02
            -3.012394706216949e-01 -2.639151633050670e-01 3.715943333177112e-01 -4.715313909603470e-01 1.354696663535416e-01 1.153795868426601e-02 1.419263043815095e-01 1.228009880476379e-02
92575000.0000000000 1.374017171333257e-01 -3.542422476770508e-02 1.253967539402705e-01 -3.015921487779298e-02 1.905714636040984e-01 -5.695996340719903e-01 -3.715792231147765e-01 -1.475102075656176e-01
            1.253455991224497e-01 -3.010186900306917e-02 1.374006654851724e-01 -3.541430228305188e-02 -3.715976524478341e-01 -1.474326722064655e-01 1.905685195482902e-01 -5.696181105350537e-01
            1.905094786021678e-01 -5.696351731932167e-01 -3.715607755133776e-01 -1.474605303398955e-01 1.390928138201241e-01 -2.016811071714875e-02 1.302587548498044e-01 -2.389202559024314e-02
            -3.715855719340261e-01 -1.475188433790700e-01 1.905766267315431e-01 -5.696258163953399e-01 1.302917895985530e-01 -2.381240994749358e-02 1.391018286193171e-01 -2.019261187454062e-02
93407500.0000000000 1.112459012729052e-01 -5.992126038317476e-02 9.573570612096356e-02 -5.112562795250764e-02 -1.608312493919871e-02 -6.022375475240279e-01 -4.018111959357389e-01 -1.598262881769882e-02
            9.577866698995841e-02 -5.107132405572388e-02 1.112873664438292e-01 -5.992270586559136e-02 -4.017814329924712e-01 -1.599121491324808e-02 -1.602225731866524e-02 -6.022147099980172e-01
            -1.607832355509140e-02 -6.022203214955401e-01 -4.017662260895777e-01 -1.586332119135750e-02 1.159654598207250e-01 -4.323160251649465e-02 1.035889558086271e-01 -4.813733460322031e-02
            -4.017560545790996e-01 -1.583973436714310e-02 -1.605578315971845e-02 -6.022106205831983e-01 1.035967970945682e-01 -4.821492110885518e-02 1.160078919777760e-01 -4.335142090350275e-02
94240000.0000000000 7.486812524078831e-02 -6.201288470905165e-02 5.866311571137654e-02 -4.790470859727071e-02 -2.248624253537786e-01 -5.602285878886728e-01 -3.894296323705665e-01 1.208719006117077e-01
            5.863433161035259e-02 -4.781083514948133e-02 7.484531922047545e-02 -6.204508320952256e-02 -3.894294201225171e-01 1.208923744083301e-01 -2.248292665463119e-01 -5.602459183130896e-01
            -2.248102951461218e-01 -5.602640838545128e-01 -3.893903512539498e-01 1.209388153745308e-01 8.286296517406869e-02 -4.578124100177410e-02 6.691383434313231e-02 -4.963733143116002e-02
            -3.893629516708993e-01 1.209424991647430e-01 -2.247949857435882e-01 -5.602897395983597e-01 6.683814350318115e-02 -4.970307494404555e-02 8.284447657768884e-02 -4.580425731924427e-02
95072500.0000000000 4.558815182205133e-02 -3.927461798360554e-02 3.212804610631882e-02 -2.017800377469663e-02 -4.060755153456522e-01 -4.445758779402951e-01 -3.309242115938688e-01 2.511173123487881e-01
            3.212244888163911e-02 -2.018475494027538e-02 4.564351226038770e-02 -3.932353886178754e-02 -3.308762063431533e-01 2.510880812461098e-01 -4.060869436462568e-01 -4.445469431920681e-01
            -4.060525951631934e-01 -4.445128119012179e-01 -3.308957779607714e-01 2.510361316489049e-01 5.583415964673920e-02 -2.488527476506186e-02 3.765391596464364e-02 -2.623986317675746e-02
            -3.308722805374522e-01 2.511697975852702e-01 -4.060710250487065e-01 -4.445050877436273e-01 3.763606255279445e-02 -2.629227514228997e-02 5.585328800878776e-02 -2.493005618249963e-02
95905000.0000000000 3.926370560475562e-02 -2.786942567769749e-03 3.085042169580850e-02 1.867508906637539e-02 -5.315807181586902e-01 -2.715868713299479e-01 -2.259984595439498e-01 3.568293265843288e-01
            3.092525756557070e-02 1.876608488636269e-02 3.934727478571784e-02 -2.866969226453085e-03 -2.260460960611090e-01 3.568761403622450e-01 -5.315178102874930e-01 -2.715372178131861e-01
            -5.315522060119812e-01 -2.715458974794389e-01 -2.260706604882373e-01 3.568678841500507e-01 4.981426730684194e-02 9.414327334100888e-03 3.138121969000871e-02 1.095858738368413e-02
            -2.260587924785770e-01 3.568164379287680e-01 -5.315365783292328e-01 -2.715911242174122e-01 3.130989650665732e-02 1.095129559130272e-02 4.979043942618445e-02 9.365269669653106e-03
96737500.0000000000 5.888140097225315e-02 2.801353919451243e-02 5.620216757417017e-02 4.840973964550358e-02 -5.850700072408248e-01 -6.961636983328658e-02 -8.588062552961341e-02 4.178182465807859e-01
            5.619484836077088e-02 4.843871236229071e-02 5.880417071727231e-02 2.804175064790966e-02 -8.589694545411543e-02 4.178423270267346e-01 -5.850745765110249e-01 -6.966486325934583e-02
            -5.850294218167373e-01 -6.963763585173860e-02 -8.586747788083671e-02 4.178727938898390e-01 6.826861583333696e-02 3.889481914034817e-02 5.138376733605026e-02 4.265051511518545e-02
            -8.584718301412023e-02 4.178458628233312e-01 -5.849946409083585e-01 -6.959364798099998e-02 5.134974776899767e-02 4.268084560768166e-02 6.828174617985328e-02 3.880853704991592e-02
97570000.0000000000 9.338622144425970e-02 3.777395088469511e-02 9.436411249394785e-02 5.368206012731550e-02 -5.661874381954095e-01 1.321797480371791e-01 6.746563683638022e-02 4.217823386011494e-01
            9.433642533608945e-02 5.370283400350528e-02 9.334758169617013e-02 3.776112619534674e-02 6.750639190065581e-02 4.217543722709612e-01 -5.662326160162225e-01 1.321721934546368e-01
            -5.662487054250662e-01 1.321673056795667e-01 6.746017719611830e-02 4.218246772930065e-01 1.010529277823452e-01 4.867787065183300e-02 8.655376963374203e-02 5.313040542545256e-02
            6.744456343142735e-02 4.217183848195026e-01 -5.662915891908470e-01 1.321177849047738e-01 8.662822186397470e-02 5.303593139836315e-02 1.010090026390807e-01 4.874040235439649e-02
98402500.0000000000 1.252294410811627e-01 2.292532088132422e-02 1.260980668253352e-01 3.336273354899626e-02 -4.841448726015064e-01 3.121014115308295e-01 2.091586006500417e-01 3.702457198068924e-01
            1.260367724672815e-01 3.329186430485589e-02 1.252171681447751e-01 2.296376178665572e-02 2.091016463799221e-01 3.703588074708640e-01 -4.842609436408243e-01 3.120937154662538e-01
            -4.841595278370816e-01 3.121213265305320e-01 2.090423952985362e-01 3.703239380334133e-01 1.315527506169395e-01 3.567229340058560e-02 1.193312555832791e-01 3.869534894757944e-02
            2.091340211798395e-01 3.703152513562772e-01 -4.842098221434940e-01 3.120651748713568e-01 1.193310890898313e-01 3.861776338348242e-02 1.315971377047595e-01 3.572456286711768e-02
99235000.0000000000 1.401849591853009e-01 -8.356069788410508e-03 1.372534571446874e-01 -2.261097397952965e-03 -3.499956687331355e-01 4.548351522233579e-01 3.211479914687992e-01 2.754771711234060e-01
            1.372552394678780e-01 -2.219081986831494e-03 1.402437402890307e-01 -8.396048286897568e-03 3.212180754045892e-01 2.754685439964841e-01 -3.500338757588604e-01 4.548576606250672e-01
            -3.499806426024869e-01 4.548556190366552e-01 3.210875120816383e-01 2.755076567369195e-01 1.465286719184750e-01 7.193469795408114e-03 1.351017195579535e-01 7.279696024744725e-03
            3.211170182977958e-01 2.754989662360241e-01 -3.500423726489609e-01 4.548338044932186e-01 1.351331541591077e-01 7.241047953721013e-03 1.465032588387259e-01 7.176484485301205e-03
100067500.0000000000 1.323726064750516e-01 -4.221732127458839e-02 1.233465055063283e-01 -3.682178619628301e-02 -1.755543655357092e-01 5.471190952363273e-01 3.944244011444507e-01 1.519506652779572e-01
            1.233672957393352e-01 -3.679930532903252e-02 1.323141644491268e-01 -4.215827992118160e-02 3.944976062383312e-01 1.519562153856172e-01 -1.756086998625150e-01 5.471455572509692e-01
            -1.755557471862292e-01 5.471013420495597e-01 3.945788720942401e-01 1.520210670753205e-01 1.402339722321764e-01 -2.383314298096004e-02 1.275731522827112e-01 -2.691265502069740e-02
            3.945097628959219e-01 1.519652905966004e-01 -1.756914013855047e-01 5.471148318148060e-01 1.275397289394535e-01 -2.683687233111742e-02 1.401430244954111e-01 -2.390152315799814e-02
100900000.0000000000 1.046192949492445e-01 -6.376515048889581e-02 9.016538672942385e-02 -5.496064876628935e-02 2.304177757939490e-02 5.759658903441489e-01 4.253797760326127e-01 1.214904357402486e-02
            9.022755317683610e-02 -5.498558867742782e-02 1.046025903580060e-01 -6.370673539265644e-02 4.253693932620999e-01 1.221227968395749e-02 2.300852857223077e-02 5.759215472989748e-01
            2.305187665771792e-02 5.759471679036262e-01 4.253838361732757e-01 1.216046951201291e-02 1.152891329313058e-01 -4.358697919015111e-02 9.971947616328913e-02 -4.873757788057360e-02
            4.254350333966434e-01 1.215436200152825e-02 2.310263442955859e-02 5.759469828496705e-01 9.969133193854007e-02 -4.866876572972251e-02 1.152812681068590e-01 -4.358849767136276e-02
101732500.0000000000 6.920707768638004e-02 -6.210707522169354e-02 5.231452903128428e-02 -4.698045082947608e-02 2.227736049588869e-01 5.323682360756592e-01 4.105233486929224e-01 -1.332473111192861e-01
            5.233827814738076e-02 -4.702181148500054e-02 6.921086684552477e-02 -6.221310316897290e-02 4.105078329401387e-01 -1.332383969563357e-01 2.227887498141505e-01 5.323516675422711e-01
            2.227674926761319e-01 5.323740466660565e-01 4.105116580357226e-01 -1.332059447042533e-01 8.289015852489613e-02 -4.209176947290185e-02 6.344947281499684e-02 -4.737176536445750e-02
            4.105608443685508e-01 -1.331471746035459e-01 2.227853346048572e-01 5.323636289757749e-01 6.343774223351686e-02 -4.743011708003079e-02 8.292308736732266e-02 -4.201674228901978e-02
102565000.0000000000 4.366004471506361e-02 -3.714457709812082e-02 2.877593212039961e-02 -1.514903717839974e-02 3.941731422006948e-01 4.182990492507416e-01 3.458413129976943e-01 -2.706217638682039e-01
            2.878534043347395e-02 -1.512609830480294e-02 4.370520638502535e-02 -3.718003177300631e-02 3.458894593844987e-01 -2.706728888507936e-01 3.940562910606404e-01 4.182636858063604e-01
            3.941032046557765e-01 4.182371586826609e-01 3.457984204589660e-01 -2.706344090935354e-01 5.906737758528711e-02 -1.831422157901577e-02 3.622839615671714e-02 -2.192832233713860e-02
            3.458824497093034e-01 -2.706075570719058e-01 3.941719086258493e-01 4.182350462238685e-01 3.619642967456282e-02 -2.198621439914810e-02 5.905068160757514e-02 -1.833797122992176e-02
103397500.0000000000 4.251154493775965e-02 -1.483136068205890e-03 3.317578465928955e-02 2.492026822753269e-02 5.102584494809534e-01 2.508395575310051e-01 2.323800637369085e-01 -3.802868906011413e-01
            3.319187027307831e-02 2.484380087851163e-02 4.257290568915459e-02 -1.567505823468973e-03 2.324782034791833e-01 -3.802040469193846e-01 5.102862316456950e-01 2.508440665283709e-01
            5.102606672950446e-01 2.508629557570589e-01 2.323944768794076e-01 -3.802194415807778e-01 5.709609156630473e-02 1.637722306723116e-02 3.258921086377927e-02 1.583951450783981e-02
            2.324664335660696e-01 -3.802396338040160e-01 5.102480077002128e-01 2.508332579827448e-01 3.257960528660636e-02 1.588925645988064e-02 5.718619763326160e-02 1.631024876055303e-02
104230000.0000000000 6.651876668393861e-02 2.476208957177106e-02 6.401804311548058e-02 5.131028383751145e-02 5.572420093091444e-01 5.818682731693955e-02 8.310031733276234e-02 -4.410228241180443e-01
            6.386934893705001e-02 5.143107428219130e-02 6.646289918142739e-02 2.476475045670774e-02 8.314790348021416e-02 -4.410190202778261e-01 5.572748594672342e-01 5.817529001952919e-02
            5.572235179401070e-01 5.819268621195459e-02 8.316372255248590e-02 -4.411002135026844e-01 7.886287313558137e-02 4.420415731110425e-02 5.483181749413697e-02 4.694727004560140e-02
            8.307518295591122e-02 -4.410748298594239e-01 5.572380430508972e-01 5.810993181813801e-02 5.485041837234526e-02 4.703502639550432e-02 7.875693885697897e-02 4.427336010025779e-02
105062500.0000000000 1.023240319654422e-01 2.761465004554111e-02 1.046006926626364e-01 5.007482560520788e-02 5.363817413540445e-01 -1.325059703396624e-01 -7.793246370336011e-02 -4.416504088252411e-01
            1.046494784672509e-01 5.006839380076589e-02 1.023167861162235e-01 2.769671819983571e-02 -7.793301860097379e-02 -4.415927527198640e-01 5.362642555432198e-01 -1.324630702447435e-01
            5.363506946721992e-01 -1.325371295063875e-01 -7.793347101450554e-02 -4.416162387345261e-01 1.128456403853323e-01 5.229947836758859e-02 9.133104794098473e-02 5.672191704386672e-02
            -7.788952834583197e-02 -4.416034837918565e-01 5.363448835516786e-01 -1.325471200058005e-01 9.133563189049212e-02 5.666578130525991e-02 1.127990097694120e-01 5.225195147178114e-02
105895000.0000000000 1.321947341208509e-01 5.754533830899875e-03 1.347866531897674e-01 2.184491386869403e-02 4.564701453589773e-01 -3.016967150795358e-01 -2.251846346717835e-01 -3.846963623035823e-01
            1.348170506384874e-01 2.177515455026377e-02 1.321569665743143e-01 5.715075141067597e-03 -2.250880886401592e-01 -3.846473205063838e-01 4.565440305441311e-01 -3.016969514795811e-01
            4.565395834299766e-01 -3.016987774548162e-01 -2.251413802059270e-01 -3.846671956601826e-01 1.435677324009172e-01 3.880474125680038e-02 1.255874378062910e-01 4.209447215177848e-02
            -2.250643590997528e-01 -3.847042757175805e-01 4.565102805959226e-01 -3.016410078356061e-01 1.254302703115221e-01 4.215286574136268e-02 1.435603530474047e-01 3.888323404409103e-02
106727500.0000000000 1.427069053009758e-01 -3.179750530288859e-02 1.401689190292927e-01 -2.044653870722341e-02 3.281302647849410e-01 -4.354925765861658e-01 -3.403269876258231e-01 -2.831615788708071e-01
            1.402434618666577e-01 -2.046098400637664e-02 1.426718052901414e-01 -3.181516257293619e-02 -3.403795113034672e-01 -2.832071369556933e-01 3.281037392874071e-01 -4.355120111357960e-01
            3.281491389841037e-01 -4.354635748698596e-01 -3.402800978391294e-01 -2.831864363783465e-01 1.597549258457458e-01 1.191361719551148e-02 1.438906551443559e-01 1.076073970593480e-02
            -3.404289859852889e-01 -2.831103374677738e-01 3.281231495045446e-01 -4.355259231644936e-01 1.439354822501028e-01 1.078453245775119e-02 1.598069908595035e-01 1.189879325912933e-02
107560000.0000000000 1.281434033353315e-01 -7.052046350955848e-02 1.169680190111413e-01 -5.881818571585978e-02 1.621804658835107e-01 -5.215356503602857e-01 -4.143876870914261e-01 -1.525895415842586e-01
            1.169559476801867e-01 -5.883194762238324e-02 1.281353722237467e-01 -7.052160175758677e-02 -4.143517794991114e-01 -1.526132178613048e-01 1.621772218604401e-01 -5.215460970586303e-01
            1.622050992730737e-01 -5.215716746163628e-01 -4.143258261485171e-01 -1.525721245353123e-01 1.577396514839666e-01 -1.661539163326981e-02 1.408318528678457e-01 -2.454949717896831e-02
            -4.143546913760686e-01 -1.525794698976207e-01 1.621169953145621e-01 -5.215009911553502e-01 1.408596496682321e-01 -2.453814480002152e-02 1.578371601227113e-01 -1.662792869231782e-02
108392500.0000000000 9.233216119494808e-02 -9.551734579267260e-02 7.240276787977275e-02 -7.630166161717881e-02 -2.637190624708021e-02 -5.477409925807771e-01 -4.432648986114092e-01 -6.360240316365681e-03
            7.237666527095458e-02 -7.634649117556275e-02 9.234666256564612e-02 -9.547122043899328e-02 -4.432398817215383e-01 -6.400820576451377e-03 -2.640347095509029e-02 -5.475998201892336e-01
            -2.636988997640454e-02 -5.476030594469272e-01 -4.433226735693544e-01 -6.422831035869604e-03 1.414255732804688e-01 -3.566605947613313e-02 1.187596227784222e-01 -5.080554732967802e-02
            -4.432752307389203e-01 -6.283842746307691e-03 -2.641986559051920e-02 -5.476939261938170e-01 1.187793522158691e-01 -5.080686000547706e-02 1.414244566040621e-01 -3.568933367545334e-02
109225000.0000000000 4.685558099173356e-02 -9.589183224388309e-02 2.298574878805135e-02 -6.248392816142966e-02 -2.157476824506388e-01 -5.054430865293741e-01 -4.243930582273581e-01 1.436973987995085e-01
            2.294295999084959e-02 -6.248034922988530e-02 4.673181041755499e-02 -9.582644235995270e-02 -4.244179579589226e-01 1.436500714165705e-01 -2.157559617966595e-01 -5.054172180535034e-01
            -2.157225507165506e-01 -5.054589375150732e-01 -4.244544207920445e-01 1.437140842963150e-01 1.205216629015458e-01 -3.862652513756453e-02 8.719239467776108e-02 -5.886742943113465e-02
            -4.244495562535979e-01 1.436776946011676e-01 -2.157089483662813e-01 -5.054304983501555e-01 8.717891215346253e-02 -5.881344224612257e-02 1.205418882136289e-01 -3.865229673436797e-02
110057500.0000000000 9.086059073354366e-03 -7.019679076370325e-02 -1.009866576716356e-02 -1.930337582217635e-02 -3.785215971629610e-01 -3.964810298670141e-01 -3.554787642840066e-01 2.833364592467282e-01
            -1.009614752057762e-02 -1.925829711894982e-02 9.185800487223424e-03 -7.023411098449425e-02 -3.554047449512943e-01 2.833113026689340e-01 -3.784559175629891e-01 -3.965237030771595e-01
            -3.784621769521417e-01 -3.965909467529866e-01 -3.554342975880407e-01 2.833464307410868e-01 1.076742685762385e-01 -2.712010384322853e-02 5.956819912677470e-02 -4.730084309543846e-02
            -3.553951827944866e-01 2.833947786816429e-01 -3.785382895086959e-01 -3.965486179090802e-01 5.963373992797737e-02 -4.731457447708400e-02 1.077393278153181e-01 -2.715172090715623e-02
110890000.0000000000 -5.972876191304398e-03 -2.954850544076206e-02 -1.058951566226522e-02 3.714272468491067e-02 -4.896263605929159e-01 -2.366311676166296e-01 -2.386924169967962e-01 3.939134484169832e-01
            -1.047875785385167e-02 3.708175728476380e-02 -5.990650346414260e-03 -2.951915574124474e-02 -2.386841758299315e-01 3.938395986287835e-01 -4.896281860579695e-01 -2.366491758297037e-01
            -4.895722553588144e-01 -2.366067149489824e-01 -2.386750212059122e-01 3.939691949408787e-01 1.111607895665503e-01 -1.149942661520582e-02 4.711617477423666e-02 -2.467961265786337e-02
            -2.386553143262118e-01 3.939002282037262e-01 -4.896422593450997e-01 -2.366816207916265e-01 4.712647297991943e-02 -2.473561979732668e-02 1.111066947864422e-01 -1.148207683031553e-02
111722500.0000000000 4.389002914498418e-03 7.643513190066339e-03 2.286419704298637e-02 8.256147972921664e-02 -5.349940168691445e-01 -5.141849381778543e-02 -8.690131410415794e-02 4.561494721859470e-01
            2.283253495077073e-02 8.251013101626875e-02 4.343863011443708e-03 7.591662927052994e-03 -8.691034585162684e-02 4.560962758914754e-01 -5.348849194437698e-01 -5.148128551951225e-02
            -5.349204483153119e-01 -5.144726062439640e-02 -8.691749482417123e-02 4.561308489861410e-01 1.291699676444921e-01 -5.770467492489219e-03 5.154191538625184e-02 -4.271907412492893e-03
            -8.685639434168120e-02 4.560607487846264e-01 -5.348870124653582e-01 -5.141946342358773e-02 5.158893652484801e-02 -4.237333342432510e-03 1.291670743646246e-01 -5.793456603665650e-03
112555000.0000000000 2.988779284645540e-02 2.701107940364966e-02 7.507753992009382e-02 9.912798835566489e-02 -5.139308195214144e-01 1.331860526929643e-01 7.755458100212834e-02 4.591491685694311e-01
            7.512062378484369e-02 9.922844753322325e-02 2.986283827901462e-02 2.704353195071607e-02 7.759553578345349e-02 4.590515908623848e-01 -5.140195547216295e-01 1.331513316073094e-01
            -5.140236342904775e-01 1.331650671040353e-01 7.754619967272110e-02 4.590767448982513e-01 1.501211547935730e-01 -1.843035191799578e-02 6.495983678212428e-02 4.190740549518366e-03
            7.761191414425218e-02 4.590786649275700e-01 -5.140357062991651e-01 1.332019364096513e-01 6.496555180769605e-02 4.121923233265417e-03 1.501634251273016e-01 -1.845658294916182e-02
113387500.0000000000 5.461258391249745e-02 2.601820197322187e-02 1.244789976060205e-01 8.326777629771595e-02 -4.344804684789171e-01 2.969205016441274e-01 2.308963459029497e-01 4.041167909063823e-01
            1.245382294600485e-01 8.331403217813509e-02 5.466702277602124e-02 2.606873318589034e-02 2.307844113295791e-01 4.041359290466266e-01 -4.344550140382268e-01 2.969416328097793e-01
            -4.345240020568041e-01 2.968676913697044e-01 2.308681555489683e-01 4.040999071707476e-01 1.597959296387622e-01 -4.753769956767066e-02 7.588152663755089e-02 -5.465548065462562e-04
            2.308125117072510e-01 4.042080645703590e-01 -4.345226816873937e-01 2.968953155664677e-01 7.594296566552521e-02 -5.277460518515443e-04 1.597727070257100e-01 -4.749876451203226e-02
114220000.0000000000 6.677775132721359e-02 1.213766047930525e-02 1.532895794583563e-01 4.461944452881244e-02 -3.068655605320244e-01 4.246904663056192e-01 3.545680271205903e-01 3.017116461872805e-01
            1.532884613196662e-01 4.461190986971010e-02 6.671752581913015e-02 1.216071655738677e-02 3.545297143357906e-01 3.017619242354514e-01 -3.068532566337448e-01 4.246211376323690e-01
            -3.067559916901829e-01 4.247298557471876e-01 3.544581645074584e-01 3.017381746782338e-01 1.489130512070557e-01 -8.222432393905271e-02 7.605366123453779e-02 -1.174037208223706e-02
            3.545264415004152e-01 3.017289309624109e-01 -3.067892879774610e-01 4.246276875559657e-01 7.616906973056795e-02 -1.179584582032349e-02 1.489942514491641e-01 -8.213909386909181e-02
115052500.0000000000 6.233767116444903e-02 -2.319612472550431e-03 1.538709985100062e-01 5.635386399687643e-04 -1.431279623924276e-01 5.032552511785144e-01 4.372683358900922e-01 1.653220253774492e-01
            1.539025198247254e-01 5.328817472032365e-04 6.231996435429555e-02 -2.323035825957735e-03 4.372636940518853e-01 1.653620280926836e-01 -1.431659034287631e-01 5.032681053227293e-01
            -1.431197217878615e-01 5.033302603637494e-01 4.373282552344055e-01 1.652960612182544e-01 1.169635121644724e-01 -1.078111999947023e-01 6.410425648061339e-02 -1.940477451313518e-02
            4.372932477953893e-01 1.653705540096595e-01 -1.431481902431138e-01 5.032487430107853e-01 6.422922786652208e-02 -1.937497131868270e-02 1.169303317165574e-01 -1.077704659074642e-01
115885000.0000000000 4.605255086894445e-02 -5.620100860483580e-03 1.301697146810966e-01 -3.123700262896683e-02 3.946358077304326e-02 5.212688894037737e-01 4.718553065504566e-01 8.194145862082466e-03
            1.302212995602058e-01 -3.126640060486326e-02 4.602366961318909e-02 -5.653241743606138e-03 4.717948828851065e-01 8.126291303583078e-03 3.961020821912842e-02 5.212320654547200e-01
            3.957829077058942e-02 5.212428793727919e-01 4.717539530119583e-01 8.242941613002748e-03 7.273389593702449e-02 -1.120883155715561e-01 4.579487092901142e-02 -1.461592611399228e-02
            4.718371599717629e-01 8.129622112384048e-03 3.946889690906257e-02 5.211823806025486e-01 4.571232778025058e-02 -1.467639010273710e-02 7.269855834464166e-02 -1.120819811867948e-01
116717500.0000000000 2.927305786039061e-02 8.087982536661348e-03 9.585714816435265e-02 -3.957776278253818e-02 2.180882621182516e-01 4.727780189194551e-01 4.520552553424202e-01 -1.553330110421814e-01
            9.583430665182412e-02 -3.951203778934950e-02 2.923712341520559e-02 7.960344522265005e-03 4.520484563184457e-01 -1.553280497452082e-01 2.181578396299519e-01 4.728688253200412e-01
            2.181022292744212e-01 4.729060124476910e-01 4.520906367217581e-01 -1.553920105556564e-01 3.189269188863701e-02 -9.015532600188796e-02 3.203748834241558e-02 5.513154883161133e-03
            4.520672269786867e-01 -1.553475060888364e-01 2.180242392469617e-01 4.729291530532593e-01 3.206766463662221e-02 5.525144894486500e-03 3.182078443990271e-02 -9.013688053976890e-02
117550000.0000000000 2.541564141479642e-02 3.534075629742498e-02 6.894281258025234e-02 -2.435434164599365e-02 3.663444302548310e-01 3.636901871985335e-01 3.748996120422523e-01 -3.062478525585779e-01
            6.894882428032174e-02 -2.422194205008890e-02 2.530481171323675e-02 3.534458675860877e-02 3.748987421914179e-01 -3.063516660142517e-01 3.663716517000951e-01 3.637172995826182e-01
            3.663981285115156e-01 3.637140088960069e-01 3.748809711941673e-01 -3.063456716477038e-01 1.099022219658571e-02 -4.901342460403370e-02 3.454140116269819e-02 3.476981039014293e-02
            3.748993981937782e-01 -3.063556129863683e-01 3.662915145822357e-01 3.636603325439245e-01 3.460591251251569e-02 3.483690541368995e-02 1.097823875520328e-02 -4.901582454708504e-02
118382500.0000000000 4.187878607523767e-02 6.310570213664096e-02 6.218645707551300e-02 1.976085363543175e-03 4.637928986690993e-01 2.114888870432027e-01 2.457015879461608e-01 -4.219725498262432e-01
            6.220474117213838e-02 1.945716356793400e-03 4.186100786794070e-02 6.311481330267658e-02 2.456822776702887e-01 -4.220605624529973e-01 4.637227545422363e-01 2.114657352277655e-01
            4.637800344820174e-01 2.113826751546901e-01 2.457289758433827e-01 -4.219701729698536e-01 1.786748166319112e-02 -5.522951467731421e-03 5.724905261591778e-02 5.900858704555566e-02
            2.457098338857799e-01 -4.219954309558523e-01 4.637791101048084e-01 2.115071048748615e-01 5.724342148921740e-02 5.897182515957933e-02 1.789850618808997e-02 -5.608540270099995e-03
119215000.0000000000 7.453807588523814e-02 7.650117339677301e-02 7.584962508414186e-02 2.236851357047015e-02 5.010979149780012e-01 3.968827735111661e-02 8.200571026411149e-02 -4.826559871208217e-01
            7.592409814575889e-02 2.232652417486977e-02 7.440447065465915e-02 7.643721792624580e-02 8.212688694705145e-02 -4.827537129530322e-01 5.010929675901822e-01 3.973281899011082e-02
            5.011709248661358e-01 3.973317480908930e-02 8.205948149216268e-02 -4.827024933618827e-01 4.695507147935707e-02 2.224498552164584e-02 9.215867640240481e-02 6.483348267878795e-02
            8.208862951342666e-02 -4.826707890003024e-01 5.011248162137998e-01 3.972113933010740e-02 9.223504973155532e-02 6.485646321716981e-02 4.689695012079680e-02 2.231671219534723e-02
120047500.0000000000 1.099625932581969e-01 6.799324333150070e-02 9.919491690606348e-02 2.558064659280220e-02 4.799133196280215e-01 -1.301968910078126e-01 -9.088738615316302e-02 -4.800824886500386e-01
            9.921407833861372e-02 2.569243492799332e-02 1.099816553355090e-01 6.800313746607944e-02 -9.089413936541373e-02 -4.800771648377723e-01 4.798984915664605e-01 -1.301449168447502e-01
            4.798902049020359e-01 -1.302641695430610e-01 -9.099091688826770e-02 -4.800711390091331e-01 8.284751738763925e-02 2.563313118403668e-02 1.245963269777608e-01 4.809984562831018e-02
            -9.092424901742432e-02 -4.801136875399499e-01 4.799093320016889e-01 -1.302249990523261e-01 1.245689865769835e-01 4.817394341360422e-02 8.279335108673282e-02 2.558705951724382e-02
120880000.0000000000 1.336590891494771e-01 4.075094193880645e-02 1.179489684061844e-01 1.101715283264765e-02 4.059688143514447e-01 -2.821030206595351e-01 -2.491934769844598e-01 -4.183849919990084e-01
            1.179470049522941e-01 1.098931306312595e-02 1.335967335266601e-01 4.069133198940347e-02 -2.491533451245723e-01 -4.183057291960481e-01 4.060677342299232e-01 -2.821316257350119e-01
            4.059934294056601e-01 -2.822405338068841e-01 -2.491760027776265e-01 -4.183168941784665e-01 1.092536880406644e-01 6.986384728658311e-03 1.408215604465640e-01 1.541060348655919e-02
            -2.492042161093688e-01 -4.182638909618523e-01 4.059857753553323e-01 -2.821638172240395e-01 1.407845536507941e-01 1.532505740475571e-02 1.092656356154999e-01 7.044433076110941e-03
121712500.0000000000 1.367183972861257e-01 5.767914978484013e-03 1.217730265651557e-01 -1.380211089521201e-02 2.865173867090083e-01 -4.024414623003438e-01 -3.755828365083641e-01 -3.089505974943327e-01
            1.216719989331882e-01 -1.375289052742588e-02 1.367058574294306e-01 5.747580947917972e-03 -3.755419187883027e-01 -3.089187209559726e-01 2.866023852669856e-01 -4.024599739138355e-01
            2.865826345795057e-01 -4.024977500644257e-01 -3.755933141172915e-01 -3.088943286904305e-01 1.160355176722137e-01 -2.217205457753280e-02 1.344010183023136e-01 -2.039797640217399e-02
            -3.756025701912557e-01 -3.089533034893558e-01 2.865973291359343e-01 -4.025557786246470e-01 1.344235352549599e-01 -2.037856298478105e-02 1.160194494682696e-01 -2.220339339223193e-02
122545000.0000000000 1.188145645193897e-01 -2.267167574995229e-02 1.074075529237409e-01 -3.620572443587479e-02 1.316611042932207e-01 -4.771044729365300e-01 -4.592072536670962e-01 -1.653279898571019e-01
            1.073845831399045e-01 -3.624438483554435e-02 1.188047489577291e-01 -2.276384913132730e-02 -4.592093454844964e-01 -1.653996367973684e-01 1.315701438007225e-01 -4.771455764821430e-01
            1.316229071691014e-01 -4.772055920101613e-01 -4.592016564018312e-01 -1.653200929781231e-01 1.012963160485276e-01 -4.746205240121398e-02 1.081478346136593e-01 -4.488954904747013e-02
            -4.591055703666505e-01 -1.653163938007769e-01 1.317256861988391e-01 -4.771266396044805e-01 1.080405546205643e-01 -4.492272518185501e-02 1.013572547190521e-01 -4.750092135425652e-02
123377500.0000000000 8.788240677195380e-02 -3.315329689535042e-02 8.023580157435183e-02 -4.421523351473055e-02 -4.250900257403895e-02 -4.935183435496594e-01 -4.924132462657364e-01 -6.890222367709068e-04
            8.028911456431427e-02 -4.424448537550627e-02 8.789893988047515e-02 -3.313886630641436e-02 -4.923658972423428e-01 -6.864162948708647e-04 -4.245738321382331e-02 -4.935264326092944e-01
            -4.241837180328121e-02 -4.935183687940929e-01 -4.923977857339580e-01 -6.299731113854860e-04 7.260358407443315e-02 -5.592650016611557e-02 7.216980355277815e-02 -4.795147112540681e-02
            -4.924776927011242e-01 -7.064305151615778e-04 -4.241025017862139e-02 -4.935220944332050e-01 7.213039702218900e-02 -4.795448801108395e-02 7.265250527748936e-02 -5.596942467341876e-02
124210000.0000000000 5.840165002631596e-02 -2.074323821312467e-02 5.311544406392326e-02 -3.200607706427680e-02 -2.122382991519360e-01 -4.454455034237638e-01 -4.686647128667494e-01 1.697206580520609e-01
            5.309023831212076e-02 -3.198576834133516e-02 5.839296225749822e-02 -2.055585380716157e-02 -4.686757119403347e-01 1.698020657174249e-01 -2.122277331097237e-01 -4.454332618483431e-01
            -2.122380130467522e-01 -4.454879663237760e-01 -4.686488388662752e-01 1.697684146991600e-01 4.455587560636080e-02 -4.206616913829452e-02 4.250221924255260e-02 -2.726845035247715e-02
            -4.686719738764430e-01 1.698005173105577e-01 -2.122448932584536e-01 -4.454439094500520e-01 4.245421715199284e-02 -2.729476306623321e-02 4.450992182075245e-02 -4.214848459097818e-02
125042500.0000000000 4.550809546860232e-02 8.439350916641634e-03 4.048053920419811e-02 -4.069667254506508e-03 -3.516190980550237e-01 -3.393003535056553e-01 -3.847360377835287e-01 3.256327262090926e-01
            4.041956966236308e-02 -4.054676417087116e-03 4.551853451162080e-02 8.392200822352884e-03 -3.848580124474422e-01 3.255973063973416e-01 -3.515631110442893e-01 -3.392409002201551e-01
            -3.516603578928534e-01 -3.393091835893013e-01 -3.847794681790620e-01 3.256768171226189e-01 3.267391301650088e-02 -1.171229406324650e-02 3.369723129549930e-02 7.848888824242123e-03
            -3.847447632994719e-01 3.257298246017115e-01 -3.515770975187261e-01 -3.392756015500134e-01 3.360134085324006e-02 7.779964751315825e-03 3.273645307957494e-02 -1.174444295491922e-02
125875000.0000000000 5.608891251502817e-02 3.837154025512973e-02 4.968471284022064e-02 2.540948544065617e-02 -4.410590863876883e-01 -1.933025559441796e-01 -2.477340598765485e-01 4.428378770205484e-01
            4.970588368987799e-02 2.534855933898407e-02 5.611675578387987e-02 3.836095760686727e-02 -2.477116220703783e-01 4.427781174132588e-01 -4.411538461753955e-01 -1.933274457184393e-01
            -4.410551453854904e-01 -1.934310061964880e-01 -2.476535576539931e-01 4.428231027738648e-01 4.392943699142250e-02 1.927115089272393e-02 5.005856154423235e-02 3.975794958202476e-02
            -2.477210029218436e-01 4.427297728637651e-01 -4.410977208925074e-01 -1.933686658354292e-01 5.014804829778467e-02 3.982630682368071e-02 4.398114259754605e-02 1.929064238474328e-02
126707500.0000000000 8.414745949230894e-02 5.340815176360329e-02 7.597727964858692e-02 4.100413924875303e-02 -4.735351250572653e-01 -3.078905979169274e-02 -7.692505912375457e-02 5.018953608125869e-01
            7.592482911114155e-02 4.104712402253312e-02 8.416797959472436e-02 5.348104503367788e-02 -7.690099787904921e-02 5.018613964957204e-01 -4.734416231261945e-01 -3.072987569126466e-02
            -4.735101798244134e-01 -3.071138451631955e-02 -7.698796031194166e-02 5.018966059578360e-01 7.242586527186060e-02 3.535790700860302e-02 8.321360830691325e-02 5.264433712959987e-02
            -7.689677829548248e-02 5.018489414251499e-01 -4.735047654207034e-01 -3.067163906230997e-02 8.313368833977262e-02 5.263930648753459e-02 7.241769793467319e-02 3.535642622288229e-02
127540000.0000000000 1.151269095705166e-01 4.652493313222879e-02 1.054362148216458e-01 3.571972598841427e-02 -4.509803744326780e-01 1.290137142060704e-01 1.016022900285860e-01 4.957086311014137e-01
            1.053756275487716e-01 3.574730615295395e-02 1.151601297970659e-01 4.660461554046964e-02 1.015736593255088e-01 4.957414719270640e-01 -4.510368645093450e-01 1.290480579083814e-01
            -4.510381940634910e-01 1.289845306778368e-01 1.015499813966013e-01 4.957946964878653e-01 1.035029592950861e-01 2.954263180824315e-02 1.160607688916971e-01 4.119266219173463e-02
            1.015227665171130e-01 4.957532165942528e-01 -4.510478344800431e-01 1.290254805230901e-01 1.160773382172050e-01 4.120036203818056e-02 1.035730427943281e-01 2.963847306231425e-02
128372500.0000000000 1.344790894109009e-01 2.164194450159775e-02 1.241483496586961e-01 1.290782188811028e-02 -3.795388510877798e-01 2.713542564342480e-01 2.637677169890649e-01 4.295428927836831e-01
            1.241455716050166e-01 1.290400111592572e-02 1.345882249756887e-01 2.161712353468918e-02 2.637387307576314e-01 4.295678971428133e-01 -3.794779631617363e-01 2.714026498608030e-01
            -3.795347270742692e-01 2.714147541962212e-01 2.637271605127108e-01 4.295203158037322e-01 1.232242179353514e-01 6.093391242856387e-03 1.338267348105630e-01 1.187901428539791e-02
            2.636748728001813e-01 4.295307619906632e-01 -3.794938945321358e-01 2.714538098272626e-01 1.337519884547867e-01 1.186648931739746e-02 1.232412657871510e-01 6.140500854972620e-03
129205000.0000000000 1.341577709079089e-01 -9.697448715115416e-03 1.240008837212597e-01 -1.679833206994004e-02 -2.651633797306506e-01 3.835722515962469e-01 3.928673478062197e-01 3.151242593360617e-01
            1.239776312089352e-01 -1.680777637610093e-02 1.342945232303779e-01 -9.783427713122380e-03 3.927930478345427e-01 3.150831349147903e-01 -2.652097847845515e-01 3.837125750917649e-01
            -2.651913171137876e-01 3.835923415489424e-01 3.928136956003783e-01 3.150285127893157e-01 1.234777905982017e-01 -2.386823456686463e-02 1.292195913663614e-01 -2.187370012670637e-02
            3.928432500245150e-01 3.150784037314078e-01 -2.652031086713765e-01 3.836727307401538e-01 1.291946388438056e-01 -2.185910750644372e-02 1.234236683865185e-01 -2.389635993335481e-02
130037500.0000000000 1.142772738464752e-01 -3.406138935446997e-02 1.046640991315240e-01 -3.991961168320742e-02 -1.175514431270858e-01 4.521699748197732e-01 4.777802589794891e-01 1.654986232723058e-01
            1.046551293361230e-01 -3.988884313521493e-02 1.143347189363248e-01 -3.406337861759254e-02 4.777452987300759e-01 1.655468353292119e-01 -1.175751591255219e-01 4.521903534798757e-01
            -1.175619772613311e-01 4.522125975623586e-01 4.777527722337337e-01 1.655407466647989e-01 1.044661079143794e-01 -4.692610130260695e-02 1.043740939182041e-01 -4.534820176023296e-02
            4.777560244873847e-01 1.655850913868821e-01 -1.175554046742345e-01 4.522025093625666e-01 1.043378073289324e-01 -4.536895165663614e-02 1.044267125473147e-01 -4.687605449112161e-02
130870000.0000000000 8.337290499728843e-02 -4.003407516794089e-02 7.423509538357580e-02 -4.528353520425821e-02 4.748601179993518e-02 4.649009294238157e-01 5.102831933852257e-01 -5.620244772252041e-03
            7.422088957744422e-02 -4.531629822200904e-02 8.339654027791203e-02 -4.005640653895393e-02 5.103393325932915e-01 -5.674053419977073e-03 4.744278766654475e-02 4.648301265667676e-01
            4.750088781395251e-02 4.648262242325957e-01 5.102013248090402e-01 -5.592249910556876e-03 7.456849024778660e-02 -5.185209207075851e-02 6.975863343159874e-02 -4.770184180796921e-02
            5.102218895585773e-01 -5.671175467758036e-03 4.747051722516792e-02 4.647520991262341e-01 6.976700379369631e-02 -4.770183090469900e-02 7.455609152973092e-02 -5.198927502424126e-02
131702500.0000000000 5.579996454529150e-02 -2.426218291497952e-02 4.689827550278170e-02 -2.906932430684841e-02 2.068264095640822e-01 4.163582039913989e-01 4.830518475825004e-01 -1.821644979333341e-01
            4.691078581772421e-02 -2.908917725926833e-02 5.585252405816984e-02 -2.424829736985526e-02 4.831442930634049e-01 -1.822542821659497e-01 2.069738115349871e-01 4.162827668173311e-01
            2.069276966106646e-01 4.162895203181451e-01 4.830640775878576e-01 -1.821977784979057e-01 4.840875685214736e-02 -3.558089417574123e-02 4.169490346227189e-02 -2.692467985378218e-02
            4.831164003011826e-01 -1.822161565031940e-01 2.069827977694422e-01 4.163890626042293e-01 4.160203984582111e-02 -2.687035829566312e-02 4.845414740769640e-02 -3.559076173124667e-02
132535000.0000000000 4.610749357016560e-02 5.842480001646932e-03 3.678073706195868e-02 1.513741847731491e-03 3.360847301142506e-01 3.135209480431818e-01 3.935778077103549e-01 -3.422207584539432e-01
            3.686435594207902e-02 1.496799357078397e-03 4.608088358200870e-02 5.806390428114192e-03 3.935724052329861e-01 -3.422139260970087e-01 3.360974026411218e-01 3.135693027415464e-01
            3.360243822685979e-01 3.136299247099337e-01 3.935221293572105e-01 -3.423132451968953e-01 3.990455850063190e-02 -5.542063097557752e-03 3.429953648045632e-02 7.389118875913975e-03
            3.935424015037714e-01 -3.421673108718559e-01 3.360214297658723e-01 3.135481049419956e-01 3.421328799785290e-02 7.387057627631036e-03 3.987754720049614e-02 -5.554878258562422e-03
133367500.0000000000 5.900362911928355e-02 3.432459377185415e-02 4.956603536767336e-02 3.098623983947624e-02 4.173723901598339e-01 1.749339284419441e-01 2.499088663726485e-01 -4.608861811896031e-01
            4.949528582765994e-02 3.099663057741342e-02 5.895743936044250e-02 3.441086282682683e-02 2.499139581383000e-01 -4.609165181652856e-01 4.172632949300706e-01 1.749948757963469e-01
            4.173818614280411e-01 1.750212983430144e-01 2.499652349844351e-01 -4.608730777685240e-01 5.376862035501132e-02 2.238446867958277e-02 5.120876197220834e-02 3.754029131937342e-02
            2.499997940805938e-01 -4.608190173403403e-01 4.173514941306766e-01 1.749762734735937e-01 5.131303788291728e-02 3.753003227661127e-02 5.381572762562700e-02 2.229929791024709e-02
134200000.0000000000 8.715536174656988e-02 4.679849611790467e-02 7.787741027790318e-02 4.440759899787524e-02 4.450587084835346e-01 2.218771802963552e-02 7.309754045401259e-02 -5.191236276710542e-01
            7.784619473409923e-02 4.443065490133385e-02 8.713074191707286e-02 4.673369253321186e-02 7.303766516394200e-02 -5.191241734357206e-01 4.451220429432418e-01 2.209532043580396e-02
            4.451189031055861e-01 2.206990520730862e-02 7.307238980671389e-02 -5.189767639092843e-01 8.216009732918679e-02 3.366330316484777e-02 8.333270709523292e-02 4.858135798566855e-02
            7.309430372210021e-02 -5.190595761126763e-01 4.450259653764340e-01 2.216160090901445e-02 8.338811813595504e-02 4.855770734115265e-02 8.215559177061703e-02 3.371592596452333e-02
135032500.0000000000 1.158809110435238e-01 3.771352680127162e-02 1.072673971468635e-01 3.655997676780288e-02 4.219979425662022e-01 -1.275282178121013e-01 -1.104830434508658e-01 -5.104674842361648e-01
            1.072538306722935e-01 3.649182949316324e-02 1.158794050966452e-01 3.765444344819259e-02 -1.104458172112363e-01 -5.105970241373581e-01 4.219338250177945e-01 -1.274913642879712e-01
            4.219226968841192e-01 -1.275141632790783e-01 -1.104708679882463e-01 -5.105185097098797e-01 1.104175364807095e-01 2.376021435119626e-02 1.139919196648554e-01 3.623401736661831e-02
            -1.104732467149552e-01 -5.105639482609465e-01 4.219132329836909e-01 -1.274549731222287e-01 1.139352585374925e-01 3.629965037607061e-02 1.103810156415210e-01 2.379273075625153e-02
135865000.0000000000 1.318234691136776e-01 1.258006623403600e-02 1.242362074905566e-01 1.222581541812114e-02 3.528208170856367e-01 -2.605815246769960e-01 -2.769047950591363e-01 -4.409245571109683e-01
            1.242554426999355e-01 1.217736598067396e-02 1.317988286243944e-01 1.256518265370683e-02 -2.769167161390685e-01 -4.408606866650065e-01 3.527565593730854e-01 -2.606070861423334e-01
            3.528515995947097e-01 -2.605862163221205e-01 -2.769854332227646e-01 -4.408602301721341e-01 1.253020691816220e-01 -1.559139389659814e-03 1.289583576483992e-01 7.583180111865383e-03
            -2.770093967508515e-01 -4.408030093738844e-01 3.528033133301345e-01 -2.605398057195606e-01 1.290814388502975e-01 7.622049763828341e-03 1.253975544555316e-01 -1.567032189344178e-03
136697500.0000000000 1.280863227223805e-01 -1.653773080230744e-02 1.218701643086470e-01 -1.703446773418935e-02 2.434685211837289e-01 -3.647725441641759e-01 -4.093875134684523e-01 -3.215516108039607e-01
            1.218437207786474e-01 -1.696629746614137e-02 1.279655063688711e-01 -1.662395374660039e-02 -4.094350527907575e-01 -3.215434713399698e-01 2.434394035901863e-01 -3.647643482825719e-01
            2.434411847540902e-01 -3.647125852202122e-01 -4.094413507656337e-01 -3.215459044396453e-01 1.203974343420500e-01 -3.053289593336080e-02 1.221823614150116e-01 -2.387660987823734e-02
            -4.092853140475716e-01 -3.216417926831102e-01 2.433952920203180e-01 -3.646637179287130e-01 1.222682560746137e-01 -2.390189054777282e-02 1.204925523405854e-01 -3.054285316724954e-02
137530000.0000000000 1.062196714713621e-01 -3.668358628994684e-02 1.011121728197426e-01 -3.769954615826045e-02 1.029429558108840e-01 -4.267434561173167e-01 -4.962111216480358e-01 -1.658118911089216e-01
            1.011127817299642e-01 -3.771793644998883e-02 1.061491652396501e-01 -3.678851587560759e-02 -4.962282785434945e-01 -1.657582806456674e-01 1.029468919233419e-01 -4.267526753785261e-01
            1.028123095534689e-01 -4.268250768807757e-01 -4.962493908174787e-01 -1.657859774980206e-01 9.768641990648547e-02 -4.996075411826262e-02 9.650155827382631e-02 -4.378487386975623e-02
            -4.962649575112061e-01 -1.657750084634799e-01 1.028238952142769e-01 -4.267233839368932e-01 9.646001611140752e-02 -4.376750992210319e-02 9.771210767682363e-02 -4.999755889790958e-02
138362500.0000000000 7.605258199853607e-02 -3.783115165900550e-02 7.157979950009258e-02 -3.992010005718669e-02 -5.290098108187921e-02 -4.350377419894862e-01 -5.279161927300579e-01 1.238001174483647e-02
            7.162606126217774e-02 -3.988261794031545e-02 7.603030767740115e-02 -3.777360817257416e-02 -5.279204724500415e-01 1.242494992354978e-02 -5.293424365294451e-02 -4.351024898587137e-01
            -5.288010005742292e-02 -4.350397782280150e-01 -5.278879566979455e-01 1.246745605942901e-02 6.684544208604715e-02 -5.019495463463226e-02 6.326670469517613e-02 -4.233357745291643e-02
            -5.279279400369868e-01 1.248660726858281e-02 -5.285336415730582e-02 -4.351178516052421e-01 6.320491823802957e-02 -4.225554679835171e-02 6.683785331501575e-02 -5.018261204776485e-02
139195000.0000000000 5.232048239276462e-02 -1.829895164868340e-02 4.775076882785580e-02 -2.161359423651706e-02 -2.013255193142858e-01 -3.856206109200147e-01 -4.967827247094879e-01 1.953835204485521e-01
            4.778976970162347e-02 -2.158718226493645e-02 5.241272743398750e-02 -1.825694952998465e-02 -4.966779116372992e-01 1.953790416015651e-01 -2.013026788609310e-01 -3.856955001965807e-01
            -2.012838489285193e-01 -3.856854663597302e-01 -4.967216087706032e-01 1.954750010548540e-01 4.280595652254165e-02 -2.951229801853463e-02 3.862794196901392e-02 -1.863092989256395e-02
            -4.967045847373089e-01 1.953860694361650e-01 -2.012712155772866e-01 -3.857106240592754e-01 3.857610803845531e-02 -1.865643934633204e-02 4.285173520686959e-02 -2.949535039594909e-02
140027500.0000000000 4.794497618178144e-02 1.245053412892975e-02 4.258117765966502e-02 8.177858985286975e-03 -3.192066804029058e-01 -2.867361726231924e-01 -4.006943710327224e-01 3.591412195876560e-01
            4.248883043850690e-02 8.194312083142743e-03 4.800095397129480e-02 1.250556221874362e-02 -4.008199353062046e-01 3.591787537279628e-01 -3.191762604621539e-01 -2.867136840170177e-01
            -3.193091198870941e-01 -2.867651528397550e-01 -4.008397624130677e-01 3.591988369758963e-01 3.827157527816459e-02 2.295611183321119e-03 3.581270979878154e-02 1.595809908612822e-02
            -4.007964511535853e-01 3.592365654543120e-01 -3.192964367898533e-01 -2.867537621847516e-01 3.584239285722560e-02 1.592562784122609e-02 3.828510417862929e-02 2.223301816267690e-03
140860000.0000000000 6.528935513827681e-02 3.830009083816954e-02 5.891550230867616e-02 3.348192583763725e-02 -3.918755855528736e-01 -1.562600476089333e-01 -2.503774818565792e-01 4.783148020429157e-01
            5.887368488050462e-02 3.350502545911169e-02 6.526960069269422e-02 3.831638430437247e-02 -2.503194800981781e-01 4.783348316790000e-01 -3.918815779677894e-01 -1.562364813755525e-01
            -3.918355334566456e-01 -1.562703663517223e-01 -2.503150408688437e-01 4.783443055576255e-01 5.578950416341855e-02 2.896298948915887e-02 5.669747637249005e-02 4.382294715889849e-02
            -2.503458487606214e-01 4.783270785847838e-01 -3.918305080100235e-01 -1.563248040369587e-01 5.660833279542159e-02 4.374094054623413e-02 5.572929504466587e-02 2.896804524296456e-02
141692500.0000000000 9.512846687269348e-02 4.617888088520627e-02 8.767565203250580e-02 4.128949689639001e-02 -4.150384805492371e-01 -1.409112729024190e-02 -6.780893589732297e-02 5.346690056432801e-01
            8.758267084393706e-02 4.130019728896300e-02 9.523133918057107e-02 4.618373044036081e-02 -6.777714621980617e-02 5.346788457690094e-01 -4.150525045872246e-01 -1.409197174951847e-02
            -4.149815464435920e-01 -1.410208861916038e-02 -6.777093987561326e-02 5.346741981161600e-01 8.561048694819257e-02 3.764896631877516e-02 9.025843380538734e-02 5.109428910572948e-02
            -6.773477117421503e-02 5.346437536172254e-01 -4.149940309064911e-01 -1.407308385781232e-02 9.025466499939984e-02 5.117180231226131e-02 8.565911942886349e-02 3.755074033857043e-02
142525000.0000000000 1.227229167548872e-01 3.278287458245457e-02 1.141316200205888e-01 2.844746665509825e-02 -3.917262843838952e-01 1.244507152380508e-01 1.199624375608695e-01 5.231184262508620e-01
            1.140935391407151e-01 2.847621065786187e-02 1.228835352692471e-01 3.281319231631665e-02 1.199809147687676e-01 5.231695613134761e-01 -3.916983884852435e-01 1.245127372735400e-01
            -3.916689188235077e-01 1.245831424854678e-01 1.199074632443158e-01 5.231767088544512e-01 1.130378147332603e-01 2.543117340970101e-02 1.202654662710783e-01 3.553277761993779e-02
            1.199477982615198e-01 5.231305534971598e-01 -3.916695331918942e-01 1.245013807944836e-01 1.202080151209835e-01 3.555705550711963e-02 1.129871931459806e-01 2.536737603068795e-02
143357500.0000000000 1.356912788657951e-01 5.234101322016594e-03 1.260254241162634e-01 1.646277438682823e-03 -3.258554794009567e-01 2.478346266034673e-01 2.896840602317245e-01 4.498292703907475e-01
            1.259798441846194e-01 1.538243094429259e-03 1.356971800156200e-01 5.287479507087933e-03 2.896944576661118e-01 4.498525978131229e-01 -3.258684033235900e-01 2.478016016022790e-01
            -3.259000769073645e-01 2.478213113080814e-01 2.896344457552644e-01 4.498524388286372e-01 1.260513055052357e-01 -6.589490278589896e-04 1.334688578271422e-01 5.044767283520532e-03
            2.896863656496474e-01 4.497739818296176e-01 -3.259071088182066e-01 2.478574558310206e-01 1.334911796456240e-01 4.950153956548976e-03 1.259614528495503e-01 -6.307106087985250e-04
144190000.0000000000 1.283426349275799e-01 -2.436277537076996e-02 1.180777132604400e-01 -2.714794486795912e-02 -2.223074785866817e-01 3.440611181815055e-01 4.245278779256565e-01 3.260672386700309e-01
            1.180216223576496e-01 -2.721398958445313e-02 1.284572968948909e-01 -2.430000427493359e-02 4.245077885339857e-01 3.261304091302294e-01 -2.223113035897835e-01 3.440270370730166e-01
            -2.223657783977025e-01 3.440420672397794e-01 4.244935720011664e-01 3.260942949835758e-01 1.193906860183766e-01 -2.858740850422077e-02 1.246564293906770e-01 -2.690947420153040e-02
            4.244909854059515e-01 3.260832671993524e-01 -2.223026989608971e-01 3.441212415592866e-01 1.247251862468113e-01 -2.688327264404919e-02 1.194240572374149e-01 -2.854881441999301e-02
145022500.0000000000 1.038350319355344e-01 -4.294089871648651e-02 9.294563670152546e-02 -4.452715619114327e-02 -8.968671948188195e-02 4.002090927097685e-01 5.123768610151855e-01 1.649592609863712e-01
            9.298490063567091e-02 -4.459048626136992e-02 1.038386094317405e-01 -4.290087339520077e-02 5.123184501387469e-01 1.649905341468162e-01 -8.960121559403526e-02 4.001747706008327e-01
            -8.968841987969590e-02 4.002565317716315e-01 5.122901999579049e-01 1.650311933148451e-01 9.650914252667471e-02 -4.556634016701155e-02 9.787269925901131e-02 -4.598634437421899e-02
            5.123281468804988e-01 1.649171772742923e-01 -8.966186964209641e-02 4.002774110020031e-01 9.783132364314284e-02 -4.606046432401005e-02 9.651342633646190e-02 -4.552361493186623e-02
145855000.0000000000 7.280539832079656e-02 -4.145571701994191e-02 6.155858949566911e-02 -4.192114599119801e-02 5.647235384783581e-02 4.052590609216400e-01 5.429251239462701e-01 -1.917914838839076e-02
            6.153971037643954e-02 -4.185065105997025e-02 7.278681397227194e-02 -4.154297808028445e-02 5.428869336107177e-01 -1.908025725597941e-02 5.639919251180802e-02 4.052462422933134e-01
            5.644300332327826e-02 4.052278892635515e-01 5.429694683640595e-01 -1.909708285719602e-02 6.770299620440630e-02 -4.323686712243723e-02 6.481049082703831e-02 -4.353016968877080e-02
            5.429321600452190e-01 -1.909054267838270e-02 5.644240634440251e-02 4.052573054372436e-01 6.477632160365786e-02 -4.351128445773021e-02 6.772507540040615e-02 -4.333995597642105e-02
146687500.0000000000 4.998965774591356e-02 -1.995175992922104e-02 3.886942263896897e-02 -1.886362808399439e-02 1.941565708982106e-01 3.559887332216166e-01 5.081364431048883e-01 -2.070781775526455e-01
            3.884377581182092e-02 -1.894298131042074e-02 5.005507076760474e-02 -2.005738057144280e-02 5.081313344411493e-01 -2.071243501872538e-01 1.940314985278929e-01 3.560392650268588e-01
            1.941500654379974e-01 3.560299947158844e-01 5.080903225182050e-01 -2.071110669726099e-01 4.752278211093452e-02 -2.204884994476002e-02 4.146832467595712e-02 -2.007639352139391e-02
            5.081110062599582e-01 -2.071376190121992e-01 1.940641481660078e-01 3.560548215751609e-01 4.141016788874010e-02 -2.004899252037393e-02 4.753974905703158e-02 -2.206133399878709e-02
147520000.0000000000 4.729242880322762e-02 1.097196979884164e-02 3.672138616384507e-02 1.368632006089532e-02 3.018457400797894e-01 2.614275686368572e-01 4.069339488025302e-01 -3.739176432460137e-01
            3.673631980280993e-02 1.373905334006773e-02 4.727682979309574e-02 1.087554270637333e-02 4.069231655547939e-01 -3.738525334252990e-01 3.019766531248587e-01 2.614167634853592e-01
            3.018309673545867e-01 2.614447604162708e-01 4.069148449198108e-01 -3.739780297149840e-01 4.708279458125765e-02 7.559980176178819e-03 3.981001039334490e-02 1.261981874584413e-02
            4.070716999352040e-01 -3.739100889154457e-01 3.018557378181164e-01 2.614849740702921e-01 3.981903698292709e-02 1.269286095876710e-02 4.710507837127909e-02 7.516568048812903e-03
148352500.0000000000 6.554571467486438e-02 3.528234498803604e-02 5.625738554475554e-02 3.953556742001021e-02 3.667286429842815e-01 1.389395444071211e-01 2.510312721667868e-01 -4.938321067580267e-01
            5.628133044875719e-02 3.950290669398825e-02 6.555773878657677e-02 3.537548006759322e-02 2.510450136589314e-01 -4.937822655075421e-01 3.667004575933382e-01 1.389619591242021e-01
            3.667607652062412e-01 1.389468127089339e-01 2.510307859866414e-01 -4.937656187889421e-01 6.674497728742647e-02 2.957038367441727e-02 6.012184103643160e-02 3.737685117057692e-02
            2.510094037571373e-01 -4.937376713099877e-01 3.667715163269468e-01 1.389773726858025e-01 6.013830585069994e-02 3.745865816719252e-02 6.686501035770223e-02 2.951333384650743e-02
149185000.0000000000 9.452994224628519e-02 4.107730194341128e-02 8.703125951992134e-02 4.628861519940871e-02 3.860623263215942e-01 6.655895470552696e-03 6.351374873195136e-02 -5.490330101910513e-01
            8.696703000812774e-02 4.622847803030623e-02 9.449476827738008e-02 4.110757834635882e-02 6.356645127537693e-02 -5.490886739561726e-01 3.860345011433393e-01 6.662018727853752e-03
            3.859090695908448e-01 6.685859060386036e-03 6.350157709741495e-02 -5.491548094908717e-01 9.580204730661861e-02 3.277955489672289e-02 9.097609079821123e-02 4.212403833201241e-02
            6.352378553208968e-02 -5.491106420296009e-01 3.859936912047378e-01 6.754132050766360e-03 9.084020495814631e-02 4.219792274562655e-02 9.586135914736484e-02 3.279253608643339e-02
150017500.0000000000 1.194189318401489e-01 2.685678226539678e-02 1.140273110766443e-01 3.227872830172215e-02 3.622425409363528e-01 -1.218102570979827e-01 -1.284461610383711e-01 -5.353976342788119e-01
            1.140242192784327e-01 3.218904183938179e-02 1.194695517689716e-01 2.692612871705747e-02 -1.284341351365650e-01 -5.354108208734023e-01 3.623553389066606e-01 -1.219083004015338e-01
            3.622545601667056e-01 -1.218856122017286e-01 -1.283896245031678e-01 -5.353077725220641e-01 1.196828137599219e-01 1.634091177652893e-02 1.164177125788818e-01 2.569057494232480e-02
            -1.284300748787913e-01 -5.353924421936705e-01 3.622939358158778e-01 -1.218254913914381e-01 1.164583907831953e-01 2.577149361307510e-02 1.197026304527837e-01 1.633480390608079e-02
150850000.0000000000 1.290511363573277e-01 3.762689565229748e-04 1.256739752909610e-01 5.042350461873957e-03 2.990192182527124e-01 -2.358931393838440e-01 -3.017978352174430e-01 -4.588837109279971e-01
            1.257077991852991e-01 5.060441246156530e-03 1.290419037300772e-01 3.611891550876384e-04 -3.018195198182544e-01 -4.588766969929414e-01 2.990488548404946e-01 -2.358328591763882e-01
            2.990932019624752e-01 -2.358972760959825e-01 -3.017973674872751e-01 -4.589301983522812e-01 1.273803379685459e-01 -1.154043707527586e-02 1.249291931436732e-01 -3.014080689715472e-03
            -3.018527339517096e-01 -4.588551746658195e-01 2.991308703988391e-01 -2.358405880137094e-01 1.249294520604776e-01 -3.065185467305113e-03 1.273599728895796e-01 -1.151393072592860e-02
151682500.0000000000 1.192580236051841e-01 -2.593193043597609e-02 1.175500425151846e-01 -2.276974255688402e-02 2.006331179538088e-01 -3.238793476972477e-01 -4.395563835475333e-01 -3.306623822214298e-01
            1.175060677657521e-01 -2.276862447246065e-02 1.193185433595293e-01 -2.595360093960551e-02 -4.395494289276026e-01 -3.306574077260165e-01 2.006289965644212e-01 -3.238972950504210e-01
            2.006557374442433e-01 -3.238690035788028e-01 -4.395699170290543e-01 -3.306344596501832e-01 1.155570515607881e-01 -3.834895907344313e-02 1.127059208898019e-01 -3.071473148639836e-02
            -4.395535555420557e-01 -3.306711994377521e-01 2.006534598327563e-01 -3.238816455594471e-01 1.127053815392399e-01 -3.066160036126595e-02 1.156447060461074e-01 -3.848108002647702e-02
152515000.0000000000 9.434087438325854e-02 -3.994351291660371e-02 9.348240377555724e-02 -3.874617839748967e-02 7.550238664972571e-02 -3.734631181181618e-01 -5.285182814624415e-01 -1.636163271449671e-01
            9.345251448907935e-02 -3.873538089421971e-02 9.444957626034972e-02 -3.992069119199547e-02 -5.285672605612269e-01 -1.636880036348989e-01 7.544875801461084e-02 -3.734533796393225e-01
            7.554299961671898e-02 -3.734925599977213e-01 -5.285506822061429e-01 -1.636226500931123e-01 8.887374199423406e-02 -5.201423118797808e-02 8.481934139215637e-02 -4.422679956367311e-02
            -5.284680353750149e-01 -1.636581775557608e-01 7.553108533313745e-02 -3.734144761383293e-01 8.478304542258788e-02 -4.408964549377743e-02 8.896536054909775e-02 -5.201682141815300e-02
153347500.0000000000 6.586488715099330e-02 -3.409221066729852e-02 6.485101967492883e-02 -3.490615218643350e-02 -6.058455913375088e-02 -3.743830083253039e-01 -5.575530025570499e-01 2.679506189080225e-02
            6.482264986208611e-02 -3.496778354076261e-02 6.579516324421447e-02 -3.403037363890879e-02 -5.576136530111843e-01 2.665608340210458e-02 -6.054268668469711e-02 -3.743670419223122e-01
            -6.050464332989142e-02 -3.744520651680504e-01 -5.575794548588882e-01 2.671256833172554e-02 5.907322660177487e-02 -4.518880981022216e-02 5.386146686033687e-02 -3.600444952745924e-02
            -5.575832343284732e-01 2.676682971417689e-02 -6.063147663944906e-02 -3.744323685880236e-01 5.397335453571776e-02 -3.596629312613756e-02 5.905345242951033e-02 -4.514841124107882e-02
154180000.0000000000 4.789152498881146e-02 -1.030028173825557e-02 4.608664424429087e-02 -1.304804195213311e-02 -1.866664338227696e-01 -3.250181698416908e-01 -5.185099539409966e-01 2.197256077029485e-01
            4.608146536230597e-02 -1.306399052380068e-02 4.792068945437360e-02 -1.038388572498055e-02 -5.184498671431740e-01 2.198273960885948e-01 -1.867001492838273e-01 -3.251051161993686e-01
            -1.867158938355090e-01 -3.251486740948070e-01 -5.184851769004848e-01 2.197837659862491e-01 4.043472667980239e-02 -2.034517482680212e-02 3.556473906350942e-02 -8.795521359789275e-03
            -5.184622970241192e-01 2.197687242306626e-01 -1.866250322785095e-01 -3.250035675118043e-01 3.554698530104325e-02 -8.800832695320343e-03 4.044226177403896e-02 -2.031961277335407e-02
155012500.0000000000 5.056812776637187e-02 1.954140953149221e-02 4.723366750550000e-02 1.560303818822472e-02 -2.834130948699703e-01 -2.352087056368551e-01 -4.113687471374886e-01 3.889082388044325e-01
            4.727847452952585e-02 1.561414299803511e-02 5.051087783354435e-02 1.960239131482009e-02 -4.114036260036711e-01 3.889933663028403e-01 -2.834425933765110e-01 -2.352489910595386e-01
            -2.834234342988060e-01 -2.353029436491142e-01 -4.114222358039678e-01 3.889929174930754e-01 4.277391375684919e-02 1.042756177717513e-02 3.966936566137778e-02 2.422197510661621e-02
            -4.114559959653383e-01 3.889701383112422e-01 -2.834214137789632e-01 -2.352490069300046e-01 3.972088572066774e-02 2.417134908241121e-02 4.281611482991202e-02 1.042573214989141e-02
155845000.0000000000 7.224846177570786e-02 3.991158626337777e-02 6.719649617247456e-02 3.564583751054080e-02 -3.403432041154907e-01 -1.214594369100155e-01 -2.499152959385291e-01 5.084854310305881e-01
            6.717453293208497e-02 3.563080735208861e-02 7.222372726262141e-02 4.000690056530912e-02 -2.498205269532646e-01 5.083942690596831e-01 -3.403072679702722e-01 -1.215074907340865e-01
            -3.403736274734066e-01 -1.215828502897892e-01 -2.499040422139152e-01 5.083772373542854e-01 6.430117177307167e-02 3.135813532037500e-02 6.436511946792693e-02 4.620288953419569e-02
            -2.498528677846401e-01 5.084479363297013e-01 -3.403361030460489e-01 -1.214633218972178e-01 6.439630093892529e-02 4.621594055862510e-02 6.428547691458598e-02 3.133228129645736e-02
156677500.0000000000 1.015123967390852e-01 4.110651673574409e-02 9.481278999008334e-02 3.695102316852843e-02 -3.557928006264803e-01 2.243525289408241e-04 -5.810807193200246e-02 5.618412475148634e-01
            9.480461910314428e-02 3.693492566601555e-02 1.014916683400931e-01 4.100481191981425e-02 -5.805762825372345e-02 5.618594913148525e-01 -3.558306753238605e-01 1.615261568014609e-04
            -3.558648664345015e-01 1.914644638944881e-04 -5.807536530525863e-02 5.619039773415424e-01 9.312264612500951e-02 3.291362646360153e-02 9.665016527190252e-02 4.692653508526178e-02
            -5.808252274694443e-02 5.618390096685589e-01 -3.557865774095186e-01 2.900903065577442e-04 9.673076447960642e-02 4.689810366632000e-02 9.301673317203332e-02 3.287446130614709e-02
157510000.0000000000 1.240387786895448e-01 2.333063504426599e-02 1.160404559148089e-01 2.005841152366128e-02 -3.322160100484861e-01 1.182377124063256e-01 1.373458621640135e-01 5.457595910320880e-01
            1.159894237336033e-01 1.997731803909349e-02 1.240436052491927e-01 2.324991938730511e-02 1.373542986632779e-01 5.457513175109722e-01 -3.321674269852986e-01 1.182596901114058e-01
            -3.322187141394773e-01 1.182560848779295e-01 1.373568944631049e-01 5.457639490157729e-01 1.149266644864742e-01 1.578886443222599e-02 1.213580640497978e-01 2.722707524938380e-02
            1.373617922685945e-01 5.458190611035025e-01 -3.321884048243782e-01 1.183063457405663e-01 1.213202658237275e-01 2.722874637127552e-02 1.148919244127123e-01 1.568304482576310e-02
158342500.0000000000 1.299285392487216e-01 -4.524391135579458e-03 1.210889612079779e-01 -6.480518827975811e-03 -2.720318493575661e-01 2.228691866699637e-01 3.136846863726380e-01 4.662007525605837e-01
            1.210608440341839e-01 -6.551585806996507e-03 1.298909926463585e-01 -4.592586031351362e-03 3.135986016979821e-01 4.662149020068468e-01 -2.720712240882298e-01 2.227428843052719e-01
            -2.719694679668703e-01 2.228114403607559e-01 3.136174602146271e-01 4.661507361369316e-01 1.200272999383927e-01 -1.079841996432389e-02 1.276469834970200e-01 -3.003858052078708e-03
            3.136621246378866e-01 4.662250659846885e-01 -2.719570026836362e-01 2.228110095157615e-01 1.277167048574679e-01 -2.957666708662949e-03 1.200774541474234e-01 -1.084498941537557e-02
159175000.0000000000 1.165603527656869e-01 -2.983370998150089e-02 1.075008639952599e-01 -3.025334611627379e-02 -1.790196007096077e-01 3.027141260322407e-01 4.536516006690978e-01 3.337342521303337e-01
            1.075310286893807e-01 -3.027544435203536e-02 1.166079054099581e-01 -2.979796828547354e-02 4.536783743619257e-01 3.337196331892666e-01 -1.790303675500859e-01 3.027291984307684e-01
            -1.790043646392230e-01 3.027279870740266e-01 4.537304782901435e-01 3.338120635067151e-01 1.065140524864486e-01 -3.454817609513986e-02 1.133866077451722e-01 -3.002686716185891e-02
            4.537898228368390e-01 3.336867868474521e-01 -1.790321969570332e-01 3.027706555924665e-01 1.134220745751545e-01 -3.000792023876780e-02 1.065373364016731e-01 -3.453433473002347e-02
160007500.0000000000 8.967158731686106e-02 -4.062890124962598e-02 8.109072178455153e-02 -3.959938350062332e-02 -6.180039477621230e-02 3.456849621322134e-01 5.435324286961615e-01 1.612311544035344e-01
            8.112812287994860e-02 -3.960336826802562e-02 8.975742241330975e-02 -4.066071674584788e-02 5.435003980173447e-01 1.611983413785707e-01 -6.179266698659632e-02 3.456439648073425e-01
            -6.178077932362747e-02 3.456922498476235e-01 5.434573939664523e-01 1.611406643105260e-01 8.006910940485849e-02 -4.360139672282835e-02 8.487183817758841e-02 -4.139730129783677e-02
            5.434451868992644e-01 1.611545907836359e-01 -6.182397049707392e-02 3.456556974922594e-01 8.491066980860620e-02 -4.136782935427007e-02 8.014268541749200e-02 -4.361137777230688e-02
160840000.0000000000 6.181064309804407e-02 -3.106596582459803e-02 5.419748027541753e-02 -2.887180247812696e-02 6.395095155072371e-02 3.426393194239946e-01 5.706288457682387e-01 -3.515686706045344e-02
            5.416767196268998e-02 -2.885838572639338e-02 6.175575928797110e-02 -3.116836377743792e-02 5.706336459294825e-01 -3.512246872139440e-02 6.395583709786544e-02 3.425982552278475e-01
            6.389959030376120e-02 3.426050142884540e-01 5.706152956049025e-01 -3.514312431744326e-02 5.330249280393646e-02 -3.276003958808824e-02 5.559164800872168e-02 -3.087805753804220e-02
            5.707057654950421e-01 -3.510997342310359e-02 6.385980251885034e-02 3.426068359815406e-01 5.553091142715353e-02 -3.096078082265420e-02 5.318078387605640e-02 -3.262305380507877e-02
161672500.0000000000 4.693712993703049e-02 -5.178083799129899e-03 4.094937035427816e-02 -2.286124219813768e-03 1.780369030359372e-01 2.935369348488847e-01 5.269533964997988e-01 -2.326359815287475e-01
            4.092280240445501e-02 -2.215745431460295e-03 4.690251307220078e-02 -5.202410050200039e-03 5.268671515736111e-01 -2.325259709635936e-01 1.780186094435144e-01 2.936270559028894e-01
            1.780559450280128e-01 2.936745251019630e-01 5.268931579533629e-01 -2.326728247578529e-01 3.998858510149942e-02 -5.799607892617333e-03 4.060400336019395e-02 -3.199650577044815e-03
            5.268479012897674e-01 -2.325486754239368e-01 1.780333200808121e-01 2.936545154571163e-01 4.064375149510547e-02 -3.225077404298277e-03 3.996762778785759e-02 -5.770181633122635e-03
162505000.0000000000 5.316764749252936e-02 2.413678198473749e-02 4.901621088151836e-02 2.689026537799064e-02 2.635824024295970e-01 2.090745156037941e-01 4.138264067285213e-01 -4.033797093535655e-01
            4.902391638289611e-02 2.682848180591427e-02 5.324540122719091e-02 2.421307757853470e-02 4.139032838252932e-01 -4.034359986312384e-01 2.636145133603060e-01 2.090330663531551e-01
            2.635922326506540e-01 2.090893169894352e-01 4.138605810335785e-01 -4.033948584681796e-01 4.792341860823664e-02 2.361802977641319e-02 4.826796798460272e-02 2.751005761345494e-02
            4.139551152784909e-01 -4.033939841467316e-01 2.636229605242311e-01 2.091289040811171e-01 4.832553527624105e-02 2.753663835149757e-02 4.787091108645749e-02 2.364322206952203e-02
163337500.0000000000 7.701421648707210e-02 4.165070229910175e-02 7.448308416589022e-02 4.328756825100789e-02 3.125217877312887e-01 1.047011024191934e-01 2.470893543750030e-01 -5.217942084046850e-01
            7.445485910036914e-02 4.336143422591424e-02 7.692036497411135e-02 4.171779683533036e-02 2.470380394310361e-01 -5.216927424014797e-01 3.125633834747502e-01 1.047011336065671e-01
            3.125581050864799e-01 1.047005581751778e-01 2.470527324242253e-01 -5.218445676248721e-01 7.290915260877895e-02 4.056183935071760e-02 7.437445131449960e-02 4.525909986669707e-02
            2.470112625425332e-01 -5.218516445434255e-01 3.125454199146368e-01 1.047501469481864e-01 7.442195875451321e-02 4.523936750159438e-02 7.279750717431591e-02 4.056313277976722e-02
164170000.0000000000 1.058096712389357e-01 3.944231491033091e-02 1.042445479190827e-01 3.922059098234811e-02 3.246234739366340e-01 -5.914990981565523e-03 5.138710250811084e-02 -5.726621346053985e-01
            1.042232385695690e-01 3.923415259192855e-02 1.058173093744487e-01 3.941330895498725e-02 5.141965976239068e-02 -5.726852028729786e-01 3.245829820754282e-01 -5.829727887103055e-03
            3.245959890428923e-01 -5.929042037399827e-03 5.138570053917824e-02 -5.726849745448191e-01 1.022045551512557e-01 3.757226358818124e-02 1.054508952672429e-01 4.147408041842415e-02
            5.139086515108349e-02 -5.726972092456767e-01 3.246356196460588e-01 -5.824230956331996e-03 1.054373468906617e-01 4.145347083742798e-02 1.022067530924305e-01 3.750195925709699e-02
165002500.0000000000 1.259112772366896e-01 1.965238824836511e-02 1.243426846922098e-01 1.726614657351438e-02 3.015632721623765e-01 -1.129759158952534e-01 -1.464607907511818e-01 -5.536756379358254e-01
            1.243378005298078e-01 1.724084778686643e-02 1.259724657898845e-01 1.965503204689616e-02 -1.464727712742507e-01 -5.536251649086588e-01 3.016476155839183e-01 -1.130189651568955e-01
            3.016239745088075e-01 -1.130059379464261e-01 -1.464588447275142e-01 -5.536535295604120e-01 1.222607552747746e-01 1.716459226704413e-02 1.265612238996147e-01 1.888492134097478e-02
            -1.465457287332333e-01 -5.536303851285260e-01 3.016682835818085e-01 -1.129460140027329e-01 1.266883189042816e-01 1.891941453022730e-02 1.222771220831332e-01 1.715572759408796e-02
165835000.0000000000 1.287853447979733e-01 -8.171082137810232e-03 1.260404465451225e-01 -1.268995175107668e-02 2.453212879854309e-01 -2.080397472388906e-01 -3.246723473658231e-01 -4.709043795056879e-01
            1.259680955826185e-01 -1.265010679970585e-02 1.288077232223621e-01 -8.225396508891510e-03 -3.247674807719779e-01 -4.709061578827956e-01 2.453130126050511e-01 -2.079621150876754e-01
            2.453038385395666e-01 -2.080289565573933e-01 -3.246570838806890e-01 -4.709130337053332e-01 1.248890931320684e-01 -1.065018279645471e-02 1.288192346575661e-01 -1.183862803374177e-02
            -3.245740257418739e-01 -4.709824942787008e-01 2.453730120595329e-01 -2.080439813210224e-01 1.287831094455205e-01 -1.181955955182529e-02 1.248520079159623e-01 -1.065167343962137e-02
166667500.0000000000 1.132172974729606e-01 -3.143167294191334e-02 1.083266464906747e-01 -3.717885384684855e-02 1.588188840949654e-01 -2.800996116473971e-01 -4.658800454468175e-01 -3.348364396116680e-01
            1.082723046554337e-01 -3.714056879992893e-02 1.131487012050321e-01 -3.147180324308427e-02 -4.658565339829709e-01 -3.348555453507086e-01 1.586256303820853e-01 -2.800651312264090e-01
            1.587501251317822e-01 -2.801203357453087e-01 -4.658548345124885e-01 -3.347542526026299e-01 1.091926570372364e-01 -3.337091504878031e-02 1.110230493852071e-01 -3.717916005395384e-02
            -4.658365705008576e-01 -3.348734336945406e-01 1.587932850560374e-01 -2.800802875999769e-01 1.110679235066935e-01 -3.719552058730007e-02 1.092490629572380e-01 -3.331900984376182e-02
167500000.0000000000 8.587289452465713e-02 -3.916669824249516e-02 7.846642542945124e-02 -4.485403577521014e-02 4.994368849215102e-02 -3.173995122359126e-01 -5.555688808357294e-01 -1.579063062411658e-01
            7.855389616267519e-02 -4.493119798364784e-02 8.582915336260324e-02 -3.918615561922663e-02 -5.555956279704815e-01 -1.578596028948027e-01 5.000979848091431e-02 -3.173810703048895e-01
            5.000629242893505e-02 -3.173205494991787e-01 -5.556862450546078e-01 -1.578915946778160e-01 8.243720803374277e-02 -4.045312953310454e-02 8.069134187495780e-02 -4.548804072116873e-02
            -5.556831622047512e-01 -1.579049394384358e-01 5.005427608169825e-02 -3.173701985656903e-01 8.077815120429578e-02 -4.549302242083491e-02 8.237654460497605e-02 -4.047288526479290e-02
168332500.0000000000 5.969068262535245e-02 -2.677106610595042e-02 5.020443156583917e-02 -3.133945312954924e-02 -6.537975973365712e-02 -3.115365505625308e-01 -5.809224366617819e-01 4.284620740005905e-02
            5.028400947608385e-02 -3.132776250925407e-02 5.974260274870529e-02 -2.690733366741360e-02 -5.808713673033326e-01 4.273212895712925e-02 -6.538094787268274e-02 -3.115588313086861e-01
            -6.536658970887604e-02 -3.115079836049973e-01 -5.808846827007950e-01 4.282707827749623e-02 5.724218713776122e-02 -2.772379038206078e-02 5.197874775676967e-02 -3.209800910877530e-02
            -5.808430283093711e-01 4.280134372101033e-02 -6.524997249261472e-02 -3.115390388693204e-01 5.191426335815722e-02 -3.205862381553944e-02 5.719512908900054e-02 -2.766859877436861e-02
169165000.0000000000 4.833612103654192e-02 -2.873481552043935e-05 3.761742141423398e-02 -2.172600738941899e-03 -1.682625193434830e-01 -2.635909638025072e-01 -5.333718444175608e-01 2.435902259364224e-01
            3.763955764506381e-02 -2.073326258476870e-03 4.824681089415472e-02 1.090214678969824e-04 -5.333373256485575e-01 2.435770778673339e-01 -1.683416835961531e-01 -2.636528361204205e-01
            -1.683115202642655e-01 -2.636739430866543e-01 -5.333873205725069e-01 2.435810398682022e-01 4.699793747303520e-02 -8.443216764137325e-04 3.921718351236227e-02 -2.891319713845431e-03
            -5.334274471998167e-01 2.434999852343309e-01 -1.683390627874342e-01 -2.636819144748911e-01 3.926761480910326e-02 -2.956922923318619e-03 4.706262407054829e-02 -8.494754191889334e-04
169997500.0000000000 5.782905588060462e-02 2.768453023205007e-02 4.739886813523866e-02 2.793072888032512e-02 -2.438352949016893e-01 -1.845486753322773e-01 -4.157989449578104e-01 4.154870966340527e-01
            4.738920022737752e-02 2.790721555073656e-02 5.789564395406246e-02 2.769626954294485e-02 -4.157982716947933e-01 4.154628160395893e-01 -2.437830266050235e-01 -1.845430916970707e-01
            -2.438204646065210e-01 -1.845449849179435e-01 -4.156880584877050e-01 4.155090833926312e-01 5.760222108560786e-02 2.592612439045420e-02 4.904921614143454e-02 2.707412425042663e-02
            -4.157844982980743e-01 4.154617186563106e-01 -2.438535356598014e-01 -1.845456669119597e-01 4.900479334473098e-02 2.703743621888564e-02 5.771004987500951e-02 2.596289532918163e-02
170830000.0000000000 8.304298482014960e-02 4.169760222057568e-02 7.391971509127818e-02 4.372982349605009e-02 -2.856857391785398e-01 -8.897686917858627e-02 -2.447359280677232e-01 5.332040068664553e-01
            7.398736004590338e-02 4.376343616616805e-02 8.299254764018768e-02 4.160683492596828e-02 -2.446619941268292e-01 5.332005251304049e-01 -2.856628576907173e-01 -8.894689072867146e-02
            -2.856068364404502e-01 -8.894348318091067e-02 -2.446985572092175e-01 5.332551031607397e-01 8.333508366583220e-02 3.883110107946054e-02 7.575779469988704e-02 4.255890328548698e-02
            -2.447042242856132e-01 5.332760786272580e-01 -2.856565081578058e-01 -8.894538616385678e-02 7.577531671301080e-02 4.255912691752749e-02 8.337648111690119e-02 3.889874500132093e-02
171662500.0000000000 1.106712651390456e-01 3.573792065371704e-02 1.037114291097109e-01 3.877440038209703e-02 -2.944451245330286e-01 1.135005584072903e-02 -4.584788940371106e-02 5.824238233135204e-01
            1.038002004315014e-01 3.871056640752219e-02 1.106150552938246e-01 3.585036590169068e-02 -4.583659265734692e-02 5.824253915292583e-01 -2.943666062409992e-01 1.135842834341310e-02
            -2.943514094926358e-01 1.125759361970763e-02 -4.585583010978603e-02 5.824174582129310e-01 1.107571934025382e-01 3.191058745986959e-02 1.053338130611845e-01 3.687219767643640e-02
            -4.581586884919008e-02 5.823939752905006e-01 -2.944099253939060e-01 1.133678187441833e-02 1.054253290933824e-01 3.681241536645621e-02 1.108453820931515e-01 3.193626523069556e-02
172495000.0000000000 1.275472735836533e-01 1.388246196417692e-02 1.228632654920212e-01 1.612003513471110e-02 -2.717870926463726e-01 1.082376710234009e-01 1.548113251912749e-01 5.611782138892121e-01
            1.228291737765809e-01 1.620666224072908e-02 1.275256540797303e-01 1.396163829976077e-02 1.547202008001171e-01 5.611433880209666e-01 -2.717065813962976e-01 1.082526824370168e-01
            -2.717364358030818e-01 1.082207690156957e-01 1.547512774450510e-01 5.611509744525842e-01 1.271866239704617e-01 9.345973852185293e-03 1.237468913390330e-01 1.377127741298736e-02
            1.547847616286168e-01 5.612351421014872e-01 -2.717583034714113e-01 1.082151683875032e-01 1.237731881587852e-01 1.371526672951549e-02 1.271006484621325e-01 9.389417174033805e-03
173327500.0000000000 1.264548750741178e-01 -1.356934411741111e-02 1.231355929989772e-01 -1.288638840753921e-02 -2.187430967660581e-01 1.937276725051249e-01 3.351749430250741e-01 4.756021620385004e-01
            1.231620634317648e-01 -1.293253308368412e-02 1.264516796519518e-01 -1.358588665381623e-02 3.352386247019978e-01 4.756078607094140e-01 -2.186936476416239e-01 1.937089961625152e-01
            -2.187094616924972e-01 1.937227818379165e-01 3.351378083140675e-01 4.756197380099432e-01 1.254938719353670e-01 -1.820297176805021e-02 1.230707635801911e-01 -1.558256815423151e-02
            3.352089705377903e-01 4.756269842956449e-01 -2.187042977793813e-01 1.936882562961640e-01 1.230158790147778e-01 -1.554071803521199e-02 1.254183724570357e-01 -1.828343414400745e-02
174160000.0000000000 1.077773171815552e-01 -3.413270514479668e-02 1.046432343123597e-01 -3.555674297832166e-02 -1.380271096455651e-01 2.575494832522169e-01 4.779075521848832e-01 3.355118314608678e-01
            1.046433985617180e-01 -3.551826023071416e-02 1.077175415924657e-01 -3.423270630790326e-02 4.778828865865445e-01 3.354705674475561e-01 -1.380297076223894e-01 2.576515287255979e-01
            -1.380252127728820e-01 2.576127781828845e-01 4.779302538480736e-01 3.354572727965464e-01 1.064006541785388e-01 -3.840147032685614e-02 1.035093772302816e-01 -3.763183885265674e-02
            4.779003635568076e-01 3.355041618234180e-01 -1.380019823840037e-01 2.576019376867910e-01 1.033933254557862e-01 -3.765982414503115e-02 1.064458266565317e-01 -3.843018716582989e-02
174992500.0000000000 7.962415716439676e-02 -3.772641036854197e-02 7.549167868467592e-02 -4.070414148206507e-02 -3.778574238281858e-02 2.885933465142546e-01 5.675331857893616e-01 1.539214398413162e-01
            7.552659160365825e-02 -4.075642879493393e-02 7.961568795332515e-02 -3.778779777828994e-02 5.675052269010905e-01 1.538607720002689e-01 -3.782681719663569e-02 2.885863162660136e-01
            -3.782121709165359e-02 2.886001751662055e-01 5.674758023429544e-01 1.538643451773013e-01 7.856859064069566e-02 -4.149726273047832e-02 7.352977076582468e-02 -4.188826313593096e-02
            5.674988604934792e-01 1.537496832146613e-01 -3.779204202931266e-02 2.884917227307115e-01 7.358935203688527e-02 -4.184369427078059e-02 7.849201670937195e-02 -4.152636292258557e-02
175825000.0000000000 5.543622284112208e-02 -2.151241747002017e-02 4.973974483989690e-02 -2.510357907622258e-02 6.670561543214798e-02 2.795955104426220e-01 5.902320668619759e-01 -5.148896237968833e-02
            4.974392843358290e-02 -2.509818292059039e-02 5.545698391622726e-02 -2.154205464119507e-02 5.902332843630069e-01 -5.151115945121017e-02 6.673239324651396e-02 2.794837250809388e-01
            6.676623823651605e-02 2.795303704336959e-01 5.902379888459892e-01 -5.138040759056105e-02 5.504871044123956e-02 -2.502139964378613e-02 4.775015237950097e-02 -2.477707754023912e-02
            5.903261816747493e-01 -5.145172041821762e-02 6.667506669743829e-02 2.795091069933035e-01 4.783136694650070e-02 -2.491487422719548e-02 5.504853642576460e-02 -2.500516235981926e-02
176657500.0000000000 4.812122801515210e-02 7.313713474492626e-03 4.080643048806752e-02 4.176907662390643e-03 1.578574844719112e-01 2.329031992077559e-01 5.382825991699954e-01 -2.549419383008967e-01
            4.082674413339658e-02 4.149453268415072e-03 4.808025397699089e-02 7.363222916195454e-03 5.382782618363464e-01 -2.550166083266762e-01 1.577642424871510e-01 2.329291592389932e-01
            1.578479678523367e-01 2.329743518201743e-01 5.382663808076007e-01 -2.550499520368091e-01 4.864292307021588e-02 3.334533323161731e-03 3.981450964367006e-02 5.315325925474359e-03
            5.382650178533174e-01 -2.550016368908899e-01 1.577453401799303e-01 2.328651193491603e-01 3.990761606145722e-02 5.318217266263400e-03 4.856653399252819e-02 3.360001414274859e-03
177490000.0000000000 6.191985755190488e-02 3.389305359306972e-02 5.398739928809481e-02 3.190175509259477e-02 2.227224188354971e-01 1.598151580392062e-01 4.157137290386307e-01 -4.271826693285771e-01
            5.393595485750160e-02 3.190716850655925e-02 6.194825721220303e-02 3.390313464187843e-02 4.156800284919928e-01 -4.272584643022303e-01 2.227831859224206e-01 1.598675229381131e-01
            2.227848235626988e-01 1.599028786885025e-01 4.156633929894917e-01 -4.272419417514415e-01 6.304104499640954e-02 2.889095037790008e-02 5.424326170041455e-02 3.340308205871756e-02
            4.156458850100326e-01 -4.272265161258514e-01 2.227640481734207e-01 1.599607618510566e-01 5.421423344798405e-02 3.336322630879202e-02 6.298545727885572e-02 2.890533825532408e-02
178322500.0000000000 8.957778248125836e-02 4.475814758073907e-02 8.183219357365173e-02 4.413206212556797e-02 2.575118491439016e-01 7.378402921736543e-02 2.405738648534690e-01 -5.433531148364306e-01
            8.185724063967742e-02 4.416295176143253e-02 8.952576191685943e-02 4.469818149317386e-02 2.406091312639560e-01 -5.433745088131792e-01 2.574984057701249e-01 7.385743925204336e-02
            2.574360052900704e-01 7.389277815211262e-02 2.406676971539076e-01 -5.433070935800038e-01 9.050467003604533e-02 3.851177312669674e-02 8.329366820606797e-02 4.484477403903967e-02
            2.406631441559515e-01 -5.433103547858276e-01 2.575503147801553e-01 7.385267154243547e-02 8.330677667802427e-02 4.485992339560832e-02 9.040133272178126e-02 3.856716031668928e-02
179155000.0000000000 1.173044391848388e-01 3.532701582904193e-02 1.107589744041905e-01 3.532724663026718e-02 2.633628677037326e-01 -1.544402797475486e-02 3.907058658119717e-02 -5.900522128861428e-01
            1.107943204950340e-01 3.533546678518878e-02 1.173003284202380e-01 3.531768737166039e-02 3.915810873110769e-02 -5.899944190774160e-01 2.633238111953677e-01 -1.549374989150317e-02
            2.633512886815700e-01 -1.548038677700658e-02 3.905365031057081e-02 -5.899899812002010e-01 1.173115099755931e-01 2.818361070282098e-02 1.126139527726226e-01 3.493458341387162e-02
            3.908402207122070e-02 -5.900214008531623e-01 2.633611192726156e-01 -1.548712559385777e-02 1.125615939088835e-01 3.480695371067823e-02 1.173357535298216e-01 2.816357620033762e-02
179987500.0000000000 1.325385596527852e-01 1.080372767656846e-02 1.275006809754460e-01 1.034813640303712e-02 2.418222324215501e-01 -1.017372073840717e-01 -1.630022116409683e-01 -5.660404391030792e-01
            1.275769271074309e-01 1.035615562866223e-02 1.326114645490547e-01 1.076960093319338e-02 -1.630279840802938e-01 -5.661346386307813e-01 2.418191622876560e-01 -1.017577860820463e-01
            2.417687440016049e-01 -1.016292337582922e-01 -1.630240047777755e-01 -5.661251797690650e-01 1.314076347055675e-01 3.486448780180368e-03 1.288648138249573e-01 8.699725196858627e-03
            -1.630019217285622e-01 -5.661057997919193e-01 2.417498698088776e-01 -1.016677988082380e-01 1.289294129777169e-01 8.736006073561809e-03 1.314209850301094e-01 3.542326963077853e-03
180820000.0000000000 1.291996377570543e-01 -1.752550495477265e-02 1.250138393269868e-01 -1.955318499667813e-02 1.929516335482325e-01 -1.778436888376442e-01 -3.443581839734703e-01 -4.776850843913341e-01
            1.250883764951340e-01 -1.963939138273481e-02 1.291770374860017e-01 -1.754960271770602e-02 -3.444339009903659e-01 -4.777656184293361e-01 1.930014107862580e-01 -1.778795291583635e-01
            1.929922006400238e-01 -1.777978355405251e-01 -3.444215525099552e-01 -4.777745478603931e-01 1.271519657299030e-01 -2.433995931813590e-02 1.253399202182505e-01 -2.197004784962026e-02
            -3.444307429630025e-01 -4.777396731723701e-01 1.929509516531704e-01 -1.778719494243672e-01 1.252712991645772e-01 -2.195400825142423e-02 1.270875854542668e-01 -2.424179960698859e-02
181652500.0000000000 1.086574418786782e-01 -3.753524909352486e-02 1.042343356900068e-01 -4.177804956696180e-02 1.190695067241442e-01 -2.341685697895873e-01 -4.874402186414791e-01 -3.347221872482551e-01
            1.041168810571918e-01 -4.181675932957688e-02 1.086997342527350e-01 -3.762356004371753e-02 -4.873946893787783e-01 -3.347230129037236e-01 1.190627649651427e-01 -2.341613157667707e-01
            1.190592510383447e-01 -2.342028590453959e-01 -4.873179847719851e-01 -3.346569889659904e-01 1.062413352630996e-01 -4.326935801205611e-02 1.032630584550080e-01 -4.383798123091327e-02
            -4.873847538111923e-01 -3.346448187010100e-01 1.190070298817038e-01 -2.341931664374358e-01 1.032637079272983e-01 -4.388049010485787e-02 1.063673472005463e-01 -4.329450247954657e-02
182485000.0000000000 7.989059775009119e-02 -3.994948946504131e-02 7.374801422364119e-02 -4.594545835494519e-02 2.787938048049562e-02 -2.600580349401843e-01 -5.762449525253796e-01 -1.498151973278048e-01
            7.378748159534003e-02 -4.597078827645922e-02 7.996522864233196e-02 -3.993550818858419e-02 -5.761968601840686e-01 -1.497418093426104e-01 2.780281612452941e-02 -2.600481883810953e-01
            2.785477004774952e-02 -2.600611572267579e-01 -5.761982379569059e-01 -1.498845581627361e-01 7.811041355177750e-02 -4.466376452561235e-02 7.188352849574124e-02 -4.706907059398628e-02
            -5.762488467639710e-01 -1.498184566756742e-01 2.780498286838197e-02 -2.600888487643860e-01 7.187599437473317e-02 -4.705003843842690e-02 7.809294196782131e-02 -4.467361998855756e-02
183317500.0000000000 5.660213611426782e-02 -2.287335367332281e-02 4.753352919593972e-02 -2.970911517283983e-02 -6.634125381137124e-02 -2.493051839184844e-01 -5.969879999769129e-01 5.829659795268084e-02
            4.752714860687851e-02 -2.975369985783560e-02 5.653073038467394e-02 -2.276841344451199e-02 -5.969328814267766e-01 5.825546466384988e-02 -6.636145087291699e-02 -2.492477745882198e-01
            -6.632850371181832e-02 -2.493522287666154e-01 -5.970068535736158e-01 5.824359146374464e-02 5.589986174121100e-02 -2.732946442048391e-02 4.561133621354242e-02 -2.943781101825274e-02
            -5.970290604662535e-01 5.828161773720818e-02 -6.635288707134489e-02 -2.492570930246419e-01 4.564179444300513e-02 -2.935134050823032e-02 5.589017623083576e-02 -2.721466417198377e-02
184150000.0000000000 5.043644293818705e-02 5.243449677186088e-03 3.820209135395615e-02 -7.066307669720697e-04 -1.471581707664784e-01 -2.047340067885531e-01 -5.420796675209608e-01 2.635263929501422e-01
            3.821218632273265e-02 -6.721318221644160e-04 5.044108979576727e-02 5.245337046100070e-03 -5.421538190939449e-01 2.635238324830113e-01 -1.471518926500343e-01 -2.047932414905679e-01
            -1.471366446461668e-01 -2.047689727900251e-01 -5.421290396756956e-01 2.635091595007779e-01 5.118033899351038e-02 2.546731527328727e-04 3.738000802838987e-02 5.680136549279224e-04
            -5.421394290909307e-01 2.634991058591932e-01 -1.471348123280242e-01 -2.046934047636530e-01 3.740731323944482e-02 6.183979283414635e-04 5.119953148047152e-02 2.772304561567369e-04
184982500.0000000000 6.469299558078048e-02 2.988448154573398e-02 4.990399844725769e-02 2.634379621838253e-02 -2.033717064369041e-01 -1.372015154937480e-01 -4.165690836808792e-01 4.364124400318327e-01
            4.988754978708709e-02 2.637701319784786e-02 6.466715561660914e-02 2.989622198742881e-02 -4.166159416877975e-01 4.363989743526249e-01 -2.033403808541933e-01 -1.373106820829736e-01
            -2.033230278435407e-01 -1.372422685781376e-01 -4.167028066111406e-01 4.363361282553138e-01 6.621360968386852e-02 2.329039032565956e-02 5.036214976045788e-02 2.777087784370823e-02
            -4.166683534835040e-01 4.363545894413279e-01 -2.033314115636327e-01 -1.372253786776317e-01 5.043490682985012e-02 2.771886181092969e-02 6.618624364370670e-02 2.334575553549340e-02
185815000.0000000000 9.101931116050860e-02 3.827729305437936e-02 7.515158919911484e-02 3.847926391081841e-02 -2.319613235301048e-01 -5.906916056652407e-02 -2.388731486784990e-01 5.522349838429645e-01
            7.512125529346057e-02 3.846067792101527e-02 9.107154221343548e-02 3.823118256544980e-02 -2.388209043088248e-01 5.523231760640416e-01 -2.320818428774229e-01 -5.895666009308975e-02
            -2.319978939295511e-01 -5.901822367406041e-02 -2.388291331713675e-01 5.521992457232966e-01 9.233461780054628e-02 2.998885017488580e-02 7.685814657725235e-02 3.892608787172997e-02
            -2.388362600248370e-01 5.522729887631552e-01 -2.320270470898671e-01 -5.908389436538619e-02 7.686502191227050e-02 3.887000021002721e-02 9.225255347692296e-02 2.995895417841751e-02
186647500.0000000000 1.159015516895061e-01 2.713200381708313e-02 1.006354266741043e-01 3.116922895140390e-02 -2.344707684954535e-01 2.142199038958965e-02 -3.458710180212754e-02 5.983360486471165e-01
            1.006574325308417e-01 3.119192198192491e-02 1.158389637661206e-01 2.716909311643798e-02 -3.455291739163827e-02 5.984566277625669e-01 -2.345656227182626e-01 2.133607335722108e-02
            -2.345420681481664e-01 2.141054126618500e-02 -3.455446687628048e-02 5.984192607210064e-01 1.158624348670054e-01 1.760849044152480e-02 1.027770905669051e-01 3.005311408575461e-02
            -3.462118337241228e-02 5.983620897016788e-01 -2.345146359750601e-01 2.134184859862044e-02 1.026912985713802e-01 3.012319984361456e-02 1.158784858797210e-01 1.756501384405925e-02
187480000.0000000000 1.271054738575729e-01 2.708778323043634e-03 1.143021840121855e-01 9.992949087106134e-03 -2.121438522325539e-01 9.809440396447187e-02 1.706210233127651e-01 5.729112731908894e-01
            1.142432809830264e-01 1.005600490067577e-02 1.272138923610854e-01 2.686738959645298e-03 1.705095988209178e-01 5.730573233434715e-01 -2.121819513354840e-01 9.806181041796877e-02
            -2.122088012915540e-01 9.802354394726759e-02 1.705358781100357e-01 5.731071977653802e-01 1.253152151373393e-01 -7.264204353923962e-03 1.156192066446614e-01 7.398099884011454e-03
            1.705454796172130e-01 5.729783398004816e-01 -2.122149758604410e-01 9.807474880713442e-02 1.156258140262425e-01 7.371620497222105e-03 1.253359155782856e-01 -7.229229009135066e-03
188312500.0000000000 1.197128077769669e-01 -2.339805930478719e-02 1.104264863165246e-01 -1.435651459014071e-02 -1.654031735200978e-01 1.644618140746653e-01 3.549048191314531e-01 4.817980856411654e-01
            1.104931369215794e-01 -1.437194702505204e-02 1.197290467456665e-01 -2.347885052362682e-02 3.548402530445610e-01 4.818525797947156e-01 -1.653954560760959e-01 1.644702742694863e-01
            -1.653753097947631e-01 1.644398220168224e-01 3.549335879342162e-01 4.817799677908311e-01 1.164854578373004e-01 -3.272316856754189e-02 1.101424026414130e-01 -1.775944580212063e-02
            3.548668183424289e-01 4.817555480414773e-01 -1.653947725137915e-01 1.644405587365899e-01 1.101667291921370e-01 -1.775271501966492e-02 1.164613551342226e-01 -3.264483727954528e-02
189145000.0000000000 9.677232455180994e-02 -3.908814713532215e-02 9.114747672352569e-02 -2.976778321443590e-02 -9.680712723751900e-02 2.113928646942173e-01 4.995243685477960e-01 3.341322635325346e-01
            9.120571901855476e-02 -2.976931592713153e-02 9.675021200625206e-02 -3.911833896289008e-02 4.994747082002323e-01 3.341163999986228e-01 -9.692672522433400e-02 2.114181516076496e-01
            -9.682024732461804e-02 2.114025246594294e-01 4.995375097734463e-01 3.341348925234416e-01 9.283846947811888e-02 -4.689685202632751e-02 8.916049075491476e-02 -3.280822507608244e-02
            4.995331112392476e-01 3.340537659203890e-01 -9.672849096763600e-02 2.114168589142640e-01 8.909703491358059e-02 -3.276917793631546e-02 9.282094867530169e-02 -4.686699026441225e-02
189977500.0000000000 6.823183631055417e-02 -3.599828164044175e-02 6.595051595753093e-02 -2.784876982967318e-02 -1.466942314772049e-02 2.296060657862251e-01 5.874417781648580e-01 1.436901429048574e-01
            6.601349287913125e-02 -2.790468972174711e-02 6.808129470728369e-02 -3.604290900747927e-02 5.874469847082360e-01 1.436748462179505e-01 -1.467764025973569e-02 2.296310710142569e-01
            -1.467516581644941e-02 2.297214553873881e-01 5.874355102218627e-01 1.437324159991772e-01 6.473411055268419e-02 -4.244554289524186e-02 6.262471770384927e-02 -2.949167543620572e-02
            5.874520367496298e-01 1.436669871097231e-01 -1.460740955274353e-02 2.296769067788986e-01 6.250069709135131e-02 -2.953180568690655e-02 6.472624751086486e-02 -4.239422329819484e-02
190810000.0000000000 4.787107012171490e-02 -1.461643245442241e-02 4.815522702940796e-02 -8.632583235822958e-03 6.721041794410475e-02 2.152853645798554e-01 6.041995695353012e-01 -6.887703591906691e-02
            4.816444931922675e-02 -8.713052768639205e-03 4.784018653849851e-02 -1.459657362393845e-02 6.041843978116694e-01 -6.894596200879957e-02 6.717732636881009e-02 2.151994388480545e-01
            6.722470535979805e-02 2.152313385447079e-01 6.041607190236642e-01 -6.886309341157154e-02 4.591236910773717e-02 -2.031106311685937e-02 4.468771785106825e-02 -8.333331815342961e-03
            6.041727016691172e-01 -6.890847829807274e-02 6.716759331199075e-02 2.151764744252571e-01 4.469747639974345e-02 -8.303022952670857e-03 4.590076226200703e-02 -2.029871035405147e-02
191642500.0000000000 4.633798431662612e-02 1.521954043460897e-02 4.818883449292140e-02 1.846433797314782e-02 1.347885299678123e-01 1.727442147022354e-01 5.436573644684597e-01 -2.757337001709798e-01
            4.817172751154177e-02 1.846475080821373e-02 4.639689339602034e-02 1.522166734963573e-02 5.435883565902841e-01 -2.758096918126930e-01 1.348242847570135e-01 1.727109881784952e-01
            1.348089767090195e-01 1.727145262666508e-01 5.436637277494619e-01 -2.757182203133265e-01 4.601905500828162e-02 8.771543788101166e-03 4.575153071700693e-02 2.032796564901565e-02
            5.435920851907738e-01 -2.757447242706544e-01 1.348160279153656e-01 1.727553415505632e-01 4.594327536588581e-02 2.033833643180101e-02 4.614817067451730e-02 8.708457119047755e-03
192475000.0000000000 6.440143502763063e-02 3.849276163455877e-02 6.661004365231719e-02 3.915929076688477e-02 1.800660588259316e-01 1.127186589680591e-01 4.130094486478767e-01 -4.470442986198107e-01
            6.669297626944076e-02 3.920379305704114e-02 6.436123878909125e-02 3.843555813012258e-02 4.130786287852469e-01 -4.471413504561097e-01 1.800553352323389e-01 1.125387482491992e-01
            1.800821759267681e-01 1.126353934335278e-01 4.130456980005655e-01 -4.470831971560308e-01 6.515555261051655e-02 3.007024217162081e-02 6.631228524138698e-02 4.122574378542265e-02
            4.129965946955644e-01 -4.469753258278070e-01 1.800315705960662e-01 1.126520835239769e-01 6.637624480845754e-02 4.134083934620999e-02 6.526474990581246e-02 2.999160698818340e-02
193307500.0000000000 9.231612850411446e-02 4.441658749505025e-02 9.446946450152133e-02 4.272106912591613e-02 2.021991037908246e-01 4.498285628106088e-02 2.321728753275200e-01 -5.598090513471674e-01
            9.448541819460403e-02 4.271516817784449e-02 9.231280921859925e-02 4.437488341367210e-02 2.321292981270166e-01 -5.597505528073923e-01 2.021750763425151e-01 4.501195639073999e-02
            2.021397366855419e-01 4.500672807471002e-02 2.322137665534838e-01 -5.598065920743324e-01 9.269259651354048e-02 3.350480742519206e-02 9.584071355078982e-02 4.373746395014447e-02
            2.321866812678106e-01 -5.598051897118320e-01 2.021978879902219e-01 4.499840006323778e-02 9.587477319450914e-02 4.381793710820385e-02 9.266393986299064e-02 3.352698934793811e-02
194140000.0000000000 1.165235627945599e-01 3.151395421862417e-02 1.180994915733065e-01 2.773968146476596e-02 2.027981979911058e-01 -2.403894298101130e-02 2.674363455700836e-02 -6.028217119637146e-01
            1.181144567767683e-01 2.775710848915006e-02 1.165068911180113e-01 3.157376048376827e-02 2.671772607631652e-02 -6.027758757961064e-01 2.027897714694770e-01 -2.392689161597137e-02
            2.027577778070648e-01 -2.393438637247514e-02 2.672572975262016e-02 -6.027816169936868e-01 1.151067551433595e-01 1.867334655207382e-02 1.201565673607970e-01 2.688379634244904e-02
            2.671276644839783e-02 -6.028801917142949e-01 2.027368176302048e-01 -2.390576743454679e-02 1.201057277373837e-01 2.674815234554432e-02 1.150646782251747e-01 1.854866856554074e-02
194972500.0000000000 1.264840461974700e-01 7.064654870030741e-03 1.271269698343377e-01 1.382864096465115e-03 1.820709337842088e-01 -9.017100176257288e-02 -1.787228023170093e-01 -5.749421334174486e-01
            1.270908775292104e-01 1.468721490352455e-03 1.264637114587540e-01 7.098529216144802e-03 -1.787036756249351e-01 -5.749463774356303e-01 1.822167618496775e-01 -9.013667559587943e-02
            1.821978699319728e-01 -9.021620398186436e-02 -1.787507381727109e-01 -5.748546897633917e-01 1.222675081601276e-01 -6.702036095479406e-03 1.283689470274613e-01 -1.790202196188555e-03
            -1.786993115360055e-01 -5.749142021952848e-01 1.821797823094127e-01 -9.014592319160733e-02 1.282826283105353e-01 -1.728797243401034e-03 1.223004618354300e-01 -6.602636808185241e-03
195805000.0000000000 1.184395177278795e-01 -1.753321819079283e-02 1.178274755083079e-01 -2.474636318997399e-02 1.399009082079349e-01 -1.474073654745496e-01 -3.631275609882203e-01 -4.813445759911594e-01
            1.178299387372234e-01 -2.482060130925822e-02 1.184040778307349e-01 -1.752860555470031e-02 -3.630970436840606e-01 -4.813211754493792e-01 1.398888384043351e-01 -1.474222636046237e-01
            1.398397900616174e-01 -1.474452661382038e-01 -3.630779006692768e-01 -4.812930474296125e-01 1.114180329643313e-01 -3.061841245703149e-02 1.167737024000647e-01 -2.945635092815033e-02
            -3.630710265060149e-01 -4.813334139954261e-01 1.397918045435100e-01 -1.474567583957543e-01 1.166903134290643e-01 -2.943382044372959e-02 1.113277389799132e-01 -3.060613715941947e-02
196637500.0000000000 9.616350383132687e-02 -3.076031288584597e-02 9.389006280605403e-02 -3.925080649665980e-02 7.807902541101180e-02 -1.868381853560574e-01 -5.074697853329559e-01 -3.309802789826826e-01
            9.386931914040596e-02 -3.923522107891908e-02 9.616891833769754e-02 -3.072040482612434e-02 -5.075474618785215e-01 -3.309452233171311e-01 7.807607791602408e-02 -1.868754687908885e-01
            7.807910377377623e-02 -1.869028816366261e-01 -5.074113690577269e-01 -3.309318261450026e-01 8.706506560981660e-02 -4.184068831968977e-02 8.973879421833138e-02 -4.389868287041482e-02
            -5.074968482643750e-01 -3.308714388364454e-01 7.810497176557664e-02 -1.869317765225412e-01 8.966915764020887e-02 -4.385994695529381e-02 8.705807419223904e-02 -4.182269894033084e-02
197470000.0000000000 7.037810460771020e-02 -2.555768266574098e-02 6.614170291153162e-02 -3.485246219325605e-02 5.214976074784833e-03 -1.998329227304860e-01 -5.939952778499533e-01 -1.376953727972946e-01
            6.616266710420539e-02 -3.486880384409639e-02 7.035903691504732e-02 -2.560335699754174e-02 -5.939427681866870e-01 -1.376648087284319e-01 5.066440181647603e-03 -1.999338719300620e-01
            5.188436835185960e-03 -1.999137763503176e-01 -5.939838833414602e-01 -1.376364690114200e-01 6.058628979053399e-02 -3.413215369187968e-02 5.922895335417260e-02 -3.753342035656067e-02
            -5.940365923176998e-01 -1.376202641953242e-01 5.240796574756667e-03 -1.998371596913818e-01 5.927294526717482e-02 -3.751693282165658e-02 6.060615214153284e-02 -3.416220505924619e-02
198302500.0000000000 5.444727626645340e-02 -3.828032752019375e-03 4.832368068486446e-02 -1.320184370081485e-02 -6.561841270673412e-02 -1.837006681763526e-01 -6.079444964521529e-01 7.712272433801820e-02
            4.821598409322488e-02 -1.322770249967820e-02 5.446642562071904e-02 -3.894508997322552e-03 -6.080836183805759e-01 7.718862712825771e-02 -6.566851260206076e-02 -1.836695863663021e-01
            -6.563942017934966e-02 -1.836420686496932e-01 -6.079676327710338e-01 7.718905650906835e-02 4.544462044896638e-02 -1.024852404501056e-02 3.994658647102077e-02 -1.266136079502979e-02
            -6.079469151056772e-01 7.717973031865612e-02 -6.572160971481132e-02 -1.836438026631633e-01 4.006086261867886e-02 -1.265248289201644e-02 4.548599113552206e-02 -1.017312326167134e-02
199135000.0000000000 5.755606618755424e-02 2.337458596921289e-02 4.952791557082030e-02 1.457198303590008e-02 -1.220118899628561e-01 -1.435865305763295e-01 -5.437801882797506e-01 2.847203330880653e-01
            4.948970364231038e-02 1.455027118869747e-02 5.749113317241979e-02 2.346066470806988e-02 -5.438058248605007e-01 2.847543208101627e-01 -1.220405982201695e-01 -1.436573386937264e-01
            -1.219824941471766e-01 -1.436399001704125e-01 -5.438463327625558e-01 2.847622874091803e-01 5.011928103762561e-02 1.819234780858956e-02 4.182581376675229e-02 1.881423434319169e-02
            -5.438084172104557e-01 2.847412185232364e-01 -1.220177979182844e-01 -1.436043945275336e-01 4.183601388269276e-02 1.881423372871682e-02 5.019979362019521e-02 1.822342276213094e-02
199967500.0000000000 7.807069321949284e-02 4.188006184393967e-02 6.884007354688654e-02 3.396585186999326e-02 -1.579430266030892e-01 -9.012073935127801e-02 -4.099610768795472e-01 4.549463186003786e-01
            6.885829916265512e-02 3.394323775703100e-02 7.810081681495180e-02 4.183524487821941e-02 -4.099122276321928e-01 4.550099001441434e-01 -1.579730576745082e-01 -9.010869962343415e-02
            -1.579036465997906e-01 -9.012769231922420e-02 -4.099196182952147e-01 4.549210252531302e-01 7.244564265813865e-02 3.611943950423412e-02 6.358521915534013e-02 4.107750475395298e-02
            -4.098479408282740e-01 4.549622486358327e-01 -1.578118580634272e-01 -9.012036954264994e-02 6.355910427181949e-02 4.107112384826535e-02 7.230826235419889e-02 3.612650959371023e-02
200800000.0000000000 1.055612446531038e-01 4.243992326120644e-02 9.566588775212166e-02 3.555755202071069e-02 -1.740190835127052e-01 -3.194210222516916e-02 -2.268631108899028e-01 5.656726942285900e-01
            9.573468065370318e-02 3.554053722419560e-02 1.055557896618349e-01 4.250042090362063e-02 -2.268413401808743e-01 5.656304945143839e-01 -1.740651192927189e-01 -3.186876292199603e-02
            -1.740145732054501e-01 -3.195095220018189e-02 -2.269229693371567e-01 5.656377651379575e-01 1.005313866933635e-01 3.520281149513547e-02 9.376837976050770e-02 4.381252132215806e-02
            -2.268532183349024e-01 5.657040049130394e-01 -1.740854663999536e-01 -3.184296146017756e-02 9.377235103769352e-02 4.380125315160662e-02 1.005930580844480e-01 3.520641719640077e-02
201632500.0000000000 1.267980370430874e-01 2.547798037518004e-02 1.166995557398449e-01 1.929028412893636e-02 -1.722367495169809e-01 2.684602088683802e-02 -2.022707208293500e-02 6.065476535041533e-01
            1.167624398593749e-01 1.928771065331848e-02 1.268309300000144e-01 2.547514088544231e-02 -2.024248180074096e-02 6.065469061127496e-01 -1.723896273507485e-01 2.688769830560107e-02
            -1.722626121363789e-01 2.682797230969580e-02 -2.027005197268616e-02 6.064939835891733e-01 1.209832905083802e-01 1.664169369347505e-02 1.180566344379111e-01 2.699778589955801e-02
            -2.013377837169512e-02 6.065250898600164e-01 -1.722964219359160e-01 2.683676244506878e-02 1.181638009997649e-01 2.694646285032793e-02 1.209993941317370e-01 1.672200128068762e-02
202465000.0000000000 1.324037283181445e-01 -8.054569029929150e-04 1.224316744018507e-01 -6.594177066168222e-03 -1.527251510231381e-01 8.292322121925949e-02 1.860252653300878e-01 5.765102289649120e-01
            1.224321020429343e-01 -6.581980450494203e-03 1.324564625555620e-01 -8.247886458020213e-04 1.860094304427977e-01 5.765198477910844e-01 -1.526904460679814e-01 8.294210391711719e-02
            -1.526922985489609e-01 8.289712332669757e-02 1.859961212020315e-01 5.765244664974530e-01 1.247423048601433e-01 -1.029083292880213e-02 1.260101008981479e-01 -9.028227713528547e-04
            1.860430887049158e-01 5.765177308163189e-01 -1.526855243071477e-01 8.286704382011841e-02 1.260640762447168e-01 -8.975806291764606e-04 1.245676443212512e-01 -1.027155797941457e-02
203297500.0000000000 1.202528992565414e-01 -2.452296056860866e-02 1.099765001948234e-01 -3.056116029890301e-02 -1.142321651611399e-01 1.307840711844274e-01 3.708014054760916e-01 4.805712842496282e-01
            1.100416745220998e-01 -3.048688860248357e-02 1.202688646117945e-01 -2.453265487554516e-02 3.708288268386147e-01 4.805212977544081e-01 -1.142768819697912e-01 1.308671101271211e-01
            -1.142586561503145e-01 1.308521521768989e-01 3.708089874690677e-01 4.805112658000039e-01 1.101640412515703e-01 -3.337149692049848e-02 1.145383464088499e-01 -2.732970256330073e-02
            3.708886757387944e-01 4.804766458675659e-01 -1.142707154971440e-01 1.307821452675599e-01 1.145567070470579e-01 -2.726503034024766e-02 1.102123479121713e-01 -3.338933704621001e-02
204130000.0000000000 9.551829761654521e-02 -3.498184275274891e-02 8.467305239336602e-02 -4.114585742061053e-02 -5.929895404642164e-02 1.623032257816364e-01 5.149569079729046e-01 3.272478233183680e-01
            8.466466429947836e-02 -4.099504110946976e-02 9.554577269597066e-02 -3.496576105278168e-02 5.148745721630900e-01 3.273173189957878e-01 -5.931962440537895e-02 1.623467612717361e-01
            -5.925693316432277e-02 1.622584189508627e-01 5.148710214564991e-01 3.273056925506426e-01 8.380545360846881e-02 -4.186842155636507e-02 8.866568151061766e-02 -4.022152302988344e-02
            5.149107225828048e-01 3.272779341503695e-01 -5.926319935100750e-02 1.622363095709356e-01 8.864970898886623e-02 -4.022585192291448e-02 8.390741929646765e-02 -4.179714957800451e-02
204962500.0000000000 6.980729267237118e-02 -2.656861802002717e-02 5.783802900505695e-02 -3.252596661921785e-02 4.113156100297051e-03 1.698338827574757e-01 5.997239722632028e-01 1.310795675628044e-01
            5.786659013833593e-02 -3.247740781145621e-02 6.981360841280307e-02 -2.653627253633577e-02 5.996259199485440e-01 1.310687002983397e-01 4.048327787924502e-03 1.698673540295750e-01
            4.113170312521505e-03 1.698989972450320e-01 5.996791496789324e-01 1.310043882164939e-01 5.764119547121482e-02 -3.064437981526508e-02 6.041637878401467e-02 -3.290492193556198e-02
            5.996387692403524e-01 1.310651347312269e-01 4.111222598253796e-03 1.697731415997674e-01 6.046004973551463e-02 -3.287214887166544e-02 5.766515789013503e-02 -3.063637767838820e-02
205795000.0000000000 5.620900608288695e-02 -2.786798671615913e-03 4.304334930269132e-02 -8.025166069232464e-03 6.363432638242640e-02 1.518441815525162e-01 6.104254855374756e-01 -8.565473208089176e-02
            4.301848910841435e-02 -7.977541662825126e-03 5.617385020108207e-02 -2.869558572760776e-03 6.103796693713891e-01 -8.570259627745629e-02 6.364662319303180e-02 1.518943053028208e-01
            6.362265264231061e-02 1.518155005479060e-01 6.104185783617013e-01 -8.565951533200404e-02 4.519317232172630e-02 -4.165623778922963e-03 4.404097612288369e-02 -8.470791854097598e-03
            6.104674490722647e-01 -8.557824673540461e-02 6.356336395454980e-02 1.519109975836182e-01 4.412569494425875e-02 -8.523969857638865e-03 4.513951332820441e-02 -4.186943286109223e-03
206627500.0000000000 6.225194323217875e-02 2.406801905755754e-02 4.822515510657811e-02 2.018837227189192e-02 1.086873344537093e-01 1.147332034013552e-01 5.424590999744429e-01 -2.931661783042465e-01
            4.818296749411324e-02 2.024567538508692e-02 6.222989660168093e-02 2.407778830189469e-02 5.425750027022195e-01 -2.931967288906911e-01 1.085930590551544e-01 1.147710888131402e-01
            1.085964748801325e-01 1.147587397132118e-01 5.425889052544524e-01 -2.931809674275163e-01 5.336515234187372e-02 2.412305411436058e-02 4.824087794074895e-02 2.040052876636402e-02
            5.426050221864952e-01 -2.932679693035933e-01 1.086007495938427e-01 1.147482802804527e-01 4.827391817185195e-02 2.046626495596453e-02 5.341533747583783e-02 2.415611637342576e-02
207460000.0000000000 8.466668588626977e-02 3.976618516968175e-02 7.039180410593300e-02 3.770845409118824e-02 1.354282791407840e-01 6.836080070655895e-02 4.057037180891048e-01 -4.617173826661234e-01
            7.048417378116680e-02 3.776949265559254e-02 8.458029681175168e-02 3.980663967314601e-02 4.057239528239412e-01 -4.617832563245036e-01 1.353770271800367e-01 6.828743505033895e-02
            1.353960831481550e-01 6.826924918689098e-02 4.056326894534792e-01 -4.617983278132062e-01 7.812664279067499e-02 4.013451075995501e-02 7.032799517104414e-02 3.905214793352270e-02
            4.057088902167361e-01 -4.617493522860259e-01 1.353692013112751e-01 6.829291367706895e-02 7.038963602181803e-02 3.899116771657137e-02 7.811769957115981e-02 4.007137222526978e-02
208292500.0000000000 1.116634513795998e-01 3.697093910748732e-02 9.833575900700581e-02 3.651286012287523e-02 1.458496846141696e-01 1.934668203952319e-02 2.209608679383191e-01 -5.702259913658289e-01
            9.826008226819533e-02 3.653471922386715e-02 1.115628793539910e-01 3.695904388670640e-02 2.209130140476056e-01 -5.702257800295009e-01 1.458053465320792e-01 1.943653645558690e-02
            1.458320667879404e-01 1.935700617219776e-02 2.209250032530299e-01 -5.701620277844617e-01 1.068953072625461e-01 3.627416150258821e-02 9.874083408774070e-02 3.856889170942221e-02
            2.209769622777359e-01 -5.701845510479667e-01 1.458322898550040e-01 1.947699486391100e-02 9.871430515140082e-02 3.852456461184493e-02 1.069027595867154e-01 3.622190102798940e-02
209125000.0000000000 1.301789734547864e-01 1.753148021059918e-02 1.183911291551367e-01 1.786385153167856e-02 1.420577545823625e-01 -2.901732007139059e-02 1.357297553983153e-02 -6.088160878167704e-01
            1.182745419284379e-01 1.802280871761047e-02 1.302184889893014e-01 1.757000970239440e-02 1.355910099105226e-02 -6.087954976877439e-01 1.420112805339425e-01 -2.905611408932486e-02
            1.420547060111195e-01 -2.906549700065472e-02 1.349271367866668e-02 -6.088057117133857e-01 1.262038460522730e-01 1.530351474175757e-02 1.198290588632161e-01 2.030822975701409e-02
            1.353337777501359e-02 -6.087787754421488e-01 1.420047840246412e-01 -2.901992318528316e-02 1.197363079168706e-01 2.022867055638989e-02 1.262027887984857e-01 1.534275781231977e-02
209957500.0000000000 1.322542024388083e-01 -9.240046381379071e-03 1.219862292240610e-01 -9.010892479227156e-03 1.235488092433005e-01 -7.510488883572319e-02 -1.929694260353043e-01 -5.766622707003723e-01
            1.219884451202154e-01 -9.018908041867800e-03 1.322542064391124e-01 -9.220401469108871e-03 -1.930051221721815e-01 -5.767762695745235e-01 1.235910882187123e-01 -7.503355876425245e-02
            1.235596668824448e-01 -7.497814993629377e-02 -1.930169834913899e-01 -5.768573253776315e-01 1.278204441353135e-01 -1.264169233736588e-02 1.243720993586677e-01 -6.955346567404701e-03
            -1.930369322938520e-01 -5.767593749292319e-01 1.236471799091171e-01 -7.501346927159037e-02 1.244559266213462e-01 -7.029294962996905e-03 1.277749570492334e-01 -1.255958020256447e-02
210790000.0000000000 1.166989582134029e-01 -3.147941294755246e-02 1.075295766863996e-01 -3.237765290966828e-02 8.937411900441646e-02 -1.137417286128975e-01 -3.777618366151197e-01 -4.785473852231864e-01
            1.075858750693874e-01 -3.235620561711943e-02 1.166941116464059e-01 -3.156133912523016e-02 -3.777527907181351e-01 -4.785634209754951e-01 8.934604949763253e-02 -1.137522906559817e-01
            8.939811167791671e-02 -1.137630910109895e-01 -3.777344108900864e-01 -4.785280884424860e-01 1.115564657942422e-01 -3.507552599554822e-02 1.107601953535145e-01 -3.091110147579526e-02
            -3.776867240333613e-01 -4.785992285977591e-01 8.936559837021228e-02 -1.137281386708843e-01 1.106676384881499e-01 -3.101386835407996e-02 1.115435212670816e-01 -3.506058312938235e-02
211622500.0000000000 9.015717903418557e-02 -3.888039912008857e-02 8.102907232847489e-02 -4.119523739518052e-02 4.138002989863598e-02 -1.375030459099037e-01 -5.209432978723940e-01 -3.228418822450931e-01
            8.107588571072662e-02 -4.116829881064002e-02 9.017691682552806e-02 -3.884691635657923e-02 -5.209788131951446e-01 -3.227786687485843e-01 4.133888643349099e-02 -1.374991605689182e-01
            4.133452507551946e-02 -1.375568025650029e-01 -5.208905194370453e-01 -3.228276933875747e-01 8.438383175979575e-02 -4.177483134686995e-02 8.469072713767116e-02 -4.077640130875869e-02
            -5.209246873749895e-01 -3.227689576382203e-01 4.140978504129970e-02 -1.375353503408223e-01 8.462687015912120e-02 -4.081432513147678e-02 8.441377605609603e-02 -4.180969668805175e-02
212455000.0000000000 6.473311908923005e-02 -2.699683335790167e-02 5.471497117136016e-02 -3.059723306395380e-02 -1.244233361115407e-02 -1.399079148155869e-01 -6.036470209447703e-01 -1.243102343760035e-01
            5.463925192548037e-02 -3.057058238999520e-02 6.476939996443720e-02 -2.697661878621702e-02 -6.036206483457499e-01 -1.242659743439442e-01 -1.242838817219477e-02 -1.398961226715410e-01
            -1.243229958581624e-02 -1.399736552925251e-01 -6.036621151202265e-01 -1.242902069975858e-01 5.930652884283342e-02 -2.890627846637887e-02 5.829642555630932e-02 -3.108513304033363e-02
            -6.036870644838845e-01 -1.243132781017410e-01 -1.245341164629632e-02 -1.400125866406148e-01 5.832912668729682e-02 -3.104425702783519e-02 5.934502730971981e-02 -2.886885188487694e-02
213287500.0000000000 5.328435186293391e-02 -9.608225359806507e-04 4.147346713250906e-02 -5.012695584130165e-03 -6.084221369547368e-02 -1.207934354199972e-01 -6.114147384938012e-01 9.365008700306489e-02
            4.153339982161871e-02 -5.089665781525908e-03 5.331930526375641e-02 -1.039610973795956e-03 -6.113730504209107e-01 9.353296212878766e-02 -6.084330642070338e-02 -1.208387577627388e-01
            -6.078730832531214e-02 -1.207291751503951e-01 -6.112927418131627e-01 9.357438797936735e-02 4.916143923495853e-02 -2.240510796148072e-03 4.514987334025477e-02 -6.381074059034197e-03
            -6.113519307771347e-01 9.355872395159325e-02 -6.084344066325018e-02 -1.207747822486765e-01 4.508327400774312e-02 -6.370386382943499e-03 4.921664053039590e-02 -2.290482287442011e-03
214120000.0000000000 6.202199842876600e-02 2.608079626672767e-02 4.834581602393893e-02 2.277586701011192e-02 -9.496183293517529e-02 -8.679503133013404e-02 -5.402529129147224e-01 3.006566478465495e-01
            4.824628564843108e-02 2.275833353816587e-02 6.208121100556470e-02 2.601918855288356e-02 -5.402364420245899e-01 3.005437550410766e-01 -9.498896692695902e-02 -8.686846169001983e-02
            -9.499155860234583e-02 -8.684677435797034e-02 -5.402540237440506e-01 3.005851692530405e-01 5.966624039827857e-02 2.430978269808376e-02 5.186333225045028e-02 2.031535482829014e-02
            -5.402494955498930e-01 3.005933900522070e-01 -9.503677739651502e-02 -8.680656769678365e-02 5.187561378393532e-02 2.037698542173755e-02 5.964400911195181e-02 2.437405293802475e-02
214952500.0000000000 8.609210288003918e-02 4.037296652898562e-02 7.116418652040159e-02 3.888912169289158e-02 -1.131953957815910e-01 -4.717032233425766e-02 -4.010478903620682e-01 4.674401065994293e-01
            7.118625524287782e-02 3.887463782936339e-02 8.612876274217740e-02 4.036036304072519e-02 -4.010354198314992e-01 4.674273460975900e-01 -1.132239965825105e-01 -4.711734646447257e-02
            -1.131361110786243e-01 -4.714176216837257e-02 -4.010799111161882e-01 4.674278350590547e-01 8.510855961513229e-02 3.699022576859910e-02 7.434983371047084e-02 3.530796227810030e-02
            -4.009918682905478e-01 4.674846037258704e-01 -1.132009002486666e-01 -4.717455182870153e-02 7.445021693220119e-02 3.523952244111157e-02 8.510469213016232e-02 3.701535900421409e-02
215785000.0000000000 1.130938872893852e-01 3.562820304931017e-02 9.813279219605342e-02 3.650196361698058e-02 -1.181607277879974e-01 -7.271741313636539e-03 -2.150645644690415e-01 5.738297323381103e-01
            9.809388456864525e-02 3.656544009870689e-02 1.130565925623222e-01 3.553182223412935e-02 -2.151337145640438e-01 5.738490636787396e-01 -1.181220717679940e-01 -7.262786557000270e-03
            -1.181307058356405e-01 -7.195685947298355e-03 -2.150678974953507e-01 5.737627029929442e-01 1.123989025292374e-01 2.989211829495565e-02 1.004557630333398e-01 3.148612110308440e-02
            -2.150711661573179e-01 5.737920760341747e-01 -1.181921188078554e-01 -7.223799451131756e-03 1.004888766921973e-01 3.147470727749967e-02 1.123300895081991e-01 2.992277335826183e-02
216617500.0000000000 1.303333576585382e-01 1.495622916145055e-02 1.167256139092856e-01 1.799769363476056e-02 -1.122401734938488e-01 3.135141274724839e-02 -7.123998050649408e-03 6.103993059115232e-01
            1.167573645318773e-01 1.800044559171398e-02 1.303090665307101e-01 1.488738773618182e-02 -7.087854557969027e-03 6.103464685283774e-01 -1.121696326189025e-01 3.137312833734902e-02
            -1.121793482553191e-01 3.138455766570528e-02 -7.070785106317625e-03 6.104258116524485e-01 1.285019922132946e-01 7.043577354868642e-03 1.174057770057635e-01 1.173110466961088e-02
            -7.055995302147098e-03 6.103664298681152e-01 -1.121259736098436e-01 3.136005778983392e-02 1.174342342931066e-01 1.176066510182178e-02 1.283822676127271e-01 6.924242717642584e-03
217450000.0000000000 1.304437674359330e-01 -1.168923333776001e-02 1.190845345021243e-01 -7.453578571711188e-03 -9.453992816293241e-02 6.747714496046134e-02 1.998367102579201e-01 5.763796215896008e-01
            1.192043134122864e-01 -7.438757035245392e-03 1.304208842888677e-01 -1.167546398520391e-02 1.998180889586254e-01 5.763449310438773e-01 -9.453380111123839e-02 6.742534215067784e-02
            -9.454204465604478e-02 6.743304740280480e-02 1.997736190113548e-01 5.763634585795867e-01 1.263548991812080e-01 -2.106180706369681e-02 1.175162929226992e-01 -1.440623142075026e-02
            1.998173575995853e-01 5.763644014514645e-01 -9.457428505012530e-02 6.744980208656065e-02 1.175273897242202e-01 -1.442588301537379e-02 1.262557368529058e-01 -2.098395829242031e-02
218282500.0000000000 1.134941725276768e-01 -3.206827423627434e-02 1.048526874396104e-01 -2.821084505340291e-02 -6.413543454607597e-02 9.663555067894890e-02 3.844514529070319e-01 4.758103707068063e-01
            1.048304622845056e-01 -2.822880734320869e-02 1.134522515230278e-01 -3.209322313868328e-02 3.845473724247951e-01 4.758188497205749e-01 -6.415021795294369e-02 9.665768079959071e-02
            -6.408445951161242e-02 9.662469222646887e-02 3.845374695735056e-01 4.757876174091263e-01 1.067345383513267e-01 -4.151540327041427e-02 1.003143350082346e-01 -3.486642859369855e-02
            3.843926824333361e-01 4.757587488345521e-01 -6.410137989201216e-02 9.663532817573064e-02 1.003214389980479e-01 -3.483945291493759e-02 1.067235531841093e-01 -4.149715057841832e-02
219115000.0000000000 8.714336694773094e-02 -3.680364058151021e-02 8.032517905171538e-02 -3.452372257534507e-02 -2.319702732814275e-02 1.123041767498615e-01 5.266461802236286e-01 3.173090156813922e-01
            8.046632064801094e-02 -3.442750049387437e-02 8.708075311210338e-02 -3.684349400861512e-02 5.266655037058379e-01 3.172595079927458e-01 -2.321784359130674e-02 1.123718582399298e-01
            -2.317921569598469e-02 1.123282104608854e-01 5.266206190425075e-01 3.172683713441206e-01 7.807842064707847e-02 -4.481256162860942e-02 7.312196702109051e-02 -3.962741102074201e-02
            5.266154188390054e-01 3.173199452401680e-01 -2.314019055937953e-02 1.122706226425936e-01 7.312552882097413e-02 -3.957180975046298e-02 7.804691013321122e-02 -4.482121260829100e-02
219947500.0000000000 6.378812647583752e-02 -2.277203877625988e-02 5.794172631470058e-02 -2.275188026921633e-02 2.067290983911867e-02 1.094541714490401e-01 6.067988235119502e-01 1.165394782176436e-01
            5.791268530213477e-02 -2.287570490846879e-02 6.377958796673326e-02 -2.286396512676284e-02 6.067067850484589e-01 1.165456724600106e-01 2.059759762923928e-02 1.095097447671585e-01
            2.063366587028776e-02 1.095184662125602e-01 6.068260873449633e-01 1.166025448756787e-01 5.370166118446685e-02 -2.845387408269926e-02 4.861849165091194e-02 -2.497925543799832e-02
            6.067479591431786e-01 1.164240179029585e-01 2.068709503043231e-02 1.094915828508631e-01 4.860000402059381e-02 -2.509299455933804e-02 5.366658611223422e-02 -2.838084638253342e-02
220780000.0000000000 5.563019288910509e-02 3.356093543123312e-03 4.936079318929641e-02 1.155490246738863e-03 5.727441035558500e-02 8.924610278183298e-02 6.107388343000696e-01 -1.021167005795871e-01
            4.933856160414982e-02 1.013495312215238e-03 5.565730364829725e-02 3.383527120897559e-03 6.107929367202722e-01 -1.019940208115685e-01 5.739731436208238e-02 8.926255964128067e-02
            5.737130344418479e-02 8.922405029996948e-02 6.107832861716508e-01 -1.020951001963749e-01 4.607721020725383e-02 1.038984988757632e-04 3.932954507133187e-02 2.668870577562365e-03
            6.107888827975199e-01 -1.019297566721497e-01 5.735360579508587e-02 8.921257536945389e-02 3.944397933010076e-02 2.609802306611905e-03 4.602753800825935e-02 1.171358451409743e-04
221612500.0000000000 6.718469629109453e-02 2.833499845632480e-02 5.935337218508798e-02 2.429666145430563e-02 8.050324251888144e-02 5.893487649012495e-02 5.362802861638227e-01 -3.077826519876276e-01
            5.938992848264432e-02 2.432662700742038e-02 6.713889839034254e-02 2.831098715124524e-02 5.362227981228221e-01 -3.078006162977545e-01 8.039570503644614e-02 5.893512478475872e-02
            8.046144076024350e-02 5.895594035689403e-02 5.362337875566053e-01 -3.078625137963653e-01 5.920222185213726e-02 2.631366753685370e-02 5.044705925507425e-02 2.960406846927655e-02
            5.362448479865268e-01 -3.077682452566366e-01 8.048159823327826e-02 5.897458386326928e-02 5.041577600374716e-02 2.956472941560057e-02 5.913936305698399e-02 2.637057454227060e-02
222445000.0000000000 9.198718153186018e-02 3.930052278657729e-02 8.227678818253539e-02 3.459508454117378e-02 9.013071638768182e-02 2.660727533758594e-02 3.948627452233511e-01 -4.721145321076883e-01
            8.232342618355942e-02 3.461671527897624e-02 9.194073323069039e-02 3.929189370437251e-02 3.948413700735559e-01 -4.721203402153336e-01 9.020723450255472e-02 2.658864862789338e-02
            9.011412840347521e-02 2.663389088709049e-02 3.948608850522234e-01 -4.721719781202650e-01 8.579822595024000e-02 3.709341495631090e-02 7.591167173292895e-02 4.281457250891075e-02
            3.948558235913870e-01 -4.721969447925956e-01 9.021361167503418e-02 2.657111703204021e-02 7.598128483374229e-02 4.274098403835247e-02 8.580641826986914e-02 3.707452292827279e-02
223277500.0000000000 1.175380142462508e-01 3.147697154772387e-02 1.060966213437903e-01 2.708857301792586e-02 9.005712143161446e-02 -4.017264896178839e-03 2.082233754068812e-01 -5.758751349777865e-01
            1.060700642778621e-01 2.701403038301030e-02 1.174976573209942e-01 3.155639566885385e-02 2.081919412665871e-01 -5.757532078444764e-01 9.016273062933605e-02 -4.016656921791752e-03
            9.008754600930645e-02 -4.012014409256535e-03 2.082086164673596e-01 -5.758259007999376e-01 1.123746931201045e-01 2.797982604015153e-02 1.031366666700558e-01 3.667989969310746e-02
            2.081228600671113e-01 -5.758027049706079e-01 9.013387021987382e-02 -4.003977717699614e-03 1.031373640549535e-01 3.667544208745327e-02 1.123614776922069e-01 2.800529320990036e-02
224110000.0000000000 1.318702629809569e-01 9.398393095399367e-03 1.192223062228486e-01 5.979240247305565e-03 8.224593785916524e-02 -3.271806815199781e-02 3.324506520406698e-04 -6.102183143994468e-01
            1.192720479904354e-01 5.955927310878484e-03 1.319027530254900e-01 9.411711770161721e-03 2.795942641048870e-04 -6.101458802940010e-01 8.230729876285361e-02 -3.278317259513019e-02
            8.231899553054127e-02 -3.268644533291759e-02 2.850640127224250e-04 -6.101728442391166e-01 1.264611803004921e-01 4.271947817014392e-03 1.199191817457691e-01 1.545246158666539e-02
            2.301103401826098e-04 -6.101411805724812e-01 8.225561159606333e-02 -3.276653427543496e-02 1.198359965113712e-01 1.555846057362804e-02 1.264665719228194e-01 4.318263047496365e-03
224942500.0000000000 1.289287147994983e-01 -1.653729146849119e-02 1.156258226502172e-01 -1.915853810126376e-02 6.587725973296940e-02 -5.896354620486045e-02 -2.062139748508179e-01 -5.742614117675784e-01
            1.156896977695899e-01 -1.914257252583150e-02 1.289486664819294e-01 -1.660506115366597e-02 -2.062624333872930e-01 -5.741894965684776e-01 6.582810811962449e-02 -5.889935874213237e-02
            6.590190096775383e-02 -5.890919619346406e-02 -2.062713977808581e-01 -5.742363694339944e-01 1.219042435668624e-01 -2.286802544716212e-02 1.193351579044467e-01 -1.089410168701197e-02
            -2.063534033509943e-01 -5.741549768907382e-01 6.593077304948299e-02 -5.891115593639437e-02 1.192065185840800e-01 -1.091338455799728e-02 1.219259399718100e-01 -2.280264373762010e-02
225775000.0000000000 1.098764597157055e-01 -3.464588639680556e-02 9.654779535293959e-02 -3.660731050174194e-02 3.960947998543777e-02 -7.894745564319194e-02 -3.903414470079096e-01 -4.715064846230695e-01
            9.654235303115412e-02 -3.657891150515172e-02 1.099011872215459e-01 -3.475857327368523e-02 -3.903593552300244e-01 -4.715797243370392e-01 3.956206284364066e-02 -7.892775912903184e-02
            3.960222623086741e-02 -7.896917521614684e-02 -3.902863645466880e-01 -4.715280058478547e-01 1.008870159053361e-01 -4.079367462010655e-02 1.021620736806620e-01 -3.056858194819045e-02
            -3.902736259978528e-01 -4.714559987315773e-01 3.959367652526719e-02 -7.897363386256917e-02 1.021631641142367e-01 -3.053487655842025e-02 1.009059606303685e-01 -4.077845884362356e-02
226607500.0000000000 8.346460185370047e-02 -3.623495661333290e-02 6.988695476562527e-02 -3.764744644101062e-02 5.872112921365693e-03 -8.680165788084539e-02 -5.308473144823013e-01 -3.108075064837842e-01
            6.983453628830899e-02 -3.764708493873383e-02 8.347739957636385e-02 -3.617599308403128e-02 -5.308563118080877e-01 -3.107793586395120e-01 5.920775828572239e-03 -8.681977203619254e-02
            5.929201904217899e-03 -8.680970733168512e-02 -5.308346060846193e-01 -3.108192218652636e-01 7.259073907079937e-02 -4.071973915601843e-02 7.636591940650708e-02 -3.414454040428345e-02
            -5.308229040351259e-01 -3.108412913626116e-01 5.957959331115921e-03 -8.684025782147611e-02 7.626309376689870e-02 -3.409188290806713e-02 7.253470922287616e-02 -4.078797882153985e-02
227440000.0000000000 6.227469486183257e-02 -1.964711658899957e-02 4.833399489124403e-02 -2.063623911314455e-02 -2.788497879309013e-02 -7.900948434802275e-02 -6.081887390507075e-01 -1.083618219055957e-01
            4.832584456644533e-02 -2.061032983800845e-02 6.224965821257330e-02 -1.960492048930991e-02 -6.081076066838684e-01 -1.083596500098937e-01 -2.786178896863447e-02 -7.906090573209794e-02
            -2.790157316315082e-02 -7.905011187670585e-02 -6.081454113362329e-01 -1.083850245481505e-01 5.075528580234417e-02 -2.175411484979035e-02 5.460084348242454e-02 -1.941074675515934e-02
            -6.081610521443011e-01 -1.084236588867344e-01 -2.788883977360658e-02 -7.901932369485488e-02 5.467688532004317e-02 -1.943933878941464e-02 5.080722633914066e-02 -2.167964440264062e-02
228272500.0000000000 5.762373360849130e-02 7.127931313579409e-03 4.314822689857792e-02 6.716823953350867e-03 -5.299062853381033e-02 -5.809584233299887e-02 -6.084815541107849e-01 1.102666346453670e-01
            4.303735706511750e-02 6.789098610802372e-03 5.769045807345820e-02 7.101811238377173e-03 -6.085032719141293e-01 1.102619117372491e-01 -5.299468610919672e-02 -5.813875723552980e-02
            -5.298772322367703e-02 -5.807974657905708e-02 -6.085282072333227e-01 1.102900512329644e-01 4.677471457495378e-02 7.437914675546277e-03 4.862036700770205e-02 6.033059985016575e-03
            -6.084825934971940e-01 1.102476234816044e-01 -5.298595125106830e-02 -5.818867555958143e-02 4.866106539188692e-02 6.115691553209028e-03 4.679001534862971e-02 7.483663200685965e-03
229105000.0000000000 7.205213875642467e-02 3.008246721087475e-02 5.714456748829416e-02 3.070884635416598e-02 -6.524440199509840e-02 -3.167843239500593e-02 -5.306807807039549e-01 3.140644747073617e-01
            5.709814016835733e-02 3.065747732993510e-02 7.206901610445851e-02 3.000571101189962e-02 -5.307506401657041e-01 3.140597529333173e-01 -6.532268701392574e-02 -3.177495206518290e-02
            -6.527196716783629e-02 -3.172231420472534e-02 -5.307799019498660e-01 3.141010999696836e-01 6.329890760100451e-02 3.211909694918913e-02 6.148954894235156e-02 2.896081364789380e-02
            -5.306556311087333e-01 3.142145867861971e-01 -6.530864971440507e-02 -3.173933293684086e-02 6.155917226364618e-02 2.893532566845074e-02 6.331894407235386e-02 3.216014685264752e-02
229937500.0000000000 9.791672596742354e-02 3.753565913890806e-02 8.300509308768186e-02 3.964909913771832e-02 -6.677817592000787e-02 -6.817987328628584e-03 -3.876738860225403e-01 4.754647574591954e-01
            8.297681586031806e-02 3.959326592226281e-02 9.801960863404423e-02 3.756478874187106e-02 -3.876277472937424e-01 4.755549953375217e-01 -6.676889659713985e-02 -6.856262352585530e-03
            -6.686326366410805e-02 -6.849186346390843e-03 -3.877216021105171e-01 4.755098969743713e-01 9.153438762231420e-02 3.984896392693604e-02 8.621953090922020e-02 3.720067972586771e-02
            -3.877002375136713e-01 4.754490526034557e-01 -6.682859979523531e-02 -6.840714790613140e-03 8.620498523359484e-02 3.714604585515113e-02 9.143803851250649e-02 3.978583150957055e-02
230770000.0000000000 1.221869858687111e-01 2.649740597387654e-02 1.078840876675076e-01 3.005002604731588e-02 -6.187670547836051e-02 1.440361363312695e-02 -2.008432588271551e-01 5.762363959682587e-01
            1.079345525204486e-01 3.003870821310701e-02 1.221822359982674e-01 2.650477833293631e-02 -2.007592124350416e-01 5.761905045210362e-01 -6.191696857880001e-02 1.434331918644167e-02
            -6.198438555715795e-02 1.440514351278535e-02 -2.008492813622126e-01 5.762875574018566e-01 1.177017050984495e-01 2.780478392886341e-02 1.101007971181101e-01 2.734011910550228e-02
            -2.007565470384554e-01 5.762342367009508e-01 -6.190055971405803e-02 1.442292605317562e-02 1.101998924243440e-01 2.729703877843960e-02 1.175821821219894e-01 2.778844365448406e-02
231602500.0000000000 1.336408004879416e-01 2.686604771659011e-03 1.209007647198472e-01 7.252415704204126e-03 -5.275962511895368e-02 3.312387501882350e-02 6.434497956816685e-03 6.082948974765628e-01
            1.210199969152156e-01 7.263366096734588e-03 1.336299717658309e-01 2.673125307950550e-03 6.440431793542744e-03 6.082923952773582e-01 -5.269252685936597e-02 3.311099213463129e-02
            -5.276711404786526e-02 3.312219633840043e-02 6.530449877128098e-03 6.082160213072245e-01 1.299853777715090e-01 2.308245750777890e-03 1.221652052422570e-01 4.474427680908134e-03
            6.526498271819724e-03 6.082272005619610e-01 -5.276996021775194e-02 3.309996500710102e-02 1.221768391036701e-01 4.448474506244152e-03 1.300287900429896e-01 2.374141225872106e-03
232435000.0000000000 1.274183378336044e-01 -2.309713571947334e-02 1.166377751932731e-01 -1.837416252334796e-02 -3.788742843870310e-02 4.963952687101150e-02 2.119730230857467e-01 5.704163771238577e-01
            1.167003308693784e-01 -1.845923200117431e-02 1.273267371981069e-01 -2.304208514921690e-02 2.119932485507894e-01 5.703486048212586e-01 -3.792918289060380e-02 4.961949360954974e-02
            -3.794625157817406e-02 4.961246119212304e-02 2.120477356697978e-01 5.704742126150226e-01 1.234769457581218e-01 -2.501943737133848e-02 1.169877008227923e-01 -2.097905912963631e-02
            2.120186378490891e-01 5.703045941616699e-01 -3.793576644251515e-02 4.965638267357823e-02 1.170517757518825e-01 -2.108884100185024e-02 1.234809375359164e-01 -2.501371646224207e-02
233267500.0000000000 1.059988897536111e-01 -3.923922487528574e-02 9.704860487193057e-02 -3.556954311442796e-02 -1.620337225978142e-02 6.072915622903111e-02 3.947168521595605e-01 4.660444835683318e-01
            9.710694181737002e-02 -3.556664069870381e-02 1.060262131840250e-01 -3.919036112496057e-02 3.946871187507076e-01 4.660074547546862e-01 -1.622379436842442e-02 6.074638536155834e-02
            -1.617002932004111e-02 6.074226431629372e-02 3.946465856393488e-01 4.660392471307964e-01 1.011130020506197e-01 -4.189466757811170e-02 9.672221665370229e-02 -3.775439889310463e-02
            3.946684698647377e-01 4.660608655527926e-01 -1.617726586504179e-02 6.071169658808508e-02 9.660694857730098e-02 -3.774958108980835e-02 1.011276998577783e-01 -4.191515243169058e-02
234100000.0000000000 7.889455127043839e-02 -3.787057002872220e-02 7.075454788724050e-02 -3.597076349091961e-02 1.005613581356059e-02 6.140688021421022e-02 5.331718104299723e-01 3.037793497076449e-01
            7.084228523821061e-02 -3.602380875165589e-02 7.884001737625014e-02 -3.784529027237724e-02 5.331008781043595e-01 3.037855348983433e-01 1.000418578409411e-02 6.147418351254794e-02
            1.000496715020016e-02 6.148683566816887e-02 5.331686164758278e-01 3.037963926361241e-01 7.299174182072959e-02 -4.038932656187767e-02 6.989894203552460e-02 -3.778256013933223e-02
            5.332552501553459e-01 3.038196123352360e-01 1.000237330824873e-02 6.143964386200379e-02 6.994935399989037e-02 -3.767522845302868e-02 7.288797205502830e-02 -4.044482310988175e-02
234932500.0000000000 5.891338469752015e-02 -1.889862057674303e-02 5.066489719761964e-02 -1.911473296651946e-02 3.397526755319333e-02 4.951202726764971e-02 6.076165234441158e-01 1.006381378825921e-01
            5.062903122473459e-02 -1.907107185599807e-02 5.896982041017076e-02 -1.880734312525658e-02 6.076888158954894e-01 1.006663241759723e-01 3.392025585468183e-02 4.952861328923205e-02
            3.393948884091830e-02 4.957963521954279e-02 6.076933685399143e-01 1.007084274610984e-01 5.254155700818627e-02 -2.051130448999959e-02 4.945801982036131e-02 -2.019674063867496e-02
            6.076266456648406e-01 1.007024192133592e-01 3.401930528461829e-02 4.955853508410855e-02 4.948732351904272e-02 -2.008589215585767e-02 5.249511850459617e-02 -2.045246997439294e-02
235765000.0000000000 5.642902416705194e-02 8.644440755635360e-03 4.670522199245555e-02 6.829529789259179e-03 4.829686719465765e-02 2.840997649805086e-02 6.049278040449131e-01 -1.171768374481392e-01
            4.667769174481973e-02 6.796288633937260e-03 5.649772249931764e-02 8.674348560947709e-03 6.049780943298029e-01 -1.172119904054450e-01 4.826769577945696e-02 2.834187254795226e-02
            4.833299688969259e-02 2.835767231214512e-02 6.049688184018864e-01 -1.172017473533165e-01 5.058133717795037e-02 7.971918048329826e-03 4.562157141593051e-02 6.360082036407907e-03
            6.050150603747737e-01 -1.171701908779484e-01 4.835619736475817e-02 2.844231947780329e-02 4.570703719521682e-02 6.377213666295046e-03 5.057425394827487e-02 7.872747899045207e-03
236597500.0000000000 7.278382376238693e-02 3.075357149311950e-02 6.077174385808234e-02 2.825112727652838e-02 5.065680674681133e-02 5.851263495782565e-03 5.249654861251177e-01 -3.191396003657044e-01
            6.073203597456280e-02 2.831338863354322e-02 7.286046031832213e-02 3.072863456947761e-02 5.249169740949625e-01 -3.191291690256643e-01 5.061127974889336e-02 5.776587463117672e-03
            5.067179006455122e-02 5.797659317556210e-03 5.249984897171358e-01 -3.191121526314009e-01 6.815171152902907e-02 3.016651842452134e-02 6.025594228449697e-02 2.808119942163281e-02
            5.249621309542364e-01 -3.191357363857525e-01 5.073056310859821e-02 5.894714857236756e-03 6.020388283923050e-02 2.810714323587817e-02 6.811896247655407e-02 3.015632801927325e-02
237430000.0000000000 9.901037284472478e-02 3.655106451296457e-02 8.477437073392848e-02 3.495510987843876e-02 4.456840967276166e-02 -1.228304157539905e-02 3.808229827432784e-01 -4.780259602607444e-01
            8.477241707239012e-02 3.494059932706790e-02 9.909806726661577e-02 3.652997850385812e-02 3.807663344149629e-01 -4.779074081322217e-01 4.460059962831530e-02 -1.229260806408257e-02
            4.453166358431440e-02 -1.234864830270936e-02 3.807802496340030e-01 -4.779342961126059e-01 9.564591531110837e-02 3.498589371382428e-02 8.467853918783051e-02 3.435343560071961e-02
            3.809094096785090e-01 -4.779470427589245e-01 4.457722816313563e-02 -1.230626278977178e-02 8.472101763261451e-02 3.447343348532403e-02 9.558067936142153e-02 3.501583505234424e-02
238262500.0000000000 1.222580499410328e-01 2.412975630360077e-02 1.066078244958186e-01 2.451928530310280e-02 3.489235173016870e-02 -2.507715389155465e-02 1.938015810633163e-01 -5.763194286976792e-01
            1.065703995209270e-01 2.443183324108847e-02 1.222439029634773e-01 2.416679514538689e-02 1.937901034737822e-01 -5.763666557090058e-01 3.482385978356740e-02 -2.506074789936578e-02
            3.479988702408372e-02 -2.496662413535775e-02 1.937745872307373e-01 -5.763926585079633e-01 1.192784144174905e-01 2.081011722306414e-02 1.065146177732271e-01 2.328212851837370e-02
            1.938032915767716e-01 -5.762800889999794e-01 3.481624121338961e-02 -2.502044297773408e-02 1.065150420810041e-01 2.328258131804851e-02 1.192591425685439e-01 2.085225832405178e-02
239095000.0000000000 1.319933796538039e-01 2.970252152660705e-04 1.160079971609899e-01 2.929260266482552e-03 2.358462382287582e-02 -3.437056371776012e-02 -1.316799623095174e-02 -6.063847908050636e-01
            1.160548864986112e-01 2.883802686119514e-03 1.320680222500124e-01 1.822702828024926e-04 -1.308158596560349e-02 -6.063883865258337e-01 2.349252840662124e-02 -3.430684135589917e-02
            2.354859686180761e-02 -3.443931479220771e-02 -1.321103634166610e-02 -6.063355725429449e-01 1.279765852391919e-01 -5.166523321041460e-03 1.155195905536651e-01 9.933899896886051e-04
            -1.319268972753935e-02 -6.064125140278613e-01 2.358700321751423e-02 -3.437299293870937e-02 1.154998956843185e-01 9.582496501749941e-04 1.279116764214099e-01 -5.206263238433888e-03
239927500.0000000000 1.242371749541333e-01 -2.413216343820697e-02 1.092225875356400e-01 -1.928920734491965e-02 9.485005582367039e-03 -4.104311837612010e-02 -2.181970500154773e-01 -5.664546794922135e-01
            1.092732346477084e-01 -1.933826170937188e-02 1.241624875474978e-01 -2.419289902017627e-02 -2.181863764276104e-01 -5.664472003070453e-01 9.513399380215082e-03 -4.096439828272634e-02
            9.475726381227250e-03 -4.094942987958636e-02 -2.182331531447632e-01 -5.665049346004433e-01 1.179822520937772e-01 -3.099820695874922e-02 1.075949267959651e-01 -2.194276540166731e-02
            -2.182123258552125e-01 -5.664715381489203e-01 9.449116619444637e-03 -4.092259208068046e-02 1.075856360579333e-01 -2.197357514536276e-02 1.179883425814571e-01 -3.097356653767347e-02
240760000.0000000000 1.025597692231702e-01 -3.777184618758785e-02 8.948795948271336e-02 -3.165081676579413e-02 -8.061940677950553e-03 -4.253187820247635e-02 -3.996418407963625e-01 -4.596984514455847e-01
            8.951476682364518e-02 -3.170339360524753e-02 1.026070327585151e-01 -3.776654942388132e-02 -3.995834474115095e-01 -4.596658212197450e-01 -8.155935994788218e-03 -4.248415245864435e-02
            -8.117061866777081e-03 -4.248840742850665e-02 -3.996344927658643e-01 -4.596916546889065e-01 9.331279578270471e-02 -4.472142820499758e-02 8.608860115850830e-02 -3.436023974151878e-02
            -3.997287484716195e-01 -4.596921461254813e-01 -8.159064352562355e-03 -4.244823681662624e-02 8.609497567271071e-02 -3.433278567635913e-02 9.334244913915858e-02 -4.471123988906005e-02
241592500.0000000000 7.715429166974475e-02 -3.386389174257794e-02 6.622399608083453e-02 -2.765635061587139e-02 -2.665977699970394e-02 -3.519320405924562e-02 -5.356555542032109e-01 -2.952142607315879e-01
            6.618239268564813e-02 -2.765511604945042e-02 7.715494927257154e-02 -3.387579510717193e-02 -5.356689155009411e-01 -2.953106958845489e-01 -2.666658363960427e-02 -3.517109765462225e-02
            -2.659624555023908e-02 -3.527662210784085e-02 -5.356265339619658e-01 -2.953113033724161e-01 6.495756699446034e-02 -3.906088163226437e-02 6.078941439295710e-02 -2.946047428137494e-02
            -5.356679087040999e-01 -2.953332401858214e-01 -2.659407443618638e-02 -3.518256456133871e-02 6.079029211936063e-02 -2.943505059387806e-02 6.489640197540321e-02 -3.902217055901549e-02
242425000.0000000000 6.078104630068194e-02 -1.385551694190977e-02 5.153212280140033e-02 -8.561637337085619e-03 -3.988663553451798e-02 -1.858475054879231e-02 -6.062822316330787e-01 -9.122446906124869e-02
            5.141224039671587e-02 -8.566961537316183e-03 6.081979575508366e-02 -1.388321529514305e-02 -6.062587315089268e-01 -9.121749222398015e-02 -3.985642087951681e-02 -1.853604533021173e-02
            -3.981306934335271e-02 -1.861507084475716e-02 -6.063542356954931e-01 -9.115768569679204e-02 4.675972870418451e-02 -1.588416222242146e-02 4.434818871188095e-02 -8.251158393091715e-03
            -6.062698420459126e-01 -9.126645516238668e-02 -3.986794035323819e-02 -1.863824118879027e-02 4.442837257643861e-02 -8.199549117248748e-03 4.672126044089692e-02 -1.590082452608868e-02
243257500.0000000000 6.218008211911136e-02 1.207315815519541e-02 5.365969741196710e-02 1.598458274063865e-02 -4.233415878085070e-02 2.426489772393085e-03 -5.994525600681654e-01 1.253930940475495e-01
            5.365783675902741e-02 1.598389564364862e-02 6.212284012125579e-02 1.197633990133623e-02 -5.994870845550786e-01 1.254115959355548e-01 -4.228861346183183e-02 2.455442387978532e-03
            -4.233813747114467e-02 2.451304980322097e-03 -5.994474041909511e-01 1.253980531708031e-01 4.823357796101284e-02 1.370279444977935e-02 4.605171391753166e-02 1.920575538366445e-02
            -5.994468166257028e-01 1.254049563347538e-01 -4.234121185312249e-02 2.393567737696118e-03 4.607261395616545e-02 1.921697926978772e-02 4.819442871153625e-02 1.372258815627062e-02
244090000.0000000000 8.061486095708661e-02 3.012965280724324e-02 7.215179641212863e-02 3.268239411390395e-02 -3.402486438306929e-02 2.015764820708390e-02 -5.164791399838368e-01 3.240906305081734e-01
            7.215345665162869e-02 3.267847553863677e-02 8.057124165322202e-02 3.025282393871061e-02 -5.164330788683058e-01 3.239738295796685e-01 -3.403303716790845e-02 2.029864348579279e-02
            -3.406739202215067e-02 2.022013124683567e-02 -5.164554556861713e-01 3.240034056504437e-01 6.854106650168888e-02 3.493163884686433e-02 6.525020296446428e-02 3.911423745816319e-02
            -5.165186397289536e-01 3.240254294990142e-01 -3.411023118572956e-02 2.025061666658471e-02 6.526879200426257e-02 3.904001631296727e-02 6.856603304855942e-02 3.482747602903316e-02
244922500.0000000000 1.062460525364778e-01 3.148497003796679e-02 9.729017666753058e-02 3.291934385296895e-02 -2.052700806667243e-02 3.028571263889627e-02 -3.714723291319340e-01 4.787817239843870e-01
            9.732018261748608e-02 3.295157631418922e-02 1.062352308565234e-01 3.157048126295049e-02 -3.714444052394174e-01 4.788287887801667e-01 -2.049549613372632e-02 3.038507575753806e-02
            -2.048436252785190e-02 3.038317880637463e-02 -3.715314022894469e-01 4.788893466342366e-01 9.717119949275531e-02 3.779168996936777e-02 9.244357356140424e-02 4.212136170388451e-02
            -3.715099081405692e-01 4.789110314810618e-01 -2.047217099846239e-02 3.029453776314745e-02 9.243647874048663e-02 4.210734162145436e-02 9.717848007060528e-02 3.779192174992131e-02
245755000.0000000000 1.265914995853352e-01 1.586449806497280e-02 1.167514886415361e-01 1.672026966824720e-02 -6.835044159096634e-03 3.357653038304403e-02 -1.854121780602746e-01 5.738358142556718e-01
            1.167320573650761e-01 1.676187085887280e-02 1.266188707738793e-01 1.595487200775018e-02 -1.853200274388299e-01 5.738213804691823e-01 -6.800063540178225e-03 3.357032759754634e-02
            -6.797732632355037e-03 3.359533664612181e-02 -1.853205069934177e-01 5.738075420399262e-01 1.203655681618720e-01 2.201651719257439e-02 1.150545807738687e-01 2.761140582336345e-02
            -1.854032892847538e-01 5.738640667331413e-01 -6.889488243857052e-03 3.354001025581524e-02 1.150083606498233e-01 2.758305378983469e-02 1.203620822787083e-01 2.198704925855996e-02
246587500.0000000000 1.321798405905008e-01 -9.158700263699728e-03 1.217477133421139e-01 -8.660079730058742e-03 5.190596781600067e-03 3.308671053819578e-02 1.988020133056347e-02 6.013661224136634e-01
            1.217558488149109e-01 -8.618309687136460e-03 1.323269156110881e-01 -9.081269438953838e-03 1.985713173766693e-02 6.013350641044009e-01 5.169907184032625e-03 3.319443032500404e-02
            5.226023406502352e-03 3.309296183966817e-02 1.983084343176849e-02 6.014557816046386e-01 1.280399597653397e-01 -4.451548862169173e-03 1.235456948001910e-01 2.899251500942241e-03
            1.974962806785991e-02 6.014218729430916e-01 5.189776241837441e-03 3.318620478240675e-02 1.235487390110753e-01 2.963757279680010e-03 1.280112690516387e-01 -4.359222490943859e-03
247420000.0000000000 1.207539138436957e-01 -3.232182656095665e-02 1.096037673795476e-01 -3.198506826422579e-02 1.708928297914944e-02 3.046355145222738e-02 2.227146901364194e-01 5.598101055374703e-01
            1.095921694186005e-01 -3.196427629978866e-02 1.207752807996545e-01 -3.229311529970932e-02 2.227217380858885e-01 5.597796701864725e-01 1.706804758904441e-02 3.044674744601664e-02
            1.708333591556720e-02 3.048915191624151e-02 2.226345471144879e-01 5.598292600602665e-01 1.171926821809307e-01 -2.958984935089428e-02 1.150973132452072e-01 -2.115063571392756e-02
            2.227195465082812e-01 5.598558247004326e-01 1.709844281457336e-02 3.048724531547354e-02 1.150569241319518e-01 -2.113699794075388e-02 1.172092556948215e-01 -2.962972718799785e-02
248252500.0000000000 9.686474752044252e-02 -4.315438584071109e-02 8.501322284353782e-02 -4.307829878691996e-02 2.974220582156748e-02 2.368915659183445e-02 4.019177823565976e-01 4.520680627140410e-01
            8.509547604837366e-02 -4.310115348164451e-02 9.684778939165624e-02 -4.309585291263309e-02 4.018523554848187e-01 4.519630444680423e-01 2.980908794874857e-02 2.378107864177435e-02
            2.980159703178688e-02 2.370396191636577e-02 4.018375497294138e-01 4.520336304831410e-01 9.268948993973611e-02 -4.193993640223402e-02 9.366777750938983e-02 -3.435442887516318e-02
            4.018364109637217e-01 4.519262445102007e-01 2.975635689069234e-02 2.373014327927692e-02 9.362600843480921e-02 -3.430053484435249e-02 9.271823093282622e-02 -4.195814495129221e-02
249085000.0000000000 7.131441713346906e-02 -3.606967401507850e-02 5.850926675904231e-02 -3.617181281833233e-02 4.071711761175207e-02 1.005538773889789e-02 5.351868443530462e-01 2.871261990343832e-01
            5.847390751956251e-02 -3.618720338784517e-02 7.135349993101618e-02 -3.603933889654808e-02 5.351873277451464e-01 2.871470443360403e-01 4.066400126964138e-02 1.013200149698430e-02
            4.066227709331526e-02 1.002533187673722e-02 5.351279362418772e-01 2.871189742028542e-01 6.569909201394662e-02 -3.544505954422502e-02 6.919258221114949e-02 -3.056804707121225e-02
            5.351802075034435e-01 2.871170883055146e-01 4.071695905070936e-02 1.008467254628446e-02 6.917888928126396e-02 -3.054269632159130e-02 6.565498720198559e-02 -3.547431738585378e-02
249917500.0000000000 5.660460573249386e-02 -1.385645460596761e-02 4.218518732052183e-02 -1.388748608889996e-02 4.436480594173583e-02 -9.949122179430909e-03 6.028220609878242e-01 8.359047820953838e-02
            4.221694269567690e-02 -1.378646547785237e-02 5.661305837902994e-02 -1.376845810567129e-02 6.028668668953383e-01 8.358175199196978e-02 4.444019372248920e-02 -9.887194665163326e-03
            4.437517145278179e-02 -9.888377822853709e-03 6.029153088829918e-01 8.365723037179713e-02 4.943903682316651e-02 -1.252701311194241e-02 5.381036545671530e-02 -1.174289992141259e-02
            6.028334310059070e-01 8.366734076027266e-02 4.435669667618682e-02 -9.881283247798413e-03 5.385955655297325e-02 -1.172317880465356e-02 4.940093499106098e-02 -1.252919220146833e-02
250750000.0000000000 6.046323556290608e-02 1.239910604187479e-02 4.426471137011745e-02 1.320773759592619e-02 3.678510941490291e-02 -3.059010301903232e-02 5.935127871951040e-01 -1.312081688284850e-01
            4.417015516955665e-02 1.324259610740778e-02 6.043822271011716e-02 1.236169262323131e-02 5.934120559008310e-01 -1.312121932840036e-01 3.681637779143541e-02 -3.059288025536025e-02
            3.676823474892806e-02 -3.058387800349530e-02 5.934713098534861e-01 -1.312065724532757e-01 5.226994961301758e-02 1.537175896984497e-02 5.532204501299916e-02 1.190521663271790e-02
            5.934910183875836e-01 -1.312142567024034e-01 3.675639997945641e-02 -3.061448976827331e-02 5.532900825604613e-02 1.185557699115605e-02 5.232485862550463e-02 1.544616389727476e-02
251582500.0000000000 8.048984387873183e-02 2.897637738566363e-02 6.265254979270739e-02 3.161840246553740e-02 1.949517282524382e-02 -4.464681061933947e-02 5.089309000160235e-01 -3.272699048892160e-01
            6.269817188081275e-02 3.165543668282848e-02 8.056495517093144e-02 2.895638007084823e-02 5.089595132351937e-01 -3.271755029566777e-01 1.949137937519428e-02 -4.465186497384074e-02
            1.954567698800636e-02 -4.461615988362242e-02 5.089276050253776e-01 -3.272247808485710e-01 7.266141739370897e-02 3.422064433240949e-02 7.213679988266800e-02 2.753587170342372e-02
            5.089069204159135e-01 -3.271894222148391e-01 1.949931859333858e-02 -4.456391303668380e-02 7.202330980665561e-02 2.756814907163469e-02 7.274915416359683e-02 3.410846479675241e-02
252415000.0000000000 1.061215850216481e-01 2.797189918579799e-02 8.729091950591185e-02 3.336919315805027e-02 -1.156440529371354e-03 -4.836931643224621e-02 3.635596164853040e-01 -4.794443773759565e-01
            8.729123485181269e-02 3.341328896941907e-02 1.060946467810942e-01 2.795921486922560e-02 3.636639612826582e-01 -4.793134879274651e-01 -1.216183367057750e-03 -4.846755799992523e-02
            -1.194428144675770e-03 -4.847351261929347e-02 3.635950017174696e-01 -4.794036360004746e-01 9.975571463872535e-02 3.517766172883386e-02 9.442050345504160e-02 2.752637639305505e-02
            3.635818762692933e-01 -4.793372005815503e-01 -1.242737786123929e-03 -4.839881136376163e-02 9.442418404722719e-02 2.759812045584217e-02 9.962951545013703e-02 3.519992395277362e-02
253247500.0000000000 1.245533006558492e-01 1.050954741589730e-02 1.059568187029287e-01 1.927126389271933e-02 -1.967452358881671e-02 -4.365542553962191e-02 1.777965778315685e-01 -5.719714827349464e-01
            1.059418356498457e-01 1.925093692042289e-02 1.245061039574030e-01 1.057813026454131e-02 1.778343466357180e-01 -5.720080939787723e-01 -1.961690800031179e-02 -4.360191651310336e-02
            -1.964305995096294e-02 -4.355438038532764e-02 1.778684468003635e-01 -5.720531695178440e-01 1.204531586054482e-01 1.899888050591549e-02 1.105166010462978e-01 1.262101118621065e-02
            1.778891382337564e-01 -5.719807554958610e-01 -1.971654887853696e-02 -4.353054552422328e-02 1.106332080652131e-01 1.269806786623707e-02 1.203807228403464e-01 1.891166705859943e-02
254080000.0000000000 1.272877162668249e-01 -1.477436884505067e-02 1.103207332879891e-01 -2.907730852924730e-03 -3.404785911848034e-02 -3.391497700357970e-02 -2.670493725667577e-02 -5.974999137069021e-01
            1.104566583621750e-01 -2.933911671524968e-03 1.272276070416086e-01 -1.483419014048261e-02 -2.680323048020986e-02 -5.975090041321408e-01 -3.405362093756430e-02 -3.398847081252523e-02
            -3.404416499830422e-02 -3.389807355237297e-02 -2.667566809163122e-02 -5.975104335696676e-01 1.256475695124482e-01 -6.254304957282551e-03 1.128345637119789e-01 -9.196647371517999e-03
            -2.670324898503839e-02 -5.975172842520303e-01 -3.401189196079494e-02 -3.395785841797565e-02 1.128079908937151e-01 -9.206325277071395e-03 1.257327828511099e-01 -6.273251840922027e-03
254912500.0000000000 1.128920318266766e-01 -3.633962045893822e-02 9.901910787386464e-02 -2.224187934379440e-02 -4.519345432772374e-02 -2.127477735158341e-02 -2.285922063983334e-01 -5.537040003313508e-01
            9.903575484210954e-02 -2.217204414259132e-02 1.128530853406344e-01 -3.631856156115820e-02 -2.285822591019619e-01 -5.537377106520318e-01 -4.518316607374169e-02 -2.136606951025985e-02
            -4.517692618665661e-02 -2.123492330359976e-02 -2.285969825850617e-01 -5.536657942801698e-01 1.135955263873236e-01 -2.877016759006171e-02 9.971526947372129e-02 -2.761074995792680e-02
            -2.286009424910915e-01 -5.536903412541510e-01 -4.520517419194016e-02 -2.132096696834954e-02 9.973838223164050e-02 -2.764877200077857e-02 1.136749341787580e-01 -2.869117367791393e-02
255745000.0000000000 8.752595421002247e-02 -4.386515307561763e-02 7.728038357245702e-02 -2.888705131487587e-02 -5.353086410082335e-02 -4.720198357862289e-03 -4.057495763199706e-01 -4.433851098514613e-01
            7.721233048332893e-02 -2.897203804748568e-02 8.741963705692735e-02 -4.386590539830208e-02 -4.057765605107506e-01 -4.433955015889605e-01 -5.351981537672527e-02 -4.682674819311900e-03
            -5.348798520450779e-02 -4.763466199139049e-03 -4.056951017889024e-01 -4.433613231404108e-01 9.000716464303277e-02 -3.787305622396798e-02 7.707446353260591e-02 -3.298408379980874e-02
            -4.057671770263725e-01 -4.433259901254116e-01 -5.351289396968088e-02 -4.731445331325702e-03 7.705788611023684e-02 -3.307745359839074e-02 8.995324461172964e-02 -3.776088790214954e-02
256577500.0000000000 6.265345793868098e-02 -3.290364337681841e-02 5.579418596284559e-02 -1.875294006221129e-02 -5.614173843606646e-02 1.679667314850020e-02 -5.355347497642904e-01 -2.767128173696045e-01
            5.589505246915338e-02 -1.868059439608175e-02 6.258494436196285e-02 -3.292680769116022e-02 -5.355045440110016e-01 -2.766493310783776e-01 -5.619586404783441e-02 1.693352508965346e-02
            -5.612269272859734e-02 1.691153018696496e-02 -5.355318782268127e-01 -2.766523969954399e-01 6.604971156692294e-02 -2.889260862004678e-02 5.538064424441602e-02 -2.171496441259879e-02
            -5.355808386329701e-01 -2.766747141738292e-01 -5.612094925129275e-02 1.693834702204466e-02 5.545717615947830e-02 -2.172810723761554e-02 6.597318054882485e-02 -2.894041844830981e-02
257410000.0000000000 5.068556389769960e-02 -8.202791330458807e-03 4.658197566951906e-02 4.141431105295393e-03 -4.858065247948780e-02 4.095326012242820e-02 -5.984908551495484e-01 -7.311481295543890e-02
            4.659173998471541e-02 4.130538031415129e-03 5.078646973205355e-02 -8.262236682478630e-03 -5.984726002982136e-01 -7.327145228230482e-02 -4.854509246404277e-02 4.097848417481779e-02
            -4.861527014576357e-02 4.097621441902088e-02 -5.985066048351730e-01 -7.324909327736567e-02 5.415791288918971e-02 -6.008975197079585e-03 4.634886000168129e-02 1.868361916650294e-03
            -5.985197913888254e-01 -7.326507146555761e-02 -4.862782726669353e-02 4.093912872983665e-02 4.641332568693202e-02 1.873079982865818e-03 5.413037777540004e-02 -6.026756318797650e-03
258242500.0000000000 5.791944613861021e-02 1.808020435555726e-02 5.507502579439109e-02 2.805882184398376e-02 -2.909405855830828e-02 6.056290308811202e-02 -5.847160192781878e-01 1.388903322403985e-01
            5.515029099603047e-02 2.805206741668429e-02 5.785164294589712e-02 1.798569735829613e-02 -5.847081371181686e-01 1.389254594386489e-01 -2.920770375570641e-02 6.055431012746113e-02
            -2.905389901196040e-02 6.058397093315188e-02 -5.847111874176989e-01 1.389810383919268e-01 6.091342844080857e-02 1.877993752999518e-02 5.535265970643396e-02 2.611128838096537e-02
            -5.847728252970039e-01 1.389598249178239e-01 -2.913885104250258e-02 6.056977930827993e-02 5.529568776839679e-02 2.610639060315333e-02 6.088490938544477e-02 1.877162089868710e-02
259075000.0000000000 8.005258802130544e-02 3.274310010776429e-02 7.756429845203765e-02 4.080169615053406e-02 -1.859108914775815e-03 6.914508741086424e-02 -4.978769808432000e-01 3.304320123135695e-01
            7.761783112687767e-02 4.069643481922662e-02 8.006087328996715e-02 3.281985320741282e-02 -4.978829692872165e-01 3.303708716207976e-01 -1.907647533342077e-03 6.915452825634563e-02
            -1.898260443916077e-03 6.900550955367052e-02 -4.979054008096512e-01 3.304006756835225e-01 8.228923513776677e-02 3.261371771265251e-02 7.803935466928091e-02 3.874073792381065e-02
            -4.978701031835228e-01 3.304242996339560e-01 -1.829800288754195e-03 6.912900783572833e-02 7.810942434092043e-02 3.870632298172817e-02 8.231235224529133e-02 3.265510453694582e-02
259907500.0000000000 1.057351238540500e-01 2.964520803115560e-02 1.029784142555413e-01 3.607484809506447e-02 2.546297699680617e-02 6.469355873752891e-02 -3.526216697848421e-01 4.778211958217950e-01
            1.030203690188847e-01 3.597794077775249e-02 1.056804618966855e-01 2.961993943934474e-02 -3.526398126407697e-01 4.778887271872487e-01 2.547688740861484e-02 6.467875434616580e-02
            2.549140171205180e-02 6.469658314349715e-02 -3.526903013935263e-01 4.778047220847693e-01 1.071830858098153e-01 2.895414647930706e-02 1.034846899416759e-01 3.375735714848269e-02
            -3.526473325065123e-01 4.778156085844577e-01 2.539540812619220e-02 6.469114664023519e-02 1.034617511947314e-01 3.378038347002889e-02 1.071040399379699e-01 2.888951246059439e-02
260740000.0000000000 1.227429067422301e-01 1.089749105373598e-02 1.196708332721835e-01 1.673748332739940e-02 4.729381545676834e-02 5.067725455093399e-02 -1.686457193744139e-01 5.668062272443990e-01
            1.197502797269522e-01 1.661774253449327e-02 1.227225550710123e-01 1.093838112516402e-02 -1.687603185423251e-01 5.668634922269551e-01 4.725136611882368e-02 5.067533895622963e-02
            4.725329834624299e-02 5.068537610834854e-02 -1.687655689772859e-01 5.668689440684254e-01 1.234112924766608e-01 1.020083188959356e-02 1.198450086202947e-01 1.414059005969624e-02
            -1.687074996232794e-01 5.668724230391249e-01 4.725832217732735e-02 5.060398978085012e-02 1.198463758009120e-01 1.416569405867163e-02 1.234790612103439e-01 1.017237382637457e-02
261572500.0000000000 1.235820340370274e-01 -1.402117725125924e-02 1.207256355437098e-01 -8.711291971722256e-03 6.184306979438853e-02 3.160539783359064e-02 3.327303522782313e-02 5.900182778122718e-01
            1.206641051689612e-01 -8.659146998501704e-03 1.235699313971509e-01 -1.406623342637678e-02 3.320541736311865e-02 5.899591929278604e-01 6.190833674468526e-02 3.159689913287043e-02
            6.200305742201358e-02 3.159643078998512e-02 3.313668758119499e-02 5.899155482398056e-01 1.240232298233139e-01 -1.459694832126152e-02 1.202761246793887e-01 -1.127536586918023e-02
            3.324781920109939e-02 5.899366995080421e-01 6.192551435349777e-02 3.166798036839177e-02 1.203821380292448e-01 -1.127317854662878e-02 1.240347452350179e-01 -1.460181758763449e-02
262405000.0000000000 1.080182069285012e-01 -3.377827214079245e-02 1.056585472196538e-01 -2.895348208946524e-02 7.081634312593303e-02 9.937971435600431e-03 2.323551102727555e-01 5.446413032580000e-01
            1.056351027326500e-01 -2.893726598520760e-02 1.079562227419029e-01 -3.376490340002375e-02 2.324085036950661e-01 5.446127984516982e-01 7.071136133522485e-02 9.959855239983625e-03
            7.085379732976124e-02 1.001235091409742e-02 2.323222220921375e-01 5.446357475627237e-01 1.083321967926040e-01 -3.399189139293704e-02 1.047952806906488e-01 -3.130414683661170e-02
            2.323238027175132e-01 5.446121581050568e-01 7.082964133683284e-02 9.897562770503963e-03 1.048533258522147e-01 -3.123639220446286e-02 1.084152334767842e-01 -3.405041012292968e-02
263237500.0000000000 8.271654603335776e-02 -3.861378108627858e-02 8.117903439124433e-02 -3.504257314161919e-02 7.400152658661557e-02 -1.473581718746922e-02 4.064361466199631e-01 4.335593353358322e-01
            8.119781365124337e-02 -3.499332094392669e-02 8.271672985224394e-02 -3.868905181640560e-02 4.064122483008496e-01 4.335582348948706e-01 7.398063289267123e-02 -1.474548265684448e-02
            7.402186882870986e-02 -1.477114334284581e-02 4.064907186778811e-01 4.335308517864572e-01 8.336834087557998e-02 -3.871078402889474e-02 8.011859830076147e-02 -3.689768182081744e-02
            4.064626416733153e-01 4.335058124248207e-01 7.399872371725810e-02 -1.469915102305882e-02 8.003746620784891e-02 -3.686415068900337e-02 8.340701680579063e-02 -3.875833528759197e-02
264070000.0000000000 5.988244925859513e-02 -2.547982694234486e-02 5.867816084424557e-02 -2.368416575820672e-02 6.885398307150423e-02 -4.245035543271262e-02 5.328231023767072e-01 2.667454699926859e-01
            5.871370359657476e-02 -2.367028306807462e-02 5.994173091250343e-02 -2.541911636692274e-02 5.328323981647667e-01 2.668004977673061e-01 6.884998018846915e-02 -4.245681954419995e-02
            6.883216658340235e-02 -4.245298038870288e-02 5.327662816548682e-01 2.667819327161619e-01 6.105580066631727e-02 -2.552207351332572e-02 5.754845469856354e-02 -2.499629419945374e-02
            5.328008844672376e-01 2.667316277873172e-01 6.882813736152824e-02 -4.242713154651450e-02 5.753009507820802e-02 -2.499153764427662e-02 6.109243471143444e-02 -2.557547601390204e-02
264902500.0000000000 5.122769770836436e-02 6.007500805274479e-05 4.957021679551676e-02 -3.923886196044772e-04 5.152486485259183e-02 -6.936265849286456e-02 5.920841052719403e-01 6.467250326864106e-02
            4.949458106837005e-02 -3.689026505737072e-04 5.126652031224587e-02 6.440322800417801e-05 5.921968306730401e-01 6.464431382778620e-02 5.151959969612906e-02 -6.937528564900733e-02
            5.149435698357108e-02 -6.933864669863024e-02 5.921672848552413e-01 6.466079581426991e-02 5.296965575086487e-02 -4.992626792297185e-04 4.850104954415798e-02 -1.318430670261311e-03
            5.921923846195859e-01 6.465569523335754e-02 5.142756606453110e-02 -6.933967096958427e-02 4.848102359590989e-02 -1.347755890356612e-03 5.298465460431179e-02 -4.486433692819824e-04
265735000.0000000000 6.173615266939674e-02 2.507671772616540e-02 5.828840216563959e-02 2.278467935259803e-02 2.181363829931242e-02 -8.805472576910645e-02 5.754863145525984e-01 -1.444838699129955e-01
            5.834994873414504e-02 2.264926657136447e-02 6.174624032194643e-02 2.512047358086720e-02 5.755063655579508e-01 -1.445275714379013e-01 2.180101505330508e-02 -8.805925322880202e-02
            2.178309693623406e-02 -8.798636797473054e-02 5.754222090963266e-01 -1.445617428110680e-01 6.368688565814301e-02 2.386439153960078e-02 5.750285908758140e-02 2.207237003678996e-02
            5.755476674502965e-01 -1.445177985541965e-01 2.182716172895784e-02 -8.797289986908567e-02 5.749112535521465e-02 2.201589124559553e-02 6.374713883368853e-02 2.391029669637234e-02
266567500.0000000000 8.576528648302162e-02 3.704284249166022e-02 8.001575420811471e-02 3.378763203013194e-02 -1.419874897440682e-02 -9.193410503991828e-02 4.872507772291227e-01 -3.319921247603164e-01
            7.996488855323006e-02 3.383890974414863e-02 8.580091704503559e-02 3.711068476028880e-02 4.872465215069409e-01 -3.320569610105513e-01 -1.425930687954294e-02 -9.190116971596640e-02
            -1.421835318596055e-02 -9.202181226682529e-02 4.871811520398642e-01 -3.320410917080253e-01 8.781020902508106e-02 3.513429404082054e-02 7.935278567755770e-02 3.331005697341104e-02
            4.873022533778849e-01 -3.321422130910542e-01 -1.415459810468154e-02 -9.193872838381942e-02 7.935791465305134e-02 3.324180472927119e-02 8.786506143844611e-02 3.509106391707707e-02
267400000.0000000000 1.115471836362849e-01 3.090551432800938e-02 1.030436029633239e-01 2.783475445662457e-02 -4.802263355161527e-02 -8.056552972447410e-02 3.424225093193071e-01 -4.756679154207491e-01
            1.031008488857916e-01 2.785297008998560e-02 1.115441501362954e-01 3.088224026564710e-02 3.424421296474458e-01 -4.757046992114116e-01 -4.810802006173989e-02 -8.052098214850721e-02
            -4.812221267869801e-02 -8.051569192562630e-02 3.424480313060881e-01 -4.756968218567039e-01 1.132966503455223e-01 2.810204882282515e-02 1.026017032685166e-01 2.739285607155356e-02
            3.423904318281226e-01 -4.756355476701167e-01 -4.803281869284050e-02 -8.060249180250967e-02 1.025704438504463e-01 2.737545225067826e-02 1.132159719509521e-01 2.810012302181690e-02
268232500.0000000000 1.271848756737992e-01 9.906634754560691e-03 1.165244910717675e-01 8.473423463394775e-03 -7.361890008832672e-02 -5.811878857959951e-02 1.601229301549226e-01 -5.614897655616830e-01
            1.165480691388980e-01 8.481288286228052e-03 1.271955112438457e-01 9.833916607795562e-03 1.600652263767225e-01 -5.615321390756401e-01 -7.367175474405686e-02 -5.801381121371778e-02
            -7.360469752959445e-02 -5.804700112013288e-02 1.601047099235709e-01 -5.614389308012824e-01 1.281786223375007e-01 6.734854797598964e-03 1.162787987213374e-01 8.133999248859176e-03
            1.601276851909702e-01 -5.614514448082480e-01 -7.360923030376364e-02 -5.805544443858478e-02 1.161590554686765e-01 8.135372792944642e-03 1.282085388389460e-01 6.774900890916757e-03
269065000.0000000000 1.259509813676849e-01 -1.606023101668734e-02 1.145026323672065e-01 -1.507008216631312e-02 -8.942069522200387e-02 -2.987062765103000e-02 -3.962342163145514e-02 -5.821040622300752e-01
            1.145351180853436e-01 -1.505879709261945e-02 1.259226913898803e-01 -1.597008867559626e-02 -3.954115048617032e-02 -5.821525778259818e-01 -8.936215071893719e-02 -2.990024098585980e-02
            -8.941281028147868e-02 -2.986189223988329e-02 -3.959414057474479e-02 -5.822413471324928e-01 1.263651381026773e-01 -1.914717715663104e-02 1.142238852382100e-01 -1.522912320488700e-02
            -3.959010465881492e-02 -5.821544022674093e-01 -8.939096312748811e-02 -2.996815437750628e-02 1.142324876854583e-01 -1.529007150817346e-02 1.264123134711964e-01 -1.906756864556087e-02
269897500.0000000000 1.085467268480783e-01 -3.517467559098364e-02 9.759277980599029e-02 -3.213859674943863e-02 -9.634509674883344e-02 9.693583794731221e-04 -2.360520053878501e-01 -5.351123256342077e-01
            9.751829841698366e-02 -3.204204289491357e-02 1.084780503228944e-01 -3.517862242075258e-02 -2.360465963922005e-01 -5.351730443136634e-01 -9.638364705811564e-02 9.668864416858406e-04
            -9.631187720885634e-02 9.966453002521667e-04 -2.360292820218087e-01 -5.351206224012817e-01 1.086748374836237e-01 -3.790892664481041e-02 9.760884001167405e-02 -3.211269420761256e-02
            -2.360454094536096e-01 -5.351591584630985e-01 -9.635492586980610e-02 9.836110640538598e-04 9.770037342033364e-02 -3.209246739244685e-02 1.085789787005059e-01 -3.791231735887021e-02
270730000.0000000000 8.255463154190074e-02 -3.872024002705070e-02 7.328306721517679e-02 -3.425258142504540e-02 -9.443036356130134e-02 3.415459078186829e-02 -4.068646726010587e-01 -4.228915307840821e-01
            7.326868042691487e-02 -3.429365692425846e-02 8.255218249790038e-02 -3.875136348174456e-02 -4.067725457139121e-01 -4.228419595908007e-01 -9.445991084789032e-02 3.406496788208775e-02
            -9.447758570688229e-02 3.409005375515410e-02 -4.068749982378252e-01 -4.228174794483781e-01 8.283943019784461e-02 -4.099301420599375e-02 7.370953780927134e-02 -3.408850264191764e-02
            -4.069318115420371e-01 -4.228516235580768e-01 -9.450265271316556e-02 3.409631417006350e-02 7.381210191632408e-02 -3.421035420158464e-02 8.283534513222889e-02 -4.094035365432622e-02
271562500.0000000000 6.029969699908579e-02 -2.431642900116983e-02 5.304543720922378e-02 -1.976872573026065e-02 -8.117053423277688e-02 6.805793518502658e-02 -5.291957270249737e-01 -2.562413984712574e-01
            5.297244208536566e-02 -1.976231935238363e-02 6.028983170370798e-02 -2.429402658708817e-02 -5.292173671258539e-01 -2.561927400966796e-01 -8.120014957586194e-02 6.804745836182961e-02
            -8.125372040573936e-02 6.806723010652975e-02 -5.292571094552774e-01 -2.561828335780330e-01 6.122314557700162e-02 -2.631039666073006e-02 5.415309986208106e-02 -1.985620055631193e-02
            -5.292341318364332e-01 -2.561171764772946e-01 -8.121146301632902e-02 6.803767917284463e-02 5.407043317297634e-02 -1.978615425418780e-02 6.124799693102345e-02 -2.626818818121389e-02
272395000.0000000000 5.314624757000291e-02 1.397846411131870e-03 4.721544348240944e-02 4.808096774626699e-03 -5.376649403412675e-02 9.764231469669492e-02 -5.846454190511586e-01 -5.591276358436505e-02
            4.725852706207945e-02 4.767540325872177e-03 5.316180001059405e-02 1.315222188754542e-03 -5.845906458915368e-01 -5.588488965541214e-02 -5.380699744787661e-02 9.759914120334170e-02
            -5.373576190873303e-02 9.765820065893678e-02 -5.846145851323705e-01 -5.586635364929053e-02 5.505539062120750e-02 -1.065659672958248e-03 4.890569353975618e-02 4.115911308033513e-03
            -5.845531804092883e-01 -5.589113282278373e-02 -5.373663667148639e-02 9.767006157816256e-02 4.893428820559296e-02 4.040466649261410e-03 5.497086142795127e-02 -9.798033259003980e-04
273227500.0000000000 6.457302014222029e-02 2.519553816691627e-02 5.904289316916547e-02 2.680897891511821e-02 -1.405772374769741e-02 1.149175690639193e-01 -5.650009312468088e-01 1.497952875009461e-01
            5.900966338135052e-02 2.684002368839519e-02 6.461171295419264e-02 2.512889768419353e-02 -5.649858649119770e-01 1.498053094130659e-01 -1.405932574675150e-02 1.148309046510869e-01
            -1.404377280518142e-02 1.149250487399207e-01 -5.649562313755020e-01 1.498031374252110e-01 6.718332478746121e-02 2.182943026214656e-02 6.108094915724322e-02 2.518207538389950e-02
            -5.650089547774628e-01 1.497361520630119e-01 -1.406426348581565e-02 1.148355128720731e-01 6.098468386390633e-02 2.513011197395559e-02 6.730043591889372e-02 2.179338198347619e-02
274060000.0000000000 8.855897233894877e-02 3.538441572789024e-02 8.216108628663032e-02 3.546799172068626e-02 3.053229818141897e-02 1.141009514441382e-01 -4.758059213838263e-01 3.330162943930956e-01
            8.210135527840327e-02 3.554867636752002e-02 8.865578011671292e-02 3.532501310387379e-02 -4.758042975453385e-01 3.329943336803070e-01 3.051245679842769e-02 1.141515359081348e-01
            3.052778097069673e-02 1.140801581013576e-01 -4.758467641068176e-01 3.329363287456910e-01 9.129653404817278e-02 3.048494172749298e-02 8.369735093260273e-02 3.278439066662342e-02
            -4.758487060595321e-01 3.330108963642743e-01 3.050083248541784e-02 1.140761824349973e-01 8.373027992386017e-02 3.278865089464912e-02 9.130085849532694e-02 3.056636906622938e-02
274892500.0000000000 1.129216685901310e-01 2.773317440392973e-02 1.046085097506521e-01 2.726370743977722e-02 7.047051387435339e-02 9.577912574895367e-02 -3.316534446923976e-01 4.725615203777073e-01
            1.047434990400394e-01 2.718043510997280e-02 1.129641487524004e-01 2.766717093273229e-02 -3.316146837341457e-01 4.725524908568819e-01 7.052879908497817e-02 9.571372033486246e-02
            7.052937215722477e-02 9.569258492751204e-02 -3.316820620732319e-01 4.724293011270160e-01 1.148640329107551e-01 2.146182204483527e-02 1.054542638495393e-01 2.366825166027751e-02
            -3.315760197529198e-01 4.725415598773320e-01 7.052024565607515e-02 9.573971076229082e-02 1.055647218597546e-01 2.368152774885270e-02 1.149414397244018e-01 2.143006331518335e-02
275725000.0000000000 1.263780910178003e-01 6.646617540213139e-03 1.163564944981751e-01 6.740875004366260e-03 9.964210600661241e-02 6.505296743672603e-02 -1.511921713937902e-01 5.550754865927700e-01
            1.164464804348491e-01 6.804599790784236e-03 1.263466893018052e-01 6.576145725546834e-03 -1.512153986880932e-01 5.550632192003150e-01 9.960482787341567e-02 6.498718402600842e-02
            9.976299460295039e-02 6.495212433471989e-02 -1.511723837192847e-01 5.550735552227831e-01 1.270406941087634e-01 -4.887855731822719e-04 1.161174656399687e-01 2.822306952665689e-03
            -1.513052510205227e-01 5.550273306652254e-01 9.971224382930217e-02 6.504636039796037e-02 1.161484291716018e-01 2.860122758029533e-03 1.270689377174841e-01 -4.914654613135106e-04
276557500.0000000000 1.233322011825921e-01 -1.812029868284834e-02 1.122230800022077e-01 -1.627372418897905e-02 1.163820368915794e-01 2.783604034155618e-02 4.598670663110296e-02 5.733781060565539e-01
            1.121756687559758e-01 -1.631132783021375e-02 1.233233330815487e-01 -1.812067985245953e-02 4.601594019863126e-02 5.734170479626420e-01 1.164075581643581e-01 2.783412510971739e-02
            1.164320618387668e-01 2.783464436172756e-02 4.601349787293682e-02 5.734312803639317e-01 1.224453685655039e-01 -2.518645548312583e-02 1.106872226628372e-01 -1.999622668622199e-02
            4.599906807053993e-02 5.734497191169512e-01 1.164262543776393e-01 2.780577594527789e-02 1.107879496490362e-01 -1.996493167875343e-02 1.224835750437175e-01 -2.526548062745947e-02
277390000.0000000000 1.050924874257879e-01 -3.522626779879157e-02 9.420024380375561e-02 -3.128699618026116e-02 1.214293560328112e-01 -1.223275780231943e-02 2.393516239429528e-01 5.245489255213852e-01
            9.421460633072175e-02 -3.130028502616296e-02 1.050697772863468e-01 -3.525340617457483e-02 2.394653917710294e-01 5.245071340866105e-01 1.214224859856014e-01 -1.231894720924997e-02
            1.213822770243390e-01 -1.226755958810129e-02 2.394133724233867e-01 5.244419814433043e-01 1.030020695311259e-01 -4.150143638923214e-02 9.189003875011921e-02 -3.422166112268354e-02
            2.393598209852154e-01 5.245845632086327e-01 1.214508060333671e-01 -1.229484060584175e-02 9.181362124477539e-02 -3.428827578680968e-02 1.030505644890444e-01 -4.152804326717189e-02
278222500.0000000000 7.981738489233703e-02 -3.646004335423510e-02 7.042491846208004e-02 -3.096865650218084e-02 1.142950337863606e-01 -5.370942925065589e-02 4.065873295119579e-01 4.112207375879278e-01
            7.040454120967203e-02 -3.092606073984195e-02 7.990927685160062e-02 -3.654887240142436e-02 4.065179654410259e-01 4.113058803588152e-01 1.142801822115784e-01 -5.360500134357506e-02
            1.142458324722067e-01 -5.367865575843159e-02 4.065075707544755e-01 4.112582861561129e-01 7.750777663109179e-02 -4.160353406468727e-02 6.770261817182584e-02 -3.296525123692155e-02
            4.065162548995941e-01 4.112844089484545e-01 1.142905768924479e-01 -5.370138908150870e-02 6.762255441613774e-02 -3.300354065407832e-02 7.736261727777238e-02 -4.149545721498630e-02
279055000.0000000000 5.972958277932644e-02 -2.074411484769682e-02 5.245436814867761e-02 -1.470361780725276e-02 9.266201924855619e-02 -9.358310704200440e-02 5.245461472983789e-01 2.448547376604787e-01
            5.248998982841994e-02 -1.472025966137384e-02 5.972069062676694e-02 -2.081561630750667e-02 5.245119830226826e-01 2.448166342578935e-01 9.271576299752343e-02 -9.355978120840490e-02
            9.279024314281015e-02 -9.354017039894724e-02 5.244887475534881e-01 2.448818998427527e-01 5.802602666293032e-02 -2.465645173858235e-02 4.989066081625003e-02 -1.579187425233838e-02
            5.245727173021312e-01 2.448293443132131e-01 9.274503412648963e-02 -9.357336114621724e-02 4.993760151539239e-02 -1.589634765877773e-02 5.807225929729771e-02 -2.454089972738922e-02
279887500.0000000000 5.502338157257697e-02 4.310887543197171e-03 4.988379824385557e-02 9.508836849685447e-03 5.535367823984366e-02 -1.254734900478494e-01 5.756930869965629e-01 4.688623306023173e-02
            4.982332402648066e-02 9.576165755727058e-03 5.504091628390163e-02 4.371475912513354e-03 5.756889571880688e-01 4.692815881290392e-02 5.537445742763307e-02 -1.255240316418906e-01
            5.534830061365107e-02 -1.255640513383324e-01 5.756364778652405e-01 4.701742927455718e-02 5.485331852091797e-02 8.329596011003794e-04 4.777257463541892e-02 8.827941863347080e-03
            5.756722696147100e-01 4.693365371960546e-02 5.540496030184140e-02 -1.255339968630698e-01 4.765929585990632e-02 8.837570831797318e-03 5.476042130764443e-02 9.121366818324643e-04
280720000.0000000000 6.798319585317324e-02 2.595320323398250e-02 6.412822854918945e-02 2.931061986909489e-02 5.786052497561828e-03 -1.411747425296241e-01 5.532133169072809e-01 -1.546406582568811e-01
            6.408720940358099e-02 2.938922443352639e-02 6.798686779942048e-02 2.610594388837760e-02 5.532295766873779e-01 -1.546420781338035e-01 5.741978995868951e-03 -1.411301721011413e-01
            5.759215081271040e-03 -1.411291810866815e-01 5.532747193640760e-01 -1.546483019594173e-01 6.931305746539128e-02 2.177292723099719e-02 6.236628675983931e-02 2.869021526635043e-02
            5.532195875073949e-01 -1.547255699766241e-01 5.694207395427524e-03 -1.411306805771677e-01 6.241990331788131e-02 2.861325799409798e-02 6.923465547446148e-02 2.181879685439191e-02
281552500.0000000000 9.141405848297700e-02 3.354636435033651e-02 8.746169200485841e-02 3.475013311408453e-02 -4.699382663563014e-02 -1.354241959236474e-01 4.633260959931071e-01 -3.331389011182704e-01
            8.751169740167687e-02 3.474904773413017e-02 9.152389734507298e-02 3.359002748663777e-02 4.631470137843580e-01 -3.331233539273123e-01 -4.703511458153397e-02 -1.355473104041043e-01
            -4.699804517311849e-02 -1.355198488995409e-01 4.631862208857478e-01 -3.331248235535610e-01 9.364137365473160e-02 2.755404098573484e-02 8.602269798150666e-02 3.382165225183461e-02
            4.632294628817608e-01 -3.331400263438352e-01 -4.701770559803158e-02 -1.355468831562302e-01 8.611664692730388e-02 3.382436431438091e-02 9.371980901656819e-02 2.759389513208711e-02
282385000.0000000000 1.138165589248382e-01 2.430038749205116e-02 1.086245158929284e-01 2.373774107538094e-02 -9.279066959473740e-02 -1.101385072998038e-01 3.202248661391687e-01 -4.682136995795652e-01
            1.086170514961123e-01 2.367417497448429e-02 1.137803263575316e-01 2.432738089636416e-02 3.202128675488621e-01 -4.683367410936378e-01 -9.285029932681937e-02 -1.100702083054337e-01
            -9.277171139253360e-02 -1.102122320800415e-01 3.203059396399877e-01 -4.682496188618175e-01 1.156897371055164e-01 1.612780495191538e-02 1.069027595360699e-01 2.251872272430170e-02
            3.203044190708186e-01 -4.683176772949229e-01 -9.287874824987156e-02 -1.102380140093558e-01 1.069733634920415e-01 2.250850075562059e-02 1.157380165575206e-01 1.615942977577072e-02
283217500.0000000000 1.246422918861257e-01 3.191338692730502e-03 1.175507921854492e-01 2.020966222339757e-03 -1.254248294600748e-01 -7.130908893881070e-02 1.420795022726712e-01 -5.474810098860491e-01
            1.175003267256955e-01 1.997733379071489e-03 1.246894270786477e-01 3.170178426093603e-03 1.420526543923964e-01 -5.474926654334249e-01 -1.254258947489967e-01 -7.132167408809993e-02
            -1.253825857420677e-01 -7.124666012044893e-02 1.420931529746624e-01 -5.474977974187768e-01 1.251101544973511e-01 -6.810976585965821e-03 1.154111174536275e-01 8.446245752566750e-04
            1.421310012584442e-01 -5.474832602487321e-01 -1.254056823754396e-01 -7.118810846405219e-02 1.154743564143960e-01 8.219098351085260e-04 1.250396492126045e-01 -6.833053050220588e-03
284050000.0000000000 1.195023021763325e-01 -1.985091933466347e-02 1.104634888238229e-01 -2.052546885307760e-02 -1.429385530237743e-01 -2.513475776584244e-02 -5.223282323213468e-02 -5.633581711657653e-01
            1.104816770893557e-01 -2.053560855552391e-02 1.194914515767768e-01 -1.989263445157811e-02 -5.223287563262123e-02 -5.634207394193904e-01 -1.429020268464273e-01 -2.514569710233597e-02
            -1.429567097007549e-01 -2.521514405510635e-02 -5.228257689497178e-02 -5.633001046789144e-01 1.177303672392094e-01 -3.059759054098121e-02 1.080706956377851e-01 -2.120574419048844e-02
            -5.228365003845227e-02 -5.633284771630550e-01 -1.429014374187351e-01 -2.517351440233219e-02 1.080686190345557e-01 -2.123763591855025e-02 1.177555426787151e-01 -3.053536401716198e-02
284882500.0000000000 1.005550913253231e-01 -3.421369491126031e-02 9.042530380695524e-02 -3.351232020934586e-02 -1.457592536261887e-01 2.386906354711095e-02 -2.422267468759279e-01 -5.128458320881054e-01
            9.051420897880735e-02 -3.346027866924310e-02 1.005994581815864e-01 -3.419263196995943e-02 -2.422297281731390e-01 -5.127634961755415e-01 -1.458331068417284e-01 2.388403103263956e-02
            -1.457676085392075e-01 2.389996530541200e-02 -2.422066303141507e-01 -5.126662327572282e-01 9.674694377625276e-02 -4.445487690811216e-02 8.813678324544114e-02 -3.347957434117789e-02
            -2.422305515203299e-01 -5.127773248264321e-01 -1.457353260369649e-01 2.395933532138168e-02 8.814871223470178e-02 -3.342174567977117e-02 9.672826883784891e-02 -4.443386928949735e-02
285715000.0000000000 7.656779431712457e-02 -3.289693217314520e-02 6.649146075836064e-02 -3.039487353421777e-02 -1.332640026993496e-01 7.344206890757984e-02 -4.052615943106381e-01 -3.987936816292015e-01
            6.644912739540246e-02 -3.043012014900130e-02 7.658704273052981e-02 -3.283600912146813e-02 -4.051941141418433e-01 -3.986856711052484e-01 -1.331957292008470e-01 7.336639937587301e-02
            -1.332556785628422e-01 7.333253374897367e-02 -4.051332438474723e-01 -3.987030217662636e-01 7.142475903580087e-02 -4.154081535564712e-02 6.467122052288390e-02 -2.973987330453865e-02
            -4.051783074867142e-01 -3.987818859116139e-01 -1.332581733789652e-01 7.336209143622925e-02 6.477528064374909e-02 -2.978528224279320e-02 7.155571797668685e-02 -4.151356402941282e-02
286547500.0000000000 5.907525411436679e-02 -1.587883255218744e-02 5.006831587424472e-02 -1.212493992392415e-02 -1.035277884919918e-01 1.188946561380111e-01 -5.185744806193298e-01 -2.331600695747683e-01
            5.001455430032245e-02 -1.211433970768070e-02 5.906086246234069e-02 -1.586654664960782e-02 -5.185347217969091e-01 -2.332324527669238e-01 -1.033935897308634e-01 1.188847580024011e-01
            -1.034832270634522e-01 1.188941586165805e-01 -5.185784450067011e-01 -2.331453159047673e-01 5.425295946254682e-02 -2.284455431848825e-02 4.949240160946958e-02 -1.136734886110120e-02
            -5.184758197358021e-01 -2.331442259010399e-01 -1.034816547048620e-01 1.189038190910441e-01 4.946477844833468e-02 -1.133910768824862e-02 5.414124056872344e-02 -2.286561542828103e-02
287380000.0000000000 5.721994654358523e-02 8.504487927757834e-03 4.970525241082231e-02 1.254574842048714e-02 -5.618017108346246e-02 1.527957596744018e-01 -5.655215231696624e-01 -3.806376404316643e-02
            4.972655954229788e-02 1.261585890480333e-02 5.707682503390917e-02 8.500620711859358e-03 -5.655025131843626e-01 -3.810007522724906e-02 -5.628288927760540e-02 1.527174537649141e-01
            -5.626463782702330e-02 1.527197510371587e-01 -5.655586183386291e-01 -3.811065876834587e-02 5.373157538408707e-02 2.344925373834615e-03 5.031195973536789e-02 1.259514323040710e-02
            -5.655611972278359e-01 -3.809415458176749e-02 -5.626929746684457e-02 1.527387484961787e-01 5.037851671187327e-02 1.259064145097408e-02 5.371367377729350e-02 2.324524843344688e-03
288212500.0000000000 7.160239805869716e-02 2.783882208639864e-02 6.540891271928287e-02 3.125643179762783e-02 2.859032529590126e-03 1.664685426688861e-01 -5.404218270153609e-01 1.589821553077812e-01
            6.543660180664583e-02 3.126672130226187e-02 7.162503820803096e-02 2.785669637550531e-02 -5.405522544568591e-01 1.590509253512920e-01 2.816028372004912e-03 1.665664110940065e-01
            2.819737347625134e-03 1.664763631068752e-01 -5.404579204743531e-01 1.589634325442770e-01 6.994607988942585e-02 2.096572744689270e-02 6.683667830561636e-02 2.967466161320825e-02
            -5.404964983441188e-01 1.589784101593167e-01 2.870679092151720e-03 1.664678227825910e-01 6.685343252834883e-02 2.963096314992645e-02 6.999629135193962e-02 2.089565700698405e-02
289045000.0000000000 9.452043604805069e-02 3.304045205345647e-02 8.911797582021910e-02 3.506428415320556e-02 6.334987776165256e-02 1.560006886892293e-01 -4.500222051638482e-01 3.324669056643094e-01
            8.918687495420964e-02 3.502110173951329e-02 9.458266740135227e-02 3.296849215980406e-02 -4.500919012848423e-01 3.325145046480442e-01 6.339757455791803e-02 1.559846047887972e-01
            6.345099650397754e-02 1.560330126446738e-01 -4.500803569914285e-01 3.325023227941191e-01 9.401404390858176e-02 2.372998870604543e-02 9.000596011565001e-02 3.112415743273914e-02
            -4.500508534792384e-01 3.324386679609995e-01 6.339986686947079e-02 1.559981204002966e-01 9.011285560276902e-02 3.112470878323529e-02 9.403510614064070e-02 2.377042867938196e-02
289877500.0000000000 1.147895074890172e-01 2.247531134484546e-02 1.090423050027949e-01 2.318507061198792e-02 1.148783596326866e-01 1.238941561252392e-01 -3.084165075427092e-01 4.633251318696562e-01
            1.090898161503407e-01 2.303426981157470e-02 1.148597871399269e-01 2.255046627073647e-02 -3.083877414746850e-01 4.633128394662963e-01 1.148014883753939e-01 1.239959006478227e-01
            1.148832182451726e-01 1.240262117617780e-01 -3.084112184252081e-01 4.632962649825144e-01 1.136708429331094e-01 9.992910308557451e-03 1.083486341577174e-01 1.706218328754205e-02
            -3.082940899926183e-01 4.632661604499682e-01 1.147772220643436e-01 1.239689655335741e-01 1.083569785087638e-01 1.713560857273911e-02 1.136534804422784e-01 9.966138137154636e-03
290710000.0000000000 1.233076359752734e-01 1.947932907879010e-03 1.165684106200473e-01 1.693326237947682e-03 1.507730864389928e-01 7.711321477352420e-02 -1.325614723689389e-01 5.391124806128670e-01
            1.165337653523695e-01 1.803849355049590e-03 1.233672362559350e-01 1.971115806303068e-03 -1.327252783095008e-01 5.390903122244233e-01 1.507346026077195e-01 7.703423002439212e-02
            1.507752934799765e-01 7.714278191250924e-02 -1.325945672507487e-01 5.390829050078557e-01 1.195253242983861e-01 -1.352722920576771e-02 1.130113762322758e-01 -5.492797467604553e-03
            -1.326130476455163e-01 5.390883150938959e-01 1.507797402431956e-01 7.712759104353087e-02 1.130276073498341e-01 -5.536762540471650e-03 1.195599374078826e-01 -1.355157567012041e-02
291542500.0000000000 1.169877591238689e-01 -1.876413544699247e-02 1.086577305063799e-01 -1.910957332924196e-02 1.690962971689083e-01 2.215275670751544e-02 5.865353103367225e-02 5.523083810390883e-01
            1.087013867468288e-01 -1.893386688661336e-02 1.169345946822672e-01 -1.878085800268184e-02 5.865372782706935e-02 5.522536401761400e-01 1.691187687517789e-01 2.217772329119991e-02
            1.690714455526890e-01 2.223688579035803e-02 5.870687450117131e-02 5.522941697011017e-01 1.085239281578415e-01 -3.570202868005142e-02 1.016735140063557e-01 -2.614774883543310e-02
            5.873948093369462e-02 5.523293447861687e-01 1.690759766693311e-01 2.218287769862609e-02 1.016208561020982e-01 -2.616799902777805e-02 1.085553178772293e-01 -3.578609921363738e-02
292375000.0000000000 9.879265972129339e-02 -3.017051765288305e-02 8.955837033190234e-02 -2.965796467440956e-02 1.696740276149733e-01 -3.593546497092688e-02 2.448319921774635e-01 4.998150804833871e-01
            8.944077619537069e-02 -2.964776814140161e-02 9.883627010299498e-02 -3.020436359875350e-02 2.448819119026753e-01 4.997669413757009e-01 1.697192698725469e-01 -3.598638474290244e-02
            1.696777863414628e-01 -3.591885989462006e-02 2.449244226465922e-01 4.998108327156794e-01 8.512626482031724e-02 -4.622976999422974e-02 7.893829318127306e-02 -3.502326567435916e-02
            2.448662736230234e-01 4.998297759585283e-01 1.697339991438154e-01 -3.600587825904669e-02 7.895819584476710e-02 -3.499916284402879e-02 8.510630649749813e-02 -4.630112454332496e-02
293207500.0000000000 7.781791589155482e-02 -2.675717253174833e-02 6.818690526194833e-02 -2.483311086952084e-02 1.515592223267465e-01 -9.341405579589582e-02 4.031978067436326e-01 3.849542862951120e-01
            6.816094153194681e-02 -2.490668154843646e-02 7.787265362997609e-02 -2.674591192877674e-02 4.031842666231312e-01 3.849304597363055e-01 1.515711556529729e-01 -9.346700309190709e-02
            1.515516002613876e-01 -9.340931282631849e-02 4.031960787416986e-01 3.851087996627886e-01 5.948362906999262e-02 -3.925219116107313e-02 5.490822556989818e-02 -2.690102944605991e-02
            4.032389434880159e-01 3.849664160763967e-01 1.515546044923564e-01 -9.349552298199165e-02 5.492606763822790e-02 -2.686668344350047e-02 5.956255504795465e-02 -3.917720154992992e-02
294040000.0000000000 6.476012081554781e-02 -1.017802100503047e-02 5.587293556308744e-02 -6.983267236116833e-03 1.132350027333810e-01 -1.442729176832739e-01 5.114353414532675e-01 2.206341099114877e-01
            5.585653803041554e-02 -6.892439930294498e-03 6.476298418105753e-02 -1.018259779484978e-02 5.114047891118010e-01 2.205863076569983e-01 1.132458329901977e-01 -1.443081938337211e-01
            1.131483525509187e-01 -1.442504851232236e-01 5.113766562418947e-01 2.206672318370280e-01 4.406092174500242e-02 -1.704203843614865e-02 4.121330072882217e-02 -4.679382755139526e-03
            5.113801990203071e-01 2.206471483112687e-01 1.133116575366750e-01 -1.442969610196896e-01 4.128272726566860e-02 -4.626179248944012e-03 4.406834464340820e-02 -1.708036191392832e-02
294872500.0000000000 6.648265055690201e-02 1.060671491404943e-02 5.906744389766908e-02 1.447002309039002e-02 5.619531417209353e-02 -1.795949823533510e-01 5.538177720732058e-01 2.906036302618967e-02
            5.917941755466684e-02 1.440016297072417e-02 6.651096450308162e-02 1.063851878218118e-02 5.538184426688743e-01 2.911675489645311e-02 5.612281672638710e-02 -1.796242276960731e-01
            5.613790339251739e-02 -1.795745098624245e-01 5.538006506038077e-01 2.908230709496593e-02 4.653330490018224e-02 9.831475040815980e-03 4.498731887426468e-02 2.149025485288999e-02
            5.538172694265414e-01 2.905097273320112e-02 5.620780522704327e-02 -1.796100819297873e-01 4.502849489248993e-02 2.141496412483249e-02 4.657254261112811e-02 9.869974049511603e-03
295705000.0000000000 8.180614319208604e-02 2.448129958449322e-02 7.612623033048597e-02 2.791504060000391e-02 -1.208780080236847e-02 -1.910468677550469e-01 5.262850112211923e-01 -1.628999038338627e-01
            7.612363074350795e-02 2.795034213871965e-02 8.182488916960234e-02 2.444508180205754e-02 5.263480286911685e-01 -1.628618418202671e-01 -1.216730524956675e-02 -1.909834774734879e-01
            -1.219827250394351e-02 -1.909983719373338e-01 5.262577379208530e-01 -1.628817555606004e-01 6.531888600046624e-02 2.837501285406130e-02 6.427937116376373e-02 3.892979038120306e-02
            5.262883602577184e-01 -1.629879742241526e-01 -1.215040478147671e-02 -1.910350009648214e-01 6.426872491579438e-02 3.887063575379093e-02 6.540825296607235e-02 2.832460657393277e-02
296537500.0000000000 1.020542626789091e-01 2.419128048521063e-02 9.778894765190287e-02 2.634200920989899e-02 -8.004317929599014e-02 -1.755304598865787e-01 4.357260995286396e-01 -3.308467409504574e-01
            9.789383740472225e-02 2.622468690659921e-02 1.021149213599459e-01 2.413418468309812e-02 4.357514161198119e-01 -3.308569053055507e-01 -8.010914988230625e-02 -1.755264189432019e-01
            -8.004275352531473e-02 -1.755492271391482e-01 4.356864862854365e-01 -3.309828756373950e-01 9.064920367124449e-02 3.020510911249102e-02 8.931065411027876e-02 4.011413959156617e-02
            4.358098200757237e-01 -3.308855569703963e-01 -8.010292192560123e-02 -1.755720318393336e-01 8.919779169487804e-02 4.021430040214315e-02 9.070314236441772e-02 3.009515111907949e-02
297370000.0000000000 1.168750581892723e-01 1.039644671687107e-02 1.132229547206447e-01 1.042748324020036e-02 -1.367728266135840e-01 -1.367582645515669e-01 2.958942708863154e-01 -4.570696485860520e-01
            1.131232376025660e-01 1.038272835856547e-02 1.169569682296202e-01 1.047012600507371e-02 2.957972373807897e-01 -4.570175941263392e-01 -1.367279333938326e-01 -1.367441240188717e-01
            -1.367657151525858e-01 -1.367225761233745e-01 2.958556759780330e-01 -4.571651765011313e-01 1.104968869847734e-01 1.576063036719194e-02 1.083293774188981e-01 2.607887706227397e-02
            2.957673118784205e-01 -4.570734145300743e-01 -1.366979727091762e-01 -1.367841850084641e-01 1.082599112558141e-01 2.610134100940510e-02 1.104041069355360e-01 1.567989930763118e-02
298202500.0000000000 1.189259312126382e-01 -9.841030677832126e-03 1.146635296982495e-01 -1.220635826181004e-02 -1.757059105990521e-01 -8.208153883208054e-02 1.228626756783696e-01 -5.293918722427253e-01
            1.145841775191233e-01 -1.229331043984988e-02 1.189290521509919e-01 -9.722255390940798e-03 1.228801038224994e-01 -5.294629753738802e-01 -1.757046899380872e-01 -8.215710081840953e-02
            -1.757423924762767e-01 -8.215939545065044e-02 1.228480685551743e-01 -5.294159894335063e-01 1.158887372597018e-01 -7.402073849611629e-03 1.136759286127047e-01 4.339941711219934e-03
            1.228316204163281e-01 -5.294234865058260e-01 -1.757215307614630e-01 -8.211428984033928e-02 1.136596565734852e-01 4.241444220374587e-03 1.157674337912186e-01 -7.457986710853526e-03
299035000.0000000000 1.069021231890751e-01 -2.673994501187932e-02 1.008072559295560e-01 -3.109412090008267e-02 -1.947607596155929e-01 -1.855754904437892e-02 -6.504771231751523e-02 -5.399615186177372e-01
            1.007945841784516e-01 -3.116319890818585e-02 1.069199036528370e-01 -2.680994466466476e-02 -6.496312613510871e-02 -5.399958545133049e-01 -1.946601234984188e-01 -1.859269458190957e-02
            -1.947513023608470e-01 -1.856566891274064e-02 -6.507139020676898e-02 -5.399795203399296e-01 1.048704444264357e-01 -2.840790675409055e-02 1.038998725242880e-01 -1.476341979915594e-02
            -6.504807901901646e-02 -5.400160095355647e-01 -1.946341542149789e-01 -1.861360461193463e-02 1.038358592677001e-01 -1.478306225073821e-02 1.048878786094171e-01 -2.835854008405581e-02
299867500.0000000000 8.591405010604518e-02 -3.179471488106000e-02 7.714484975138311e-02 -3.732630566472794e-02 -1.929122134332921e-01 4.854426087725941e-02 -2.471079121015274e-01 -4.855578033676113e-01
            7.713468406035034e-02 -3.725080017603642e-02 8.586669594280077e-02 -3.184750844832899e-02 -2.471166653364699e-01 -4.855895314045808e-01 -1.930129560433320e-01 4.851849255311029e-02
            -1.929652880622204e-01 4.850841407821004e-02 -2.471619390251262e-01 -4.855817964158649e-01 8.265419155190706e-02 -3.699456013208763e-02 8.422415234660546e-02 -2.189443678834135e-02
            -2.471374459862201e-01 -4.855338511353466e-01 -1.929913867306538e-01 4.852373792742428e-02 8.414826841673335e-02 -2.188963584110764e-02 8.262369008995352e-02 -3.702345332280810e-02
300700000.0000000000 6.597666710233607e-02 -2.124739647154462e-02 5.421919024691679e-02 -2.658805006167958e-02 -1.690654359718759e-01 1.139006562036161e-01 -4.002703328559017e-01 -3.700902653056097e-01
            5.428067864368484e-02 -2.666186432773745e-02 6.604237116710784e-02 -2.130203341466348e-02 -4.002954087415588e-01 -3.699986910893128e-01 -1.690577005383306e-01 1.138731719561963e-01
            -1.690106847330104e-01 1.140068511325081e-01 -4.003087755684021e-01 -3.700223149322835e-01 5.983840725956435e-02 -2.872099752053786e-02 6.513592917830605e-02 -1.340772243973992e-02
            -4.002993670164290e-01 -3.699548851141508e-01 -1.690184449443830e-01 1.139245049361652e-01 6.506822025416149e-02 -1.346048724807311e-02 5.990221115600970e-02 -2.858962142176439e-02
301532500.0000000000 5.772567454437322e-02 6.263306929665289e-04 4.308673261566014e-02 -3.195972783410353e-03 -1.218117825529083e-01 1.698839807525882e-01 -5.027220434821426e-01 -2.070156327603401e-01
            4.312972587505126e-02 -3.258245182303729e-03 5.775510843466067e-02 6.307687108974648e-04 -5.027359593907637e-01 -2.070540602579223e-01 -1.218934797419911e-01 1.698202232639182e-01
            -1.218601322202075e-01 1.699230224354338e-01 -5.027439581045636e-01 -2.071535964962464e-01 4.810202728390855e-02 -6.986385417960687e-03 5.730797414502979e-02 6.522775336264050e-03
            -5.026833836746019e-01 -2.070673387725545e-01 -1.219674781281422e-01 1.698535512127412e-01 5.726663467856119e-02 6.538450837530176e-03 4.805442053408723e-02 -7.047673040204294e-03
302365000.0000000000 6.625496662595073e-02 2.306072066280408e-02 4.960300915254512e-02 2.179339075965537e-02 -5.472004951050936e-02 2.062291843982815e-01 -5.401858362586419e-01 -1.975916242068495e-02
            4.960725529433467e-02 2.186286346867576e-02 6.621719754877198e-02 2.299101709947332e-02 -5.401808071812205e-01 -1.962516030882315e-02 -5.466586137264790e-02 2.062279441989684e-01
            -5.468626990241238e-02 2.062364704463780e-01 -5.402038591930340e-01 -1.967495130591181e-02 5.359620071187366e-02 1.710397589151359e-02 6.587057587777766e-02 2.706146401036595e-02
            -5.401840447337166e-01 -1.961503548529368e-02 -5.472766170809985e-02 2.061793901980387e-01 6.585584670651859e-02 2.714175251851488e-02 5.359029788970525e-02 1.705730005989314e-02
303197500.0000000000 8.764692616299881e-02 3.459236530175234e-02 7.012359678438675e-02 3.675023726767119e-02 2.280156613694695e-02 2.146435486870404e-01 -5.099663776441477e-01 1.662083331090018e-01
            7.011485728094778e-02 3.680323707751516e-02 8.761155728283973e-02 3.453625229219206e-02 -5.099137363319037e-01 1.662192561368445e-01 2.285567375363502e-02 2.146252299427299e-01
            2.281305476495115e-02 2.146348372784164e-01 -5.099515457904982e-01 1.662066331841039e-01 7.329678693227930e-02 3.136996368152971e-02 8.683938068838377e-02 3.690952229941036e-02
            -5.099008832236556e-01 1.662188355484682e-01 2.283154396042375e-02 2.146871423617492e-01 8.687458293274362e-02 3.681631482407682e-02 7.324645062115463e-02 3.136618167053190e-02
304030000.0000000000 1.114052110799973e-01 2.972529069861650e-02 9.448233690273208e-02 3.538351247677856e-02 9.768112127623486e-02 1.934476339003576e-01 -4.196282402288120e-01 3.278482291354002e-01
            9.450054496561106e-02 3.528503328326310e-02 1.113501383788787e-01 2.963462485976767e-02 -4.195993204772375e-01 3.277497415480971e-01 9.777997439828461e-02 1.934687177822476e-01
            9.766190179203044e-02 1.934214265303688e-01 -4.196372570192373e-01 3.277796140450935e-01 9.689896135151790e-02 2.953224076072736e-02 1.100486487628568e-01 3.023219583986303e-02
            -4.196451101430359e-01 3.278299134089597e-01 9.775177306154234e-02 1.934871788082791e-01 1.100012332624520e-01 3.030169090132367e-02 9.688273367670798e-02 2.951314161737955e-02
304862500.0000000000 1.265943623070673e-01 1.086273365502476e-02 1.117533772185412e-01 1.964564872431460e-02 1.587743849082067e-01 1.474951274805369e-01 -2.823569337550429e-01 4.485847361587019e-01
            1.117488670265457e-01 1.959829142784873e-02 1.266602208281520e-01 1.074594300686540e-02 -2.823801584834450e-01 4.485660437118342e-01 1.587714393248154e-01 1.475660767418328e-01
            1.587584231008502e-01 1.475675186086287e-01 -2.823340432155203e-01 4.485773247817588e-01 1.131991307678518e-01 1.318282324286158e-02 1.241247686692739e-01 1.007345111345232e-02
            -2.823958044180729e-01 4.486273442338271e-01 1.587968014296192e-01 1.475610473180217e-01 1.241488185361258e-01 1.004944621430214e-02 1.133169438007070e-01 1.313732124954833e-02
305695000.0000000000 1.266201382232274e-01 -1.342612437971571e-02 1.151139985430022e-01 -2.651726244076111e-03 1.997035842370316e-01 8.505603782254288e-02 -1.135578969161421e-01 5.170831501932928e-01
            1.149031131429661e-01 -2.600003553600076e-03 1.265893110304868e-01 -1.337261862898532e-02 -1.134968456101092e-01 5.170431030385458e-01 1.997221142987839e-01 8.508960815233066e-02
            1.997002684521593e-01 8.507512973601292e-02 -1.135165397129213e-01 5.171668617198313e-01 1.149715110716303e-01 -9.542484643598128e-03 1.228806932895485e-01 -1.499525931629816e-02
            -1.134829339778360e-01 5.171151647694265e-01 1.997378020635566e-01 8.512258895398070e-02 1.228081216967764e-01 -1.495917169453976e-02 1.150058919907745e-01 -9.542914065917247e-03
306527500.0000000000 1.114366719457293e-01 -3.240698711624707e-02 1.035911080672863e-01 -2.113260673187721e-02 2.183686305183487e-01 1.349885269327922e-02 6.974424495920213e-02 5.255136585742786e-01
            1.035134190055301e-01 -2.105210107836411e-02 1.113647855525049e-01 -3.234945789111322e-02 6.976441692771916e-02 5.255835676898880e-01 2.183094202108361e-01 1.352869661752734e-02
            2.183697980345066e-01 1.350026300655330e-02 6.972776605547823e-02 5.254644048230380e-01 1.015257154934322e-01 -2.794311732875286e-02 1.060947869953197e-01 -3.426018198846068e-02
            6.974870339076462e-02 5.255929678444375e-01 2.184117768766877e-01 1.349932675790316e-02 1.061437344418509e-01 -3.433265511927505e-02 1.015407566879633e-01 -2.796565117344704e-02
307360000.0000000000 8.718863696518206e-02 -3.743613485822328e-02 8.317225297943974e-02 -2.727345870866981e-02 2.137997915733464e-01 -6.129768222062869e-02 2.468803981861747e-01 4.703768980073811e-01
            8.318856831201077e-02 -2.724644622453338e-02 8.720925452592702e-02 -3.752703081742738e-02 2.469282584445015e-01 4.704186639382826e-01 2.137474508715227e-01 -6.133298098100118e-02
            2.136522754591787e-01 -6.136345801876684e-02 2.468563516308772e-01 4.704217523086672e-01 7.876321766386604e-02 -3.292644985793935e-02 8.090933193591707e-02 -3.924881875715279e-02
            2.468401586219461e-01 4.704313019046868e-01 2.136922575484488e-01 -6.133592088107239e-02 8.083630807092521e-02 -3.930164205772796e-02 7.874225906375215e-02 -3.285356567824235e-02
308192500.0000000000 6.510235877844087e-02 -2.574480377248030e-02 6.415108361530535e-02 -1.803452178964177e-02 1.840970703598733e-01 -1.332127831011888e-01 3.949124725847964e-01 3.556004572981538e-01
            6.411837028980118e-02 -1.804393153212518e-02 6.516766455413407e-02 -2.555884246503968e-02 3.949924882985222e-01 3.555981324860596e-01 1.841572809026875e-01 -1.331931084851198e-01
            1.841705148720482e-01 -1.332889506324498e-01 3.948940628791794e-01 3.555802685804818e-01 5.784081249345177e-02 -2.104008889679109e-02 5.810463071246340e-02 -2.707998557637396e-02
            3.949311254128883e-01 3.556104188569589e-01 1.841253161977241e-01 -1.332006324184303e-01 5.806532628874389e-02 -2.712254950830523e-02 5.783618131929178e-02 -2.106045316458621e-02
309025000.0000000000 5.610708103453088e-02 -2.292498954860800e-03 5.661719243306115e-02 1.866682374667635e-03 1.292772879102574e-01 -1.931860009393123e-01 4.925379618549972e-01 1.952196185195057e-01
            5.661517699234479e-02 1.908416276641485e-03 5.611153555169215e-02 -2.286738821866753e-03 4.924952377944831e-01 1.951828156166205e-01 1.292120528321150e-01 -1.932288791392318e-01
            1.292213609142365e-01 -1.931897725976071e-01 4.924444969783619e-01 1.951892107163062e-01 4.983755584004103e-02 2.444469843942974e-03 4.882462058082802e-02 -3.462979541906621e-03
            4.925145273215413e-01 1.952228654852760e-01 1.292103910246298e-01 -1.932605330689132e-01 4.881675593544470e-02 -3.434558131095747e-03 4.978859276278210e-02 2.304203790369510e-03
309857500.0000000000 6.456826802866968e-02 2.122091126273783e-02 6.496949135641160e-02 2.155169655060203e-02 5.341316807319127e-02 -2.305062390617415e-01 5.261753818933614e-01 1.209637649519945e-02
            6.501765298858900e-02 2.148393700076176e-02 6.450637924138111e-02 2.118160447919307e-02 5.261578542466734e-01 1.212105518555631e-02 5.344013877421781e-02 -2.304863240068850e-01
            5.344620785119814e-02 -2.305073633402653e-01 5.262554468106950e-01 1.218213786717321e-02 5.952175516704630e-02 2.579804709756211e-02 5.713242974662950e-02 1.987137525848638e-02
            5.262106626379043e-01 1.210153633886171e-02 5.334903538117269e-02 -2.304464041616554e-01 5.708611726999458e-02 1.982655073514694e-02 5.951155597869843e-02 2.570313684738180e-02
310690000.0000000000 8.586759532692596e-02 3.325937478551166e-02 8.471838472653913e-02 3.035544816595557e-02 -3.232739916578197e-02 -2.367490159135198e-01 4.942524047774092e-01 -1.682407610224703e-01
            8.466802430139557e-02 3.035740570526320e-02 8.585072808844699e-02 3.331637248051217e-02 4.942763352153817e-01 -1.682645345365602e-01 -3.222790020034205e-02 -2.366538100784227e-01
            -3.226850589994781e-02 -2.366828469986449e-01 4.943190544508303e-01 -1.682269777306198e-01 8.230312643724720e-02 3.723373463313906e-02 7.808869609028501e-02 3.114802286491916e-02
            4.942447497216503e-01 -1.681821211014533e-01 -3.224511844294103e-02 -2.366456333992182e-01 7.807634160980653e-02 3.122957996581907e-02 8.229323739316600e-02 3.718386361972364e-02
311522500.0000000000 1.093280249796416e-01 2.883616476585470e-02 1.054470806494258e-01 2.374523028824417e-02 -1.137372980905913e-01 -2.108130714607585e-01 4.044562007811158e-01 -3.242885312116853e-01
            1.054873683819712e-01 2.368281431487672e-02 1.093740076194578e-01 2.884230099653725e-02 4.044800425169983e-01 -3.241752525649227e-01 -1.137348215902547e-01 -2.107830419274060e-01
            -1.137647695936777e-01 -2.108802460134324e-01 4.044567918421301e-01 -3.242293995528132e-01 1.069123452416616e-01 3.142299895647088e-02 1.004993084884848e-01 2.599186756436910e-02
            4.044728024555365e-01 -3.241707369377647e-01 -1.138205402422139e-01 -2.108139640310767e-01 1.003556637019848e-01 2.607975916515637e-02 1.069449153621792e-01 3.144827084973621e-02
312355000.0000000000 1.241259337751792e-01 1.090790773525979e-02 1.171217625794886e-01 5.055624279615727e-03 -1.795146572213711e-01 -1.585205068461248e-01 2.694261081321258e-01 -4.402616163397084e-01
            1.171096951532630e-01 5.060652996390231e-03 1.240895136452803e-01 1.091179917912657e-02 2.693557304345249e-01 -4.403237821737527e-01 -1.796034831883839e-01 -1.585542809147464e-01
            -1.795575046356111e-01 -1.585993150426523e-01 2.694457075085055e-01 -4.402668159508067e-01 1.223467607411634e-01 1.172193638382358e-02 1.134874945869466e-01 7.809941485398507e-03
            2.694208984696687e-01 -4.403277982947368e-01 -1.795535829418763e-01 -1.586003547038274e-01 1.134917370866527e-01 7.698775279925843e-03 1.222127268682808e-01 1.166762935043721e-02
313187500.0000000000 1.240065893126579e-01 -1.181114167976288e-02 1.142679567679358e-01 -1.704317324193458e-02 -2.231126376763664e-01 -8.857144621087351e-02 1.040155045221322e-01 -5.050817516893029e-01
            1.141883274078988e-01 -1.707958189771181e-02 1.240482549226369e-01 -1.177814530214561e-02 1.039861761192338e-01 -5.051230661997621e-01 -2.231493568195307e-01 -8.850191594233928e-02
            -2.231949273101157e-01 -8.854877498088119e-02 1.040064616175734e-01 -5.051242586868403e-01 1.217914931229745e-01 -1.319422631847693e-02 1.114823649557319e-01 -1.456045158688037e-02
            1.039776869515057e-01 -5.050900324073154e-01 -2.231284378636981e-01 -8.860084447252103e-02 1.113723530848447e-01 -1.445383545667184e-02 1.218586598024164e-01 -1.322481422319483e-02
314020000.0000000000 1.094722535891923e-01 -2.891020565156279e-02 9.777956589940270e-02 -3.271117587710908e-02 -2.419466123128807e-01 -8.843000135631508e-03 -7.494704936297478e-02 -5.109147427464934e-01
            9.769884670590383e-02 -3.271954143769733e-02 1.094764775350880e-01 -2.897056041029424e-02 -7.495377588797553e-02 -5.109083709058526e-01 -2.419387863276283e-01 -8.757783114568665e-03
            -2.418691035156575e-01 -8.783879286257677e-03 -7.493857775527532e-02 -5.109689560215457e-01 1.058399993338625e-01 -3.213308165713405e-02 9.520921364280274e-02 -3.011375723373014e-02
            -7.489566699587118e-02 -5.109198231233344e-01 -2.418878543950841e-01 -8.816671731444023e-03 9.513165306755686e-02 -3.019079726021672e-02 1.057928741606324e-01 -3.214604902326977e-02
314852500.0000000000 8.737647720715662e-02 -3.236894913283378e-02 7.466254942718996e-02 -3.435562009017421e-02 -2.344613990263578e-01 7.412024482187760e-02 -2.469067985075069e-01 -4.544865832777218e-01
            7.472072267718205e-02 -3.437098515433711e-02 8.746301848809554e-02 -3.238177588295636e-02 -2.470000466946445e-01 -4.543862297345650e-01 -2.344143704583690e-01 7.415893766468104e-02
            -2.343751473409577e-01 7.415507540345243e-02 -2.469464201892233e-01 -4.544650363299318e-01 8.116476968003120e-02 -3.656285207809187e-02 7.198013873643125e-02 -3.146644359242059e-02
            -2.469322682189901e-01 -4.544070725232862e-01 -2.344092708256865e-01 7.412856693530757e-02 7.202388885786577e-02 -3.151725285647735e-02 8.123884574370628e-02 -3.654202054853183e-02
315685000.0000000000 6.866094362898138e-02 -2.010964656139292e-02 5.585061101553319e-02 -2.055309885152003e-02 -1.988588067901625e-01 1.527622932910828e-01 -3.893433341241412e-01 -3.400796527266960e-01
            5.587320455817171e-02 -2.058057807191039e-02 6.857445192223911e-02 -2.010122039504474e-02 -3.892401603232508e-01 -3.400627156719948e-01 -1.989075995278131e-01 1.527545196894508e-01
            -1.989919667663421e-01 1.527504370732048e-01 -3.893180556411059e-01 -3.401100209521926e-01 5.960539011892389e-02 -2.365757906605629e-02 5.302898992164856e-02 -1.668665779682426e-02
            -3.893284931441674e-01 -3.400831400399144e-01 -1.988962369368680e-01 1.527791529244806e-01 5.310714675004290e-02 -1.671018107749220e-02 5.956301067238316e-02 -2.373577454786453e-02
316517500.0000000000 6.309296782891388e-02 1.793646144751818e-03 5.080304242257297e-02 2.263158904217576e-03 -1.359260036603717e-01 2.166702648589083e-01 -4.813113589475772e-01 -1.824785068892006e-01
            5.082284578980584e-02 2.296527234300511e-03 6.307157322627825e-02 1.702210620966810e-03 -4.812842798124698e-01 -1.824354259073822e-01 -1.359071863552758e-01 2.167149337382911e-01
            -1.359106973518656e-01 2.167104736287553e-01 -4.813357164775223e-01 -1.824876223595848e-01 5.170854980715789e-02 2.091925963114034e-04 4.847869350482124e-02 7.430233243492624e-03
            -4.813384686273025e-01 -1.824951398412354e-01 -1.357758687892495e-01 2.166648036770306e-01 4.837177174827853e-02 7.336826733135416e-03 5.166599368250759e-02 2.995679867150967e-04
317350000.0000000000 7.392456361657121e-02 2.171385996289758e-02 6.202055571331852e-02 2.241459819281800e-02 -5.128454403608938e-02 2.542751403211108e-01 -5.108852908225595e-01 -4.405819999257618e-03
            6.210033753055839e-02 2.243457394510031e-02 7.387611414456478e-02 2.166206200029019e-02 -5.109820844695558e-01 -4.318520970680170e-03 -5.131417721835058e-02 2.542678074738617e-01
            -5.130910704133931e-02 2.543264081712991e-01 -5.108963932732306e-01 -4.377246025565764e-03 6.140710387092393e-02 2.322399201229828e-02 6.086535055174783e-02 2.880969670906743e-02
            -5.109242111701112e-01 -4.385071819959819e-03 -5.133312468034441e-02 2.543936057591069e-01 6.090825339508261e-02 2.878376087097831e-02 6.154320064944000e-02 2.319316397872592e-02
318182500.0000000000 9.538736903537075e-02 2.909714594382579e-02 8.349651839121351e-02 2.977591009870842e-02 4.226253703195375e-02 2.577774330733521e-01 -4.772893401789078e-01 1.698109602169481e-01
            8.348387413914010e-02 2.979330287654863e-02 9.536464260032729e-02 2.914789638479989e-02 -4.773607332072122e-01 1.697874703811548e-01 4.237090636500598e-02 2.578480906300679e-01
            4.220924935635954e-02 2.577902024392529e-01 -4.772889937348352e-01 1.697781220889409e-01 8.349905581954113e-02 3.389151699016971e-02 8.423165763545210e-02 3.677613077154346e-02
            -4.773074025289951e-01 1.698814056046406e-01 4.225196641024536e-02 2.579328920910329e-01 8.416000972286590e-02 3.684277393149307e-02 8.347870870750987e-02 3.399772174232864e-02
319015000.0000000000 1.164376032605652e-01 2.059451030597001e-02 1.041885307111864e-01 2.132167329054855e-02 1.299851268038442e-01 2.270222581102957e-01 -3.883732168259225e-01 3.197348154082335e-01
            1.041967812521593e-01 2.133606259398510e-02 1.164200443904532e-01 2.060684433055432e-02 -3.883061530274784e-01 3.198078136067633e-01 1.299308158349109e-01 2.271404426341574e-01
            1.300291101914285e-01 2.271390488111810e-01 -3.883275962236114e-01 3.197660418031231e-01 1.066085311751611e-01 2.810173108300862e-02 1.067397595279158e-01 2.819967558629448e-02
            -3.883593599584296e-01 3.197606144570853e-01 1.299391934571844e-01 2.270536048710105e-01 1.067302738294011e-01 2.815746457181845e-02 1.066457684099396e-01 2.810082034952106e-02
319847500.0000000000 1.272733075061716e-01 4.189123799071900e-04 1.143425391911185e-01 1.449298156097065e-03 2.001216348788572e-01 1.685158324705383e-01 -2.560903023747895e-01 4.308087725968152e-01
            1.143253605526369e-01 1.381548054626588e-03 1.272491365719830e-01 3.980242973631804e-04 -2.561102746196234e-01 4.307865052765513e-01 2.000336801740176e-01 1.686433590634130e-01
            2.000993523980957e-01 1.685153058008289e-01 -2.560651779216820e-01 4.306989849366622e-01 1.204010237064394e-01 9.329953787541522e-03 1.185342153497741e-01 7.602549192891882e-03
            -2.560712522455456e-01 4.307588002611298e-01 2.000625928775411e-01 1.685359493522475e-01 1.185985849720239e-01 7.509244343373818e-03 1.204773980895909e-01 9.367822291133405e-03
320680000.0000000000 1.227858150728319e-01 -2.241064655878603e-02 1.092070073988632e-01 -2.049891267433456e-02 2.458545740699044e-01 9.122846247622958e-02 -9.447154767867068e-02 4.918464439351828e-01
            1.092839800500016e-01 -2.055455702333471e-02 1.227968020852384e-01 -2.237176277527327e-02 -9.448345541552340e-02 4.918324724839728e-01 2.458820544932966e-01 9.123076348507744e-02
            2.459271084179996e-01 9.129044057844687e-02 -9.446102447977522e-02 4.917970622295978e-01 1.191178461563920e-01 -1.343884486850028e-02 1.146425999555517e-01 -1.544595584285409e-02
            -9.460286717856191e-02 4.918762364037331e-01 2.458603203281352e-01 9.127035192167125e-02 1.146765394940090e-01 -1.547804114939737e-02 1.191893957909423e-01 -1.341761019299517e-02
321512500.0000000000 1.045628893334486e-01 -3.754544677509331e-02 9.080610394010011e-02 -3.454167375737242e-02 2.643871880789963e-01 3.515623423664478e-03 7.962673040699794e-02 4.951307328843364e-01
            9.088341866075852e-02 -3.448086383157521e-02 1.045522346339910e-01 -3.750335837579392e-02 7.961990759749893e-02 4.951494946147516e-01 2.643368973441019e-01 3.577034867928502e-03
            2.643692092075807e-01 3.551581355243120e-03 7.957090816771996e-02 4.952653464456531e-01 1.037439635603575e-01 -3.001948972775192e-02 9.719110790716477e-02 -3.055327175567918e-02
            7.967968967153070e-02 4.952419951572589e-01 2.643428306125977e-01 3.530898948481551e-03 9.720141551182951e-02 -3.055463537022471e-02 1.036899308675816e-01 -3.003017205400278e-02
322345000.0000000000 8.053474051294467e-02 -3.754984104932638e-02 6.714146546331179e-02 -3.345111137804638e-02 2.538224758672046e-01 -8.703668083807706e-02 2.460248760845426e-01 4.376616855831627e-01
            6.713483017320036e-02 -3.344718680890594e-02 8.049518527557555e-02 -3.766076190225033e-02 2.461167672621153e-01 4.377392292666697e-01 2.538440737820291e-01 -8.706254965320259e-02
            2.538145215434930e-01 -8.705341373836500e-02 2.460942049446487e-01 4.377413263474954e-01 8.131123876809976e-02 -3.241414044416820e-02 7.402919130515435e-02 -3.073268886098587e-02
            2.461642010285844e-01 4.377600649817805e-01 2.538467642642087e-01 -8.711254123737595e-02 7.405950117509166e-02 -3.067523727251657e-02 8.127825913524310e-02 -3.235713609685151e-02
323177500.0000000000 6.193984919613345e-02 -2.187764708123164e-02 4.928411346362525e-02 -1.713831614698140e-02 2.125833245623656e-01 -1.717863797522369e-01 3.825241242347133e-01 3.242158172286510e-01
            4.929865848259846e-02 -1.707143247218464e-02 6.192933689973548e-02 -2.188738094937741e-02 3.825478926774883e-01 3.242191046911288e-01 2.125488755935862e-01 -1.718825904739568e-01
            2.125645450862247e-01 -1.718222313607859e-01 3.825036569989888e-01 3.243081416167451e-01 6.298749038681792e-02 -1.928527437896129e-02 5.672402593334919e-02 -1.544789444340231e-02
            3.824801484667743e-01 3.242822169274063e-01 2.124704436813733e-01 -1.717458798993529e-01 5.672852483926798e-02 -1.537498623499661e-02 6.308236674171010e-02 -1.928910053779581e-02
324010000.0000000000 5.816701709120998e-02 2.228938853939999e-03 4.632088457883808e-02 7.209859488403341e-03 1.417370110177581e-01 -2.391703221636727e-01 4.690460873483717e-01 1.699398753062654e-01
            4.631168795783946e-02 7.197938382383200e-03 5.806859963947665e-02 2.198196766249647e-03 4.690620754679296e-01 1.699620465999177e-01 1.417404130470011e-01 -2.392447249221344e-01
            1.416555218082481e-01 -2.391909511439484e-01 4.690554723746840e-01 1.700102089746701e-01 5.821137081075910e-02 2.570816992315271e-03 5.410526131110628e-02 7.587717300327280e-03
            4.690658039373929e-01 1.698648269358546e-01 1.417678904081617e-01 -2.392383049618492e-01 5.413452633566120e-02 7.494524210735542e-03 5.840750084645107e-02 2.680463739967806e-03
324842500.0000000000 7.104102030236499e-02 2.269842225422390e-02 5.970864649088405e-02 2.734097821538082e-02 4.891887770705081e-02 -2.770823815452568e-01 4.949761711351358e-01 -2.868998300036307e-03
            5.973402367845076e-02 2.728491511905212e-02 7.101392080787543e-02 2.262440049144034e-02 4.949946104328818e-01 -2.829922919137969e-03 4.886896361329533e-02 -2.770292390938457e-01
            4.888502948795750e-02 -2.769828064971006e-01 4.948975395095648e-01 -2.941986194209232e-03 6.957203159552387e-02 2.178572186824420e-02 6.776103824825082e-02 2.607888355434825e-02
            4.949468234695563e-01 -2.839546059091880e-03 4.888879178588072e-02 -2.770531606354692e-01 6.780653133107048e-02 2.609227628434048e-02 6.952797966624674e-02 2.177212415482962e-02
325675000.0000000000 9.384356954381172e-02 2.946726257511844e-02 8.238179360129361e-02 3.369811425692558e-02 -5.206602459253872e-02 -2.779001236292427e-01 4.599971675824319e-01 -1.708416511020013e-01
            8.238553278166542e-02 3.368791571571681e-02 9.381505502587360e-02 2.950063179438654e-02 4.599327519318364e-01 -1.708547731950194e-01 -5.206120017800198e-02 -2.780200137166338e-01
            -5.207540335828665e-02 -2.779546061884208e-01 4.599506010353535e-01 -1.707358922089217e-01 9.046286718391289e-02 2.848361570013396e-02 9.042994758413038e-02 3.074002683908349e-02
            4.599620266348664e-01 -1.707424515018739e-01 -5.205364050496496e-02 -2.779339602159842e-01 9.042947130889618e-02 3.067091635301579e-02 9.048028925167333e-02 2.851759485064564e-02
326507500.0000000000 1.153700594315127e-01 2.002055945375755e-02 1.031146726801091e-01 2.423968091743344e-02 -1.457169286252875e-01 -2.426840255437804e-01 3.719568465612638e-01 -3.147944931171788e-01
            1.031537496504746e-01 2.422601579680268e-02 1.153210493314300e-01 1.997068769180049e-02 3.719364324781758e-01 -3.148458438607410e-01 -1.456931855994455e-01 -2.426823697187643e-01
            -1.457517148782440e-01 -2.426938911742162e-01 3.719318578492171e-01 -3.148339817018723e-01 1.104005776706722e-01 1.989721400136238e-02 1.104441617400608e-01 1.934537075677930e-02
            3.719474041110917e-01 -3.148260259212053e-01 -1.457091603759769e-01 -2.426491611798956e-01 1.104914803861568e-01 1.932293736751894e-02 1.103937633583324e-01 1.990819481165700e-02
327340000.0000000000 1.256638209618094e-01 -5.649018085978665e-04 1.125433379528797e-01 4.088803232597247e-03 -2.200615484105206e-01 -1.780795571579344e-01 2.424604158325525e-01 -4.206699499956194e-01
            1.124389385212442e-01 4.180216001898345e-03 1.256194304916277e-01 -6.022685386222605e-04 2.424238934941650e-01 -4.206978868187177e-01 -2.200049579721628e-01 -1.780218571139332e-01
            -2.200146592877573e-01 -1.779801502464725e-01 2.424034648776489e-01 -4.206468375798583e-01 1.200547575677729e-01 6.522532916879599e-04 1.184833967606553e-01 -2.491398153537671e-03
            2.425129675303699e-01 -4.207109965887749e-01 -2.200938925640122e-01 -1.780947334115316e-01 1.185549771640220e-01 -2.568524412150102e-03 1.200375667358354e-01 6.801925235222470e-04
328172500.0000000000 1.205556685870073e-01 -2.316237705122909e-02 1.068108776167303e-01 -1.689286039457529e-02 -2.680276597279643e-01 -9.344268380384085e-02 8.486677735638588e-02 -4.779014728026411e-01
            1.068663258458614e-01 -1.685929551824351e-02 1.205982385185821e-01 -2.321219564921750e-02 8.484280255530760e-02 -4.778786073583154e-01 -2.679803296908598e-01 -9.356704982068410e-02
            -2.679690390695234e-01 -9.345916678539139e-02 8.490320009319151e-02 -4.778945681671864e-01 1.150199192096212e-01 -2.033046870168266e-02 1.106963920573515e-01 -2.491975766474272e-02
            8.491174450279691e-02 -4.779180714987722e-01 -2.679561602271230e-01 -9.358625890479262e-02 1.107294475328081e-01 -2.492588320425918e-02 1.150107093121851e-01 -2.031109187135315e-02
329005000.0000000000 1.023277458972080e-01 -3.752820288197122e-02 8.881178982806583e-02 -2.905056675740826e-02 -2.863247344730439e-01 2.093713478223598e-03 -8.423391382495225e-02 -4.786326036105862e-01
            8.886993941950866e-02 -2.906574870749615e-02 1.023758146090062e-01 -3.742633547558226e-02 -8.417710563283842e-02 -4.786834316003524e-01 -2.862703923477016e-01 2.028566362982942e-03
            -2.862730462765948e-01 1.987019204850678e-03 -8.420879350886182e-02 -4.786348559919987e-01 9.753411256951254e-02 -3.325484995211879e-02 9.030023016124319e-02 -3.774634496235737e-02
            -8.420950501072480e-02 -4.785776426713430e-01 -2.863032780621350e-01 1.957053301831170e-03 9.023474560772816e-02 -3.765300670533725e-02 9.758215806710394e-02 -3.319659963822750e-02
329837500.0000000000 7.919197087657821e-02 -3.687028240972572e-02 6.704267753785384e-02 -2.632412468402051e-02 -2.725068502030310e-01 1.001356258904676e-01 -2.448315238747862e-01 -4.200468773475662e-01
            6.703358477529221e-02 -2.638360883366491e-02 7.919592453921712e-02 -3.675570714825489e-02 -2.447710716098455e-01 -4.201250859914515e-01 -2.725277918677450e-01 1.001076522772211e-01
            -2.725123109778453e-01 1.000706080408153e-01 -2.448099686271610e-01 -4.201117772426478e-01 7.563680214410362e-02 -3.162535583401519e-02 6.583259816157108e-02 -3.448880325164440e-02
            -2.448645096368275e-01 -4.201370359561347e-01 -2.725272554746127e-01 1.001447937428873e-01 6.583770525270842e-02 -3.449411503542255e-02 7.562483817606673e-02 -3.168938558816708e-02
330670000.0000000000 6.213238574134978e-02 -2.133173591464962e-02 5.221518534051457e-02 -9.553565333938030e-03 -2.253110540861185e-01 1.908517884871261e-01 -3.748609460039696e-01 -3.077819999593568e-01
            5.222028389248477e-02 -9.513754886930076e-03 6.206126372140765e-02 -2.138211140694542e-02 -3.748820465351309e-01 -3.078584079278546e-01 -2.252628935992545e-01 1.908124482642222e-01
            -2.253015827347560e-01 1.907155032849919e-01 -3.749225186566952e-01 -3.077870009392778e-01 5.999727367260044e-02 -1.577119016266857e-02 4.889364016469498e-02 -1.633968878519430e-02
            -3.748980100772355e-01 -3.078955935213111e-01 -2.252971559000088e-01 1.907475434231230e-01 4.895856884518631e-02 -1.633565650461168e-02 6.005792531694808e-02 -1.576039826806211e-02
331502500.0000000000 5.951610120836146e-02 1.140377814140156e-03 5.259064796126991e-02 1.311138144953161e-02 -1.466717974291241e-01 2.611811383809889e-01 -4.558008708765379e-01 -1.571578627958614e-01
            5.259654076733419e-02 1.306206904531101e-02 5.949345626226597e-02 1.174697059168339e-03 -4.558297995330602e-01 -1.572791622827466e-01 -1.468010121839522e-01 2.611053366955317e-01
            -1.467469130303642e-01 2.611135485504020e-01 -4.557623377801179e-01 -1.571598638933984e-01 5.904919813688368e-02 6.608492668502845e-03 4.779398288108198e-02 8.268307406773952e-03
            -4.557659706428891e-01 -1.572185468806435e-01 -1.467646576543508e-01 2.611251336186478e-01 4.789455007869148e-02 8.258511928722671e-03 5.905684347903155e-02 6.521422820462223e-03
332335000.0000000000 7.241106519036487e-02 1.904229523467094e-02 6.809653249556478e-02 2.976203656818463e-02 -4.601088001772845e-02 2.988733764442328e-01 -4.778836749254298e-01 9.941673148143173e-03
            6.817050548357088e-02 2.981629438006042e-02 7.240814087617189e-02 1.902518734404214e-02 -4.778770994571204e-01 9.906809849912709e-03 -4.597162505373864e-02 2.989100143936470e-01
            -4.597394573564199e-02 2.988846470247978e-01 -4.780683836423867e-01 9.835679762801556e-03 7.314628198807313e-02 2.384260413323465e-02 6.271614005660171e-02 2.730300227806975e-02
            -4.778936279996761e-01 9.901820296190172e-03 -4.597053821495765e-02 2.988811669333395e-01 6.267541864029770e-02 2.725937842689000e-02 7.315219045215020e-02 2.379017330594115e-02
333167500.0000000000 9.311912560988227e-02 2.356102463242664e-02 9.062572351259852e-02 3.209413419661129e-02 6.198022708489655e-02 2.971916805801724e-01 -4.418013345789742e-01 1.713274847637806e-01
            9.059865698367310e-02 3.208478857156726e-02 9.318747208238091e-02 2.369799705459577e-02 -4.418407772954107e-01 1.713381450069998e-01 6.195609690426739e-02 2.971783626612275e-01
            6.201916294819639e-02 2.972835479858422e-01 -4.418662119181415e-01 1.713383829468040e-01 9.496252212018443e-02 2.752364256874624e-02 8.558396588736675e-02 3.176134812794177e-02
            -4.418098297579061e-01 1.713256026139521e-01 6.196486883790359e-02 2.973133558565818e-01 8.556193346130489e-02 3.168192825930332e-02 9.505561935690705e-02 2.748784518101812e-02
334000000.0000000000 1.113270996989549e-01 1.343193519313162e-02 1.091685328709546e-01 1.923149567431266e-02 1.612601815176631e-01 2.573869042436965e-01 -3.550058917916399e-01 3.092174545695469e-01
            1.091632382275036e-01 1.913916786894843e-02 1.112813903021548e-01 1.348107425378570e-02 -3.550680915306470e-01 3.092072884931173e-01 1.612945463456998e-01 2.574302654290179e-01
            1.612423797422593e-01 2.573989210628557e-01 -3.550653777831297e-01 3.092085777742404e-01 1.138770477658695e-01 1.613088885939496e-02 1.050046686053876e-01 2.064530477195856e-02
            -3.550641809303156e-01 3.092408973433152e-01 1.612439541102085e-01 2.573619706523516e-01 1.050856525611666e-01 2.060719170446387e-02 1.138310644417193e-01 1.613886671039746e-02
334832500.0000000000 1.180804273030591e-01 -6.016868010275735e-03 1.151271314919006e-01 -2.669731706109489e-03 2.396124008682691e-01 1.869051850276784e-01 -2.284731073280981e-01 4.098955789877967e-01
            1.151154796609958e-01 -2.724856088322000e-03 1.182076083516676e-01 -5.954704571721810e-03 -2.284771229011453e-01 4.099207810220566e-01 2.396383943659255e-01 1.868571336167211e-01
            2.395858888436064e-01 1.869596195016600e-01 -2.284438266857802e-01 4.098845070820610e-01 1.210029022792254e-01 -4.394947978477634e-03 1.124272126337807e-01 6.657313237266218e-05
            -2.284536578020181e-01 4.099311642695263e-01 2.395777266076085e-01 1.869483613135081e-01 1.124455206655156e-01 -9.245859518291824e-06 1.210104780898373e-01 -4.403164816053299e-03
335665000.0000000000 1.105795430669410e-01 -2.545805618295516e-02 1.057718727508061e-01 -2.354964352527420e-02 2.897513716939293e-01 9.526786905496057e-02 -7.501901470307913e-02 4.630882915365859e-01
            1.058233055030940e-01 -2.356596661755252e-02 1.105423721417632e-01 -2.544192447789420e-02 -7.511790734492259e-02 4.631130730142711e-01 2.897762559062407e-01 9.536193981169271e-02
            2.896795675308719e-01 9.532207341929703e-02 -7.499124244628480e-02 4.631675853977754e-01 1.136321880965250e-01 -2.484238837538313e-02 1.045771519583801e-01 -2.004905372557596e-02
            -7.505321199093609e-02 4.631484798102590e-01 2.897452787090507e-01 9.528816288147647e-02 1.046483867575642e-01 -2.011878187497134e-02 1.136080980603103e-01 -2.482274797903098e-02
336497500.0000000000 9.173635899133809e-02 -3.553674085703321e-02 8.482357309154261e-02 -3.386566213903350e-02 3.076735123611972e-01 -7.930548276424029e-03 8.885956156222789e-02 4.609951226624360e-01
            8.483081808765430e-02 -3.381381296752325e-02 9.177454292908858e-02 -3.549184894800501e-02 8.880579963269009e-02 4.611145556207111e-01 3.076425840312668e-01 -8.124765391601473e-03
            3.075635738180592e-01 -8.039146885433729e-03 8.876186717874250e-02 4.610936501728075e-01 9.488607764851392e-02 -3.595354808788674e-02 8.563035611355671e-02 -3.022079095595980e-02
            8.877789085328906e-02 4.610649672512039e-01 3.075742614601688e-01 -8.047050428587964e-03 8.553039073640541e-02 -3.025580466134737e-02 9.488773353782576e-02 -3.590989394156009e-02
337330000.0000000000 7.034819628447071e-02 -3.092239735012853e-02 6.185953081736268e-02 -2.825928294178412e-02 2.904239014183472e-01 -1.135920248071840e-01 2.430558213302765e-01 4.015332382981909e-01
            6.171165036307394e-02 -2.827385010955007e-02 7.039974801829540e-02 -3.088155471085207e-02 2.430672625842158e-01 4.014711510867039e-01 2.904529992165220e-01 -1.135571066327647e-01
            2.904843067766535e-01 -1.135168680461998e-01 2.430993592625029e-01 4.015264495275440e-01 7.344553762106226e-02 -3.211805461297423e-02 6.424682030425045e-02 -2.514760836302311e-02
            2.430829979881334e-01 4.014617259725487e-01 2.904491622537859e-01 -1.135786780959260e-01 6.422457450899738e-02 -2.511880509182547e-02 7.343279101240414e-02 -3.226012902032134e-02
338162500.0000000000 5.693283351795233e-02 -1.303592047807618e-02 4.762297863628594e-02 -8.902865762205380e-03 2.370589490211001e-01 -2.097046156527629e-01 3.663507688552264e-01 2.905998116624952e-01
            4.757110305895700e-02 -8.892455267229822e-03 5.692349250316609e-02 -1.309727002434257e-02 3.664443815852413e-01 2.905547118978715e-01 2.369870354633694e-01 -2.097984880480832e-01
            2.370664881303206e-01 -2.097198907659745e-01 3.663337620925261e-01 2.905824006856560e-01 5.977000478335778e-02 -1.541778864962831e-02 5.152715797769240e-02 -6.776921522851105e-03
            3.664243564002755e-01 2.905093029998750e-01 2.370126207667107e-01 -2.097426158489968e-01 5.158873567564292e-02 -6.894063760722758e-03 5.975719378919966e-02 -1.539949739033936e-02
338995000.0000000000 5.859813589883366e-02 9.267737037515983e-03 4.936912581375838e-02 1.498384464994036e-02 1.507914571142328e-01 -2.827233975832739e-01 4.413799515456410e-01 1.440101615337871e-01
            4.936423959977822e-02 1.493882467827228e-02 5.853445735928482e-02 9.158350130904405e-03 4.413657218803931e-01 1.440497481222256e-01 1.507542532512165e-01 -2.827331182740512e-01
            1.507308637758849e-01 -2.827536797343246e-01 4.413735571708871e-01 1.440855085968152e-01 6.078956182541065e-02 5.731178449384393e-03 5.435002050969182e-02 1.544656538880744e-02
            4.414052098975490e-01 1.440179811872114e-01 1.507329435350547e-01 -2.826592282587865e-01 5.440129640178178e-02 1.532852959428426e-02 6.081424584525837e-02 5.806352518140908e-03
339827500.0000000000 7.433292905989081e-02 2.466658210586398e-02 6.590143260021260e-02 3.145186543614099e-02 4.216752036699945e-02 -3.200480895264384e-01 4.596550450081882e-01 -1.674965115748290e-02
            6.602645562664697e-02 3.151741465168661e-02 7.426373150538115e-02 2.472817067662759e-02 4.597263253536932e-01 -1.685137808345774e-02 4.222726956469692e-02 -3.200409189441666e-01
            4.225507320721175e-02 -3.200321573256139e-01 4.597458522285553e-01 -1.687095400512503e-02 7.568432008712732e-02 2.050856774822512e-02 7.121336866470340e-02 3.018313649022121e-02
            4.597057923234768e-01 -1.672609718828337e-02 4.225796270823602e-02 -3.200144138499660e-01 7.123084786875637e-02 3.026690029006152e-02 7.558703793065986e-02 2.055487451292298e-02
340660000.0000000000 9.567347376970124e-02 2.589931313908487e-02 8.859589169222309e-02 3.324634477297587e-02 -7.233141681604832e-02 -3.154803671684432e-01 4.226650710936851e-01 -1.712851454671385e-01
            8.852657408615969e-02 3.317379338971923e-02 9.567704805400401e-02 2.598434687862422e-02 4.226878029667306e-01 -1.713014282898976e-01 -7.234516097543621e-02 -3.154196689303208e-01
            -7.234998622262082e-02 -3.155037428958292e-01 4.226244177535650e-01 -1.713321553816928e-01 9.602257383684261e-02 2.148258939081032e-02 9.334260616104723e-02 3.031033855841827e-02
            4.227032100354416e-01 -1.712609427601988e-01 -7.235626414418428e-02 -3.154582627454203e-01 9.336207332662295e-02 3.026833201671764e-02 9.600708287159489e-02 2.156027215912994e-02
341492500.0000000000 1.124141432391469e-01 1.307933921240708e-02 1.062377865678271e-01 2.028888584960833e-02 -1.767854494907934e-01 -2.711305678905575e-01 3.373369758462588e-01 -3.027260246804829e-01
            1.063190645208370e-01 2.035073843176431e-02 1.124641589100656e-01 1.311437339783590e-02 3.374148558824002e-01 -3.027468187723647e-01 -1.768157150376762e-01 -2.710983630915152e-01
            -1.768374180133346e-01 -2.712070567914841e-01 3.373977555976994e-01 -3.027096122240604e-01 1.115911785249920e-01 8.846979212661622e-03 1.100882064065849e-01 1.621776154587009e-02
            3.373531534401856e-01 -3.027068144484945e-01 -1.768159165538190e-01 -2.711290414275179e-01 1.101195544036833e-01 1.623011854993015e-02 1.116431293935519e-01 8.944405953068935e-03
342325000.0000000000 1.166107214302686e-01 -7.381566604885213e-03 1.111344570837816e-01 -4.886271857256857e-04 -2.588422769593127e-01 -1.948326458122724e-01 2.139404198499940e-01 -3.981565243633253e-01
            1.112068488824779e-01 -4.942244368781663e-04 1.166228038734320e-01 -7.363262284027674e-03 2.140394256360544e-01 -3.981477229614844e-01 -2.589113334217625e-01 -1.947980622210298e-01
            -2.589242940362266e-01 -1.947890011595003e-01 2.139901325480429e-01 -3.982163500028087e-01 1.150843581517164e-01 -1.074795061200179e-02 1.137828794578141e-01 -5.305495979278887e-03
            2.139820894852953e-01 -3.982290351904772e-01 -2.588222973700920e-01 -1.948086386112797e-01 1.138407080285722e-01 -5.277540426496387e-03 1.152046092143737e-01 -1.081228284307413e-02
343157500.0000000000 1.064017702768419e-01 -2.587846431166037e-02 1.011294128511941e-01 -1.929360129074861e-02 -3.109035876633187e-01 -9.624572471728544e-02 6.504297472610746e-02 -4.472374038310609e-01
            1.011361033539554e-01 -1.929820539009431e-02 1.064739128581049e-01 -2.582738696533356e-02 6.511241375775605e-02 -4.472240842724426e-01 -3.109423715052158e-01 -9.623528533231615e-02
            -3.108805571584482e-01 -9.622999816101015e-02 6.504577251746131e-02 -4.472161866101719e-01 1.048966668567845e-01 -2.811636667120693e-02 1.030123377211649e-01 -2.409508602585477e-02
            6.502825946977335e-02 -4.471998439734672e-01 -3.109206448217373e-01 -9.632003176117504e-02 1.029611336229808e-01 -2.406791251821228e-02 1.049973809815368e-01 -2.802157327805986e-02
343990000.0000000000 8.619531138591587e-02 -3.346634002296537e-02 8.098856649948914e-02 -2.691851787505672e-02 -3.281690660753966e-01 1.474885478739825e-02 -9.311319500769091e-02 -4.423350916381927e-01
            8.103503611269776e-02 -2.684378600832860e-02 8.619125314402890e-02 -3.342565855445462e-02 -9.318516421632604e-02 -4.423262937126852e-01 -3.282058409668967e-01 1.471881011993032e-02
            -3.281523734266911e-01 1.470968068878321e-02 -9.318588642207762e-02 -4.422993893607181e-01 8.563721810563249e-02 -3.461702649088459e-02 8.245156844330646e-02 -3.132522909496974e-02
            -9.312683189912679e-02 -4.423735055291139e-01 -3.282041270345038e-01 1.466207997472418e-02 8.244159802462900e-02 -3.139698706617294e-02 8.562518291703033e-02 -3.463127624076826e-02
344822500.0000000000 6.528733391551740e-02 -2.588552656053771e-02 6.027629176510264e-02 -1.897247066555452e-02 -3.072983953708902e-01 1.275573691479851e-01 -2.406869551421778e-01 -3.816732402133572e-01
            6.040393834080818e-02 -1.888150313324558e-02 6.530086270001845e-02 -2.589322785503833e-02 -2.406509300615669e-01 -3.817334174764662e-01 -3.072748150859524e-01 1.274874746205462e-01
            -3.073682668569683e-01 1.274745687016295e-01 -2.406910818395751e-01 -3.816573277273841e-01 6.646491538660314e-02 -2.666745321416088e-02 6.211781713655438e-02 -2.334725011862755e-02
            -2.406530373960681e-01 -3.817350835890057e-01 -3.073191449826643e-01 1.275097870969214e-01 6.209459856400729e-02 -2.333726831883901e-02 6.649992699528398e-02 -2.670271050240308e-02
345655000.0000000000 5.395462146441837e-02 -6.205034729134834e-03 4.975768405812329e-02 1.299380775977072e-03 -2.474486197758229e-01 2.289243742803854e-01 -3.567309999645010e-01 -2.724536318648256e-01
            4.980912857106052e-02 1.307584326736214e-03 5.400441437712296e-02 -6.111038621215924e-03 -3.567352895994446e-01 -2.723807834150531e-01 -2.475160718777000e-01 2.288688403550290e-01
            -2.474954144938425e-01 2.289466097143955e-01 -3.566918111765540e-01 -2.724345144128730e-01 5.746171930440071e-02 -7.705395230746356e-03 5.219831328530928e-02 -3.686602685227605e-03
            -3.567006752169131e-01 -2.724843418279173e-01 -2.473977101586236e-01 2.287539294756954e-01 5.222821141320640e-02 -3.666233230441673e-03 5.739876930951737e-02 -7.692174601142515e-03
346487500.0000000000 5.826116232125873e-02 1.637789341782088e-02 5.522671212226330e-02 2.405706134240073e-02 -1.533447210520900e-01 3.038789917078826e-01 -4.253866908673502e-01 -1.306216282418338e-01
            5.524180032681864e-02 2.395818353146519e-02 5.827092089595334e-02 1.645185699766654e-02 -4.253614335285140e-01 -1.306484686354651e-01 -1.532863226832606e-01 3.039376536086204e-01
            -1.532397319269668e-01 3.039561641206600e-01 -4.254034331238923e-01 -1.306468029266540e-01 6.373885499024330e-02 1.255764937684026e-02 5.805000290689322e-02 1.737548430762462e-02
            -4.254139165835875e-01 -1.306716717274911e-01 -1.533813768248889e-01 3.039116657105135e-01 5.820502990665125e-02 1.731427155960162e-02 6.369677277006947e-02 1.264794161950127e-02
347320000.0000000000 7.582609721500562e-02 3.060346947737164e-02 7.427368343595531e-02 3.797224153628819e-02 -3.720870772955257e-02 3.400380350008047e-01 -4.398837235168496e-01 2.333309592195620e-02
            7.421717022009029e-02 3.791273040873690e-02 7.580945345142848e-02 3.064044652080971e-02 -4.399454735271660e-01 2.332184761707366e-02 -3.734045227345905e-02 3.400299137880188e-01
            -3.735318332718523e-02 3.400413668247066e-01 -4.399055719793351e-01 2.320912688935946e-02 8.213196044200315e-02 2.341803222054883e-02 7.654263531280860e-02 2.896352010302846e-02
            -4.399007656211173e-01 2.331740775473401e-02 -3.735826624030924e-02 3.400571649670920e-01 7.649676366722875e-02 2.888408572019524e-02 8.215465260664707e-02 2.348571820840312e-02
348152500.0000000000 9.768336032020762e-02 3.034408170744407e-02 9.757775492710932e-02 3.676089746753317e-02 8.336067638170878e-02 3.320129798745740e-01 -4.021332257593667e-01 1.701375014013833e-01
            9.759928703795333e-02 3.675810482049166e-02 9.768675863379488e-02 3.037001296514681e-02 -4.022551678446465e-01 1.701153551487338e-01 8.344714812631229e-02 3.320762748488666e-01
            8.347710103788676e-02 3.319988040574671e-01 -4.021013241452225e-01 1.700671638945723e-01 1.034023771570903e-01 1.918187890282843e-02 9.794976145750885e-02 2.531979553520699e-02
            -4.021802905900485e-01 1.700746653282593e-01 8.336050735005118e-02 3.320790146889226e-01 9.787243740053270e-02 2.534474406191104e-02 1.032518267305645e-01 1.927905266769403e-02
348985000.0000000000 1.137661253959050e-01 1.663464382325500e-02 1.146634726912490e-01 2.163448405256136e-02 1.923457857895246e-01 2.828462564918928e-01 -3.188921103216588e-01 2.946206315696977e-01
            1.146273276513783e-01 2.161034634963576e-02 1.137248362080295e-01 1.668418659823163e-02 -3.190182413713616e-01 2.946211233440668e-01 1.923423520649960e-01 2.828433093860674e-01
            1.923041576714011e-01 2.829139846281827e-01 -3.189160732219154e-01 2.946674522854003e-01 1.167899932906993e-01 1.888925072294260e-03 1.117048025301075e-01 8.565832147239367e-03
            -3.190212982511004e-01 2.945647098101457e-01 1.923260303976448e-01 2.829252586077336e-01 1.117132182672226e-01 8.520604264097882e-03 1.168328303141268e-01 1.904269582388924e-03
349817500.0000000000 1.173580533759749e-01 -3.452275048787097e-03 1.186473209686367e-01 -3.154276030105569e-04 2.772615757031979e-01 2.008411221877715e-01 -1.996493199063024e-01 3.845525789743592e-01
            1.186404244138533e-01 -2.419212268902369e-04 1.173974570246983e-01 -3.503540756645945e-03 -1.996650940942090e-01 3.845152980633361e-01 2.771769610381745e-01 2.007850671048549e-01
            2.772134525357224e-01 2.008247323711453e-01 -1.995722421627985e-01 3.845529853652709e-01 1.161345906378943e-01 -2.044586939361391e-02 1.114302019319867e-01 -1.356661248607666e-02
            -1.996198504293381e-01 3.845148767009459e-01 2.772620408416761e-01 2.008206063725702e-01 1.114109074955127e-01 -1.354300660180534e-02 1.160702124775838e-01 -2.059515046874918e-02
350650000.0000000000 1.071871726812081e-01 -2.084533016813463e-02 1.082528107020856e-01 -1.922774586952368e-02 3.302919271042006e-01 9.588290297262193e-02 -5.606742726305361e-02 4.297008916544272e-01
            1.082208488880358e-01 -1.921559666568071e-02 1.073250189429047e-01 -2.072657037192290e-02 -5.611426392891675e-02 4.297093358769275e-01 3.302769372439758e-01 9.584260762266705e-02
            3.303277245942524e-01 9.596809592645647e-02 -5.611172337869823e-02 4.297262414942992e-01 1.010227414131988e-01 -3.830833478409650e-02 9.682702677521632e-02 -3.084917968495580e-02
            -5.614414944786154e-02 4.296784889811269e-01 3.302171319955353e-01 9.588153840839944e-02 9.683301727213325e-02 -3.089117774652489e-02 1.009942698088512e-01 -3.822657859699037e-02
351482500.0000000000 8.839922588162775e-02 -2.732030802041383e-02 8.885911623440138e-02 -2.675678410243144e-02 3.463484752896325e-01 -2.173421247230655e-02 9.579520866917918e-02 4.226942297480117e-01
            8.884495709323798e-02 -2.673093104624226e-02 8.837283422877962e-02 -2.728589556826580e-02 9.580159691603264e-02 4.227891589037450e-01 3.463966671597015e-01 -2.176789008106512e-02
            3.463848519297135e-01 -2.158934112792092e-02 9.586448752808757e-02 4.228153359975345e-01 7.752400678564740e-02 -4.271495906641198e-02 7.391333130217111e-02 -3.510155263927145e-02
            9.580353811824527e-02 4.227524640629413e-01 3.464403598759678e-01 -2.170608541121666e-02 7.390831092368177e-02 -3.514407441821311e-02 7.749583546979047e-02 -4.275501906082667e-02
352315000.0000000000 6.990849233846390e-02 -1.964412006647100e-02 6.970363158249371e-02 -1.984392497255018e-02 3.220442837373131e-01 -1.404823709249081e-01 2.364336351785264e-01 3.621425143264281e-01
            6.968399512442509e-02 -1.989217966861506e-02 6.993122531671506e-02 -1.964330455139468e-02 2.364212180388258e-01 3.622274690267380e-01 3.219885484522256e-01 -1.404330679809730e-01
            3.219999397332419e-01 -1.404269033966523e-01 2.364841089958853e-01 3.621968065319821e-01 5.581131167211947e-02 -3.118955179467030e-02 5.313696919584769e-02 -2.362894737466586e-02
            2.364479287305535e-01 3.622260572706940e-01 3.220452760923406e-01 -1.404915882056500e-01 5.317866556808192e-02 -2.359532576826893e-02 5.589566863423955e-02 -3.115945762802165e-02
353147500.0000000000 6.135310973460471e-02 -1.465949019364124e-03 6.070210647108604e-02 -2.094338257682640e-03 2.565453360274335e-01 -2.460378067551384e-01 3.458594574839924e-01 2.555074387502405e-01
            6.068540462381174e-02 -2.065962882699948e-03 6.132771577702761e-02 -1.629238981152593e-03 3.458417214142173e-01 2.554728884093220e-01 2.566205069572092e-01 -2.461225731328545e-01
            2.565285571386900e-01 -2.460979983446241e-01 3.458616508713331e-01 2.555284891323548e-01 4.643123918355609e-02 -8.361895946004302e-03 4.449603104687549e-02 -1.297377000412516e-03
            3.458291945356421e-01 2.553786947634681e-01 2.566030860745301e-01 -2.460685960188649e-01 4.451518921016250e-02 -1.335105549100023e-03 4.645415625158950e-02 -8.451550397875696e-03
353980000.0000000000 6.698142850699944e-02 1.754797912425027e-02 6.619266468811312e-02 1.671621570805465e-02 1.559445934984054e-01 -3.229335300022900e-01 4.092379320397982e-01 1.185206776435907e-01
            6.621755314322847e-02 1.676796460394617e-02 6.696721078278392e-02 1.742405521630585e-02 4.092171857347207e-01 1.185332200082809e-01 1.558943105114143e-01 -3.229527500645398e-01
            1.558816234477892e-01 -3.229559202613050e-01 4.091962010752380e-01 1.185244676510758e-01 5.383809417960630e-02 1.473467992956563e-02 5.232516360606754e-02 2.090628607564325e-02
            4.092176849647046e-01 1.185181426782652e-01 1.558664413790489e-01 -3.229379214026519e-01 5.236244378471526e-02 2.086211945416555e-02 5.387887523498536e-02 1.467139430823362e-02
354812500.0000000000 8.347574800543497e-02 2.782974553948878e-02 8.303723494133744e-02 2.642505547439031e-02 3.334810285920684e-02 -3.585173735292297e-01 4.207176663356582e-01 -2.893931945247242e-02
            8.305528855315918e-02 2.654762334586429e-02 8.349080807253462e-02 2.786352867835316e-02 4.207728115917480e-01 -2.896598154795121e-02 3.340434985989491e-02 -3.585548894307892e-01
            3.340084588563771e-02 -3.585955008980062e-01 4.206762180326083e-01 -2.890558123390714e-02 7.381255398416597e-02 2.708517800802000e-02 7.202309628500800e-02 3.215034374406971e-02
            4.207291549883634e-01 -2.885610065118016e-02 3.332618122681504e-02 -3.585761293427736e-01 7.204463767946039e-02 3.216211367798349e-02 7.389599817764056e-02 2.708024726105339e-02
355645000.0000000000 1.022558207963393e-01 2.477501393003312e-02 1.021684770621520e-01 2.233099896964565e-02 -9.324471373095196e-02 -3.481668124521890e-01 3.824752065329347e-01 -1.689850872049131e-01
            1.021717521761406e-01 2.235390588489987e-02 1.021445271284883e-01 2.469376111100234e-02 3.824417542274393e-01 -1.690717478315408e-01 -9.318077636662811e-02 -3.482039930774451e-01
            -9.319557505432820e-02 -3.481596342985812e-01 3.824177482649997e-01 -1.689908516284187e-01 9.624207756244553e-02 2.350711438845191e-02 9.324216417506344e-02 2.783465286510649e-02
            3.824847139498426e-01 -1.690511428703397e-01 -9.319595453174982e-02 -3.481111259429873e-01 9.322656498030374e-02 2.782677978116074e-02 9.623893487119080e-02 2.357057264298349e-02
356477500.0000000000 1.138054141533690e-01 1.057043682807892e-02 1.139536989774464e-01 6.544233015941360e-03 -2.069576874333620e-01 -2.950307751681655e-01 3.008098915471959e-01 -2.872590039803895e-01
            1.138880604524314e-01 6.540935310061158e-03 1.137613514111218e-01 1.057120344956545e-02 3.008129660719819e-01 -2.873021939130051e-01 -2.069509738868602e-01 -2.950089246826307e-01
            -2.069562631233242e-01 -2.949753091430189e-01 3.007857162148625e-01 -2.872503129450986e-01 1.104906698582059e-01 6.760758113513599e-03 1.056779896406698e-01 1.105508845283426e-02
            3.008682044658912e-01 -2.872470859291562e-01 -2.070115235646827e-01 -2.950833138449265e-01 1.056676137588648e-01 1.105050435024244e-02 1.104466389646209e-01 6.783639463267811e-03
357310000.0000000000 1.131978056447821e-01 -7.311719805215964e-03 1.125947935407246e-01 -1.337682819321138e-02 -2.954699568066239e-01 -2.075557817976130e-01 1.846947410533228e-01 -3.715809530115707e-01
            1.127165138354324e-01 -1.342116133662330e-02 1.131644298534571e-01 -7.311041307138108e-03 1.846648400956638e-01 -3.716952779880874e-01 -2.954556681067742e-01 -2.075622719983053e-01
            -2.954628569369971e-01 -2.074641461640276e-01 1.846211050335189e-01 -3.716207369516817e-01 1.102632864746780e-01 -1.503956652546866e-02 1.036587559858468e-01 -9.374109194455749e-03
            1.846776647255949e-01 -3.716645830135657e-01 -2.955157920476602e-01 -2.076080220277254e-01 1.036757350520886e-01 -9.398220347032440e-03 1.102462265552269e-01 -1.503588231642682e-02
358142500.0000000000 1.008142584114050e-01 -1.995386591149256e-02 9.881392053526361e-02 -2.812100908279162e-02 -3.502731106222630e-01 -9.575190549890551e-02 4.575104883996230e-02 -4.122123759045349e-01
            9.881960840676493e-02 -2.808668576682581e-02 1.007969082925444e-01 -1.991960681524200e-02 4.579796995890377e-02 -4.122149786537935e-01 -3.502401086454586e-01 -9.580548613244813e-02
            -3.502546308073546e-01 -9.578713714282465e-02 4.580528493483207e-02 -4.122563648688375e-01 9.582469402665512e-02 -3.157243272376860e-02 8.815006304169805e-02 -2.328304600839128e-02
            4.577488851165110e-02 -4.122499612447716e-01 -3.502503989465048e-01 -9.572755786028239e-02 8.825699977967565e-02 -2.327159339347950e-02 9.581521178290628e-02 -3.159519375902285e-02
358975000.0000000000 8.284663445833348e-02 -2.076588820214593e-02 7.844870847822326e-02 -3.044788154014681e-02 -3.653293887184093e-01 2.935088202099550e-02 -9.976739056629184e-02 -4.019940911150398e-01
            7.844440076674442e-02 -3.042516652261257e-02 8.277719449934644e-02 -2.082725457725678e-02 -9.976874917390166e-02 -4.019945515341380e-01 -3.653411139467112e-01 2.941363923690059e-02
            -3.653109305290687e-01 2.932963236529722e-02 -9.986161011071340e-02 -4.020001968608687e-01 7.366678005320386e-02 -3.482645058442711e-02 6.636498706192566e-02 -2.321872887270450e-02
            -9.977232344913903e-02 -4.019977277627530e-01 -3.653243159889588e-01 2.929248344225766e-02 6.636711078692513e-02 -2.319401139576200e-02 7.371288919834180e-02 -3.479620601279115e-02
359807500.0000000000 6.877668588802989e-02 -8.661152492497534e-03 6.143384664343384e-02 -1.898581926712311e-02 -3.367524551372874e-01 1.548523296155259e-01 -2.326863672435099e-01 -3.406085674167241e-01
            6.131527905567651e-02 -1.903640981765554e-02 6.873443530049464e-02 -8.591480386889006e-03 -2.326771514674953e-01 -3.404757371369776e-01 -3.367382455766021e-01 1.548476758098565e-01
            -3.367329561446561e-01 1.548514169237641e-01 -2.326332416753180e-01 -3.404478148951544e-01 5.435923865433225e-02 -2.261039409653960e-02 4.916334729299750e-02 -7.659454610167140e-03
            -2.327079582919490e-01 -3.404751071952249e-01 -3.366997996425348e-01 1.548371371287401e-01 4.912752051304092e-02 -7.712307151946410e-03 5.441187590594273e-02 -2.258332327463086e-02
360640000.0000000000 6.682832472237026e-02 1.063648119435039e-02 5.625894569059380e-02 8.134038510805896e-04 -2.645207207077927e-01 2.647725906293744e-01 -3.338274640986141e-01 -2.361644220848944e-01
            5.612334140199163e-02 8.352046564479754e-04 6.689925871858858e-02 1.075464102811156e-02 -3.339196246333681e-01 -2.362219988603412e-01 -2.644769325549124e-01 2.648208047856925e-01
            -2.644750498806270e-01 2.647612398643328e-01 -3.338183138290391e-01 -2.362364215883926e-01 4.761669926229447e-02 -5.091050006148093e-04 4.625996621807523e-02 1.653208020877277e-02
            -3.338507032314387e-01 -2.362785173805020e-01 -2.644771386844198e-01 2.647413013933462e-01 4.623790786975405e-02 1.644849252813060e-02 4.768176583409118e-02 -5.355732481176947e-04
361472500.0000000000 7.903975734556293e-02 2.692053043203918e-02 6.550001833281177e-02 1.884229894517407e-02 -1.561650465184195e-01 3.425029808322101e-01 -3.906545179726172e-01 -1.051973656125020e-01
            6.545750689316081e-02 1.878629744362079e-02 7.897728328233000e-02 2.691642100185416e-02 -3.906598776566861e-01 -1.051582858593083e-01 -1.561415160682478e-01 3.425480021424436e-01
            -1.561113221045096e-01 3.424658235207087e-01 -3.906308467058617e-01 -1.051463295074062e-01 5.691017894064955e-02 2.030499163732953e-02 5.985887933856179e-02 3.772959537469592e-02
            -3.906288929611453e-01 -1.051761262617565e-01 -1.561695961561788e-01 3.424802149390900e-01 5.991917129000310e-02 3.769319676106023e-02 5.689623793797251e-02 2.034216652177953e-02
362305000.0000000000 9.965924607014598e-02 3.115729916794593e-02 8.414452192725969e-02 2.579564985003360e-02 -2.698534213052795e-02 3.761160736290539e-01 -3.985185266561252e-01 3.435253069542918e-02
            8.410751017928458e-02 2.578636851835714e-02 9.964656085277916e-02 3.122375704361227e-02 -3.986188907171745e-01 3.433526085220703e-02 -2.693720709424501e-02 3.761220785918738e-01
            -2.697186156897010e-02 3.761455623073840e-01 -3.986457914545923e-01 3.431586351759319e-02 7.691039012332808e-02 2.997377364218385e-02 8.428427558664879e-02 4.567804373107004e-02
            -3.986029642859444e-01 3.426648637449418e-02 -2.700112308549327e-02 3.760969023645409e-01 8.427357781561096e-02 4.566639317954738e-02 7.687388252007640e-02 2.997561291511338e-02
363137500.0000000000 1.187090159479587e-01 2.099063642546410e-02 1.024485028744383e-01 1.880698824999105e-02 1.045314878972681e-01 3.619014412186609e-01 -3.604479513298985e-01 1.659190126724114e-01
            1.024788759199141e-01 1.878589636134947e-02 1.187255942862476e-01 2.101075585879394e-02 -3.604356274511045e-01 1.660107525369929e-01 1.046022371904828e-01 3.618901869531641e-01
            1.045848576758659e-01 3.619212445800106e-01 -3.603770015871802e-01 1.659728576305453e-01 9.766178740159484e-02 2.451627972076889e-02 1.080749593660395e-01 3.717785910357697e-02
            -3.603961130577248e-01 1.659755665320487e-01 1.045395600605557e-01 3.619588292258604e-01 1.080759908956882e-01 3.708621322030906e-02 9.763567264640174e-02 2.441397615060424e-02
363970000.0000000000 1.273660526151973e-01 5.572698894881433e-04 1.118154561797254e-01 1.491299299786931e-03 2.217518449949782e-01 3.040390325959567e-01 -2.816673701416653e-01 2.768936058906301e-01
            1.117656050677086e-01 1.592565825516224e-03 1.273924068614775e-01 6.082136318585923e-04 -2.816860488713407e-01 2.768052972664377e-01 2.216923682355944e-01 3.040955116362346e-01
            2.217571115008915e-01 3.041330138256338e-01 -2.816847792803266e-01 2.768491326725434e-01 1.096721020283496e-01 7.369059716123795e-03 1.213989292372573e-01 1.616235317568955e-02
            -2.816635022418043e-01 2.769191120596636e-01 2.217513881980007e-01 3.040660659729609e-01 1.213810259229937e-01 1.621225106872429e-02 1.095265142064414e-01 7.395822591649164e-03
364802500.0000000000 1.214858191295383e-01 -2.127399510850036e-02 1.077770376396527e-01 -1.785284115827188e-02 3.121396047698818e-01 2.113602045570755e-01 -1.705716733983322e-01 3.558031957531000e-01
            1.077872667138532e-01 -1.787769772387025e-02 1.215018415827345e-01 -2.126598266490927e-02 -1.704910271978137e-01 3.557689052721597e-01 3.122027362799006e-01 2.113888444186715e-01
            3.122347004348904e-01 2.113429614684444e-01 -1.704947340349823e-01 3.557181567594049e-01 1.076593843789541e-01 -1.301404639416361e-02 1.191865090890823e-01 -7.657081655567068e-03
            -1.705021338732118e-01 3.557764911111422e-01 3.121891480473114e-01 2.114807095948539e-01 1.191772733979987e-01 -7.714208105536597e-03 1.076506376570013e-01 -1.312628604771144e-02
365635000.0000000000 1.030329654008875e-01 -3.502385375874009e-02 9.196356312877632e-02 -3.041821080835930e-02 3.672551483696979e-01 9.395704442786031e-02 -3.775207233399247e-02 3.927238088177706e-01
            9.189034509476443e-02 -3.048405900921003e-02 1.029275265801478e-01 -3.500328446309705e-02 -3.782058297991412e-02 3.927690867380417e-01 3.672324841813055e-01 9.397716761610285e-02
            3.673023395582784e-01 9.401199903602579e-02 -3.773470372052436e-02 3.928056249719089e-01 9.281198815977069e-02 -2.731400698229141e-02 1.029932676703312e-01 -2.423228890634070e-02
            -3.775359426802814e-02 3.928057619229133e-01 3.672823100202348e-01 9.399181979820195e-02 1.030174612745549e-01 -2.432747444531228e-02 9.273740077570088e-02 -2.740905893173391e-02
366467500.0000000000 7.951820949984177e-02 -3.418905477966734e-02 7.117801987956500e-02 -2.989237892707855e-02 3.810121233029415e-01 -3.679424976512410e-02 1.008409303309227e-01 3.810866138591179e-01
            7.118547855651491e-02 -2.995670995488177e-02 7.954169058478862e-02 -3.415646907360181e-02 1.009159809332829e-01 3.811095431512941e-01 3.809219384248229e-01 -3.675738598339292e-02
            3.809756173227137e-01 -3.681870650213173e-02 1.008786445858891e-01 3.809707938331565e-01 7.186240357709588e-02 -2.843322768845664e-02 8.068346268706489e-02 -2.640381298938647e-02
            1.008381168716027e-01 3.810192628688004e-01 3.809375877059034e-01 -3.686575574570677e-02 8.068175268717288e-02 -2.638186805595182e-02 7.189248015952089e-02 -2.849576499944313e-02
367300000.0000000000 6.169810511747258e-02 -1.841842188920461e-02 5.554784228095043e-02 -1.582279385306292e-02 3.488231909431210e-01 -1.673248588297415e-01 2.266348867455332e-01 3.203358733359699e-01
            5.547680751506617e-02 -1.591833258622386e-02 6.176668862555021e-02 -1.849976116233671e-02 2.265867539820396e-01 3.202340123954296e-01 3.487584389083885e-01 -1.672372719024211e-01
            3.488591033961276e-01 -1.673006159532456e-01 2.265769607017355e-01 3.202481216038999e-01 5.511451860573648e-02 -1.525861110779481e-02 6.320006275413004e-02 -1.331550172825775e-02
            2.265484007479292e-01 3.203797967916150e-01 3.488626233210169e-01 -1.672942971397880e-01 6.327427560519040e-02 -1.331408830208288e-02 5.513962584907380e-02 -1.537538965206663e-02
368132500.0000000000 5.817890304192310e-02 5.067348098842354e-03 5.290734188086964e-02 5.070135565886267e-03 2.713681757285307e-01 -2.805293604214307e-01 3.211552859257839e-01 2.192116614448000e-01
            5.293595606226023e-02 5.034335134281890e-03 5.816538772032050e-02 5.050700303577732e-03 3.211666014894410e-01 2.191892630314204e-01 2.714305406465489e-01 -2.805271797489872e-01
            2.714358674688535e-01 -2.806118165784086e-01 3.211166869860945e-01 2.192491761718978e-01 5.114046993708614e-02 5.652947938810839e-03 5.965216124890239e-02 7.802870034050740e-03
            3.211596606772867e-01 2.191764165360442e-01 2.714922538475191e-01 -2.805306703700967e-01 5.957189166837341e-02 7.817977650586710e-03 5.111848580988974e-02 5.701365940192417e-03
368965000.0000000000 7.047866739518086e-02 2.496670066889626e-02 6.455963138795585e-02 2.215448254597198e-02 1.573636206019726e-01 -3.595901602627555e-01 3.728074308142449e-01 9.365946514338884e-02
            6.452998842828134e-02 2.215688213167761e-02 7.057212834957319e-02 2.491056543633001e-02 3.727810071728953e-01 9.363972315368714e-02 1.572458113694546e-01 -3.596110174132332e-01
            1.572509461126438e-01 -3.596558983983142e-01 3.727770726961609e-01 9.362199726309643e-02 6.181256962526057e-02 2.399601035424007e-02 7.161189091141608e-02 2.539614315705591e-02
            3.727521194874119e-01 9.363882207441161e-02 1.572789688540482e-01 -3.596037773033727e-01 7.155606431754254e-02 2.541802111020960e-02 6.189502260779708e-02 2.395456496596803e-02
369797500.0000000000 9.214709261574849e-02 3.206368064447084e-02 8.410072829229298e-02 2.715278695429965e-02 2.228812260704777e-02 -3.924034783695042e-01 3.781022929423669e-01 -3.895748695021415e-02
            8.401557963636530e-02 2.714606721536753e-02 9.224267688319875e-02 3.203833709332006e-02 3.781193851326435e-01 -3.903990402031379e-02 2.228604378034748e-02 -3.923495853649117e-01
            2.223970348283022e-02 -3.924180547153676e-01 3.780902358017939e-01 -3.896772632883980e-02 8.128617945516968e-02 3.047228689303424e-02 9.249053896863299e-02 3.007865178251834e-02
            3.780577804395209e-01 -3.900641119029070e-02 2.228125804485838e-02 -3.923569610933268e-01 9.244063376803638e-02 3.007039916035500e-02 8.128833293501081e-02 3.056964327740710e-02
370630000.0000000000 1.127692834084310e-01 2.395478979122257e-02 1.014960253805169e-01 1.827251166775083e-02 -1.143394237838332e-01 -3.756853183468907e-01 3.395690958585885e-01 -1.634552259565303e-01
            1.015234867921185e-01 1.828778804239236e-02 1.128663384390519e-01 2.397143133262729e-02 3.395882668674457e-01 -1.634292715436079e-01 -1.143764487700284e-01 -3.756206476883139e-01
            -1.142852263924103e-01 -3.757323944439352e-01 3.395913721202667e-01 -1.635129421768365e-01 9.974922043047592e-02 2.301284910596444e-02 1.115695024662346e-01 1.943644531749854e-02
            3.395696867183846e-01 -1.635563460044711e-01 -1.142393669759406e-01 -3.756683579033873e-01 1.114965857857835e-01 1.940404389162156e-02 9.968368016142096e-02 2.300564606473274e-02
371462500.0000000000 1.232263932932701e-01 5.188812911742024e-03 1.085281453281083e-01 5.615103810152725e-04 -2.356367486876505e-01 -3.139098078162618e-01 2.628149430171273e-01 -2.676858253033804e-01
            1.086203955378363e-01 5.229290698614237e-04 1.232406252167853e-01 5.226234576727595e-03 2.628858686088209e-01 -2.676888914466150e-01 -2.356326134712598e-01 -3.140136996842634e-01
            -2.356774274883278e-01 -3.139922054951357e-01 2.628212539819672e-01 -2.677232242971178e-01 1.083729134010916e-01 5.603397289386084e-03 1.193238352969986e-01 -1.422790569188501e-03
            2.629266125035402e-01 -2.677168919014843e-01 -2.356960188609327e-01 -3.138933349533742e-01 1.192176814181118e-01 -1.480578971222214e-03 1.084727585747980e-01 5.676217209661920e-03
372295000.0000000000 1.194755172312261e-01 -1.535681781563935e-02 1.022383466788276e-01 -1.753082590346277e-02 -3.288695365219084e-01 -2.160588886155148e-01 1.555943841970422e-01 -3.408643914085032e-01
            1.022125195509735e-01 -1.744399618190991e-02 1.194742741418579e-01 -1.535960834353580e-02 1.555562929885583e-01 -3.408295518016578e-01 -3.288609304028327e-01 -2.160661270917817e-01
            -3.288342684112974e-01 -2.160071469566696e-01 1.555513206701243e-01 -3.408030142245649e-01 1.034330218735316e-01 -1.289492496553997e-02 1.117073930223414e-01 -2.327040150575973e-02
            1.555205433184879e-01 -3.408551399407854e-01 -3.288905305483066e-01 -2.160415682757109e-01 1.117638822288040e-01 -2.324015797658832e-02 1.034314352525543e-01 -1.283445752760448e-02
373127500.0000000000 1.037160568170715e-01 -2.831822849339923e-02 8.527892302813973e-02 -2.698509505787969e-02 -3.850647771458328e-01 -9.239644927767067e-02 2.835295671842186e-02 -3.733873458414587e-01
            8.528337595808351e-02 -2.694155182962642e-02 1.037546751836201e-01 -2.840594560909508e-02 2.841476303265341e-02 -3.733276012840663e-01 -3.850366893941039e-01 -9.231694926006358e-02
            -3.850220024803000e-01 -9.232367111830198e-02 2.837699862435153e-02 -3.733528065815073e-01 8.714529029873072e-02 -2.347174778307312e-02 9.164453113857336e-02 -3.584907443408121e-02
            2.845662797765183e-02 -3.732886178638627e-01 -3.849586079861099e-01 -9.233597989451579e-02 9.164831511612925e-02 -3.578761635705606e-02 8.716945338284801e-02 -2.329752556621117e-02
373960000.0000000000 8.362028758096868e-02 -2.786952503151834e-02 6.573339358998948e-02 -2.275818399067515e-02 -3.969561671900426e-01 4.491987228293964e-02 -1.030306682684791e-01 -3.589001568486586e-01
            6.582670358014481e-02 -2.260503997338499e-02 8.363064121753656e-02 -2.784263227641740e-02 -1.031094189069300e-01 -3.588346438972342e-01 -3.969222403031430e-01 4.501644876844955e-02
            -3.969749105288075e-01 4.494917796995516e-02 -1.030291607507160e-01 -3.588616146435212e-01 6.723622174054178e-02 -2.038439118734351e-02 6.757425639732549e-02 -3.278073797087482e-02
            -1.030983756675232e-01 -3.589201359084805e-01 -3.969889717591503e-01 4.501639254261615e-02 6.761327431172512e-02 -3.284059149419864e-02 6.740725844598509e-02 -2.034937504343548e-02
374792500.0000000000 6.935852257476578e-02 -1.414239653132814e-02 5.371872593573753e-02 -6.033723311256083e-03 -3.605311443999366e-01 1.808247174213543e-01 -2.205388434249675e-01 -2.982163261495346e-01
            5.371371110049802e-02 -5.988033142727309e-03 6.934716239460824e-02 -1.415129001370407e-02 -2.205468390721253e-01 -2.980799024478000e-01 -3.604660020985485e-01 1.808577052238812e-01
            -3.605977756716977e-01 1.808655596611313e-01 -2.205473742266549e-01 -2.982335132547715e-01 5.409275134722351e-02 -4.121566009769630e-03 5.075193997212389e-02 -1.491091763518335e-02
            -2.204996090016180e-01 -2.982314930679046e-01 -3.605462033952892e-01 1.808144364541867e-01 5.075547049840470e-02 -1.496436841783268e-02 5.404849726443216e-02 -4.220753080111300e-03
375625000.0000000000 6.831561453787563e-02 5.291105111425280e-03 5.582298841520178e-02 1.509792175903064e-02 -2.770588823586773e-01 2.971238064670955e-01 -3.072287779115264e-01 -2.006566149514484e-01
            5.580772998548568e-02 1.505666959470099e-02 6.838537351191569e-02 5.322619909109897e-03 -3.072741261585824e-01 -2.006039954757835e-01 -2.771442139692517e-01 2.971883497009728e-01
            -2.770299260770216e-01 2.971516456304649e-01 -3.072274734060403e-01 -2.006818330689410e-01 5.491751774376467e-02 1.750814619410491e-02 4.933521929581250e-02 9.432392537131387e-03
            -3.071394245995964e-01 -2.007035631083167e-01 -2.770937704221116e-01 2.971951461320372e-01 4.932122917179418e-02 9.401692045461050e-03 5.493446355457934e-02 1.761090203910690e-02
376457500.0000000000 8.082955420055808e-02 1.994999295215742e-02 7.163978692497579e-02 2.989720208441928e-02 -1.566050817790338e-01 3.764956904699696e-01 -3.530491728669188e-01 -8.153779487458353e-02
            7.160986366130574e-02 2.978658041531262e-02 8.070879771628968e-02 1.983991234452204e-02 -3.530679872057204e-01 -8.151890967000024e-02 -1.565080838360740e-01 3.765654040695453e-01
            -1.565415077635776e-01 3.764829274753096e-01 -3.529938085961664e-01 -8.155354018053783e-02 7.004730366643674e-02 3.377086170201027e-02 6.378323116604941e-02 2.845425752398673e-02
            -3.529771453583314e-01 -8.148762173284166e-02 -1.565769337482400e-01 3.765024543928672e-01 6.372311957019230e-02 2.853611407021960e-02 7.009703151999200e-02 3.372913471374295e-02
377290000.0000000000 9.972518966404362e-02 2.227670826986720e-02 9.334764143789885e-02 3.072652494865759e-02 -1.602786038935906e-02 4.075017729168283e-01 -3.555755295409637e-01 4.306281076782342e-02
            9.324015306301345e-02 3.082899307944299e-02 9.971943754904594e-02 2.212723703378164e-02 -3.555779424223924e-01 4.305697136376417e-02 -1.610676502322118e-02 4.074929687630162e-01
            -1.607913721666313e-02 4.073878171403700e-01 -3.555949383836882e-01 4.306888412977797e-02 9.201871215763290e-02 3.644598051636450e-02 8.615332863286353e-02 3.358624903711840e-02
            -3.556091861734846e-01 4.300653240779125e-02 -1.606507767457395e-02 4.075377316817408e-01 8.620944062848927e-02 3.356668620630619e-02 9.205025164228750e-02 3.650173327081877e-02
378122500.0000000000 1.153895364401963e-01 1.117716618080850e-02 1.105773230608740e-01 1.775532558854600e-02 1.248283863665968e-01 3.874987824567329e-01 -3.174993822516621e-01 1.595178789916254e-01
            1.106039039375972e-01 1.773028428308546e-02 1.153824088696638e-01 1.116029937115250e-02 -3.175024201201597e-01 1.594658584628210e-01 1.248250699846562e-01 3.875568865001509e-01
            1.248897440557376e-01 3.875535771334192e-01 -3.174801158309322e-01 1.594494463045017e-01 1.106087012601927e-01 2.484359871820968e-02 1.058516214954081e-01 2.329771423614577e-02
            -3.174779128407056e-01 1.595327833062060e-01 1.248200916695415e-01 3.875579286585688e-01 1.059045761699362e-01 2.324689599693680e-02 1.105701339392198e-01 2.492025104683795e-02
378955000.0000000000 1.201436027532396e-01 -7.603730794039617e-03 1.157071637080032e-01 -3.284721560486908e-03 2.492266901016936e-01 3.217134143485781e-01 -2.437791341712539e-01 2.567854354088325e-01
            1.157609206875261e-01 -3.295200626153461e-03 1.202212918187903e-01 -7.677598436742553e-03 -2.437935694591021e-01 2.566707069580837e-01 2.492305576831037e-01 3.217282187012681e-01
            2.492314239219722e-01 3.217846547595667e-01 -2.437962889120082e-01 2.566568655528723e-01 1.177741969926166e-01 4.526005185574214e-03 1.139964896852301e-01 3.302083072205904e-03
            -2.438417138209809e-01 2.567012106009580e-01 2.492265923768470e-01 3.216973924951390e-01 1.139196499652959e-01 3.315638601634180e-03 1.177828279708149e-01 4.474399386469656e-03
379787500.0000000000 1.114300077988216e-01 -2.555042422516796e-02 1.065081044137670e-01 -2.294943952089062e-02 3.443629902015733e-01 2.189025622593202e-01 -1.412597417480469e-01 3.242316642568667e-01
            1.065782169841901e-01 -2.297129608875823e-02 1.114186592801186e-01 -2.553442165305322e-02 -1.413022209586660e-01 3.241574174685748e-01 3.444513391632934e-01 2.189283644571514e-01
            3.443570361132585e-01 2.188965923990829e-01 -1.412667193499155e-01 3.242706094645285e-01 1.104787610717524e-01 -1.569528106651211e-02 1.073019069442632e-01 -1.676973171936989e-02
            -1.412097703544209e-01 3.242651165345499e-01 3.444099116808286e-01 2.188893992997261e-01 1.072757787555059e-01 -1.677725309503456e-02 1.105712593570577e-01 -1.565768253831929e-02
380620000.0000000000 9.265731339372181e-02 -3.396778923169647e-02 8.699100706693588e-02 -3.233787130007882e-02 4.006756985273092e-01 8.976558341393459e-02 -2.036890502064728e-02 3.528389142180148e-01
            8.699856240473129e-02 -3.238624859731400e-02 9.275553234915181e-02 -3.405027846175211e-02 -2.040316308252030e-02 3.527601506417232e-01 4.006397831568838e-01 8.974392217946787e-02
            4.007487889302579e-01 8.975501899070328e-02 -2.044852920209473e-02 3.528121906291947e-01 9.229920452024165e-02 -2.667132068757514e-02 8.906997157966447e-02 -2.759731542748661e-02
            -2.043736565200936e-02 3.528709107368608e-01 4.007860921595775e-01 8.975131663603790e-02 8.907964741430145e-02 -2.748597096922182e-02 9.220973913501755e-02 -2.660992089738515e-02
381452500.0000000000 7.244503376334614e-02 -2.828936055921100e-02 6.584973129305756e-02 -2.707946317296923e-02 4.108030694362619e-01 -5.307961643704996e-02 1.036338807690467e-01 3.366661651400253e-01
            6.593002315476282e-02 -2.710511937828586e-02 7.241161356953464e-02 -2.832860385873521e-02 1.036967330621771e-01 3.365775019124883e-01 4.109142865860031e-01 -5.305714525199079e-02
            4.108619328314854e-01 -5.306067252348113e-02 1.036925520398376e-01 3.366634366234643e-01 7.127309873955436e-02 -2.315409887487235e-02 6.803823817291452e-02 -2.347246896979098e-02
            1.037160044004577e-01 3.366506715719874e-01 4.109747156919240e-01 -5.312175001689012e-02 6.810122681087367e-02 -2.350921954837903e-02 7.127269524693775e-02 -2.309404459283277e-02
382285000.0000000000 6.044614789587058e-02 -1.045400747083877e-02 5.352917630766454e-02 -9.455068812271070e-03 3.705841994753029e-01 -1.933541729122664e-01 2.133720971159495e-01 2.767452756021129e-01
            5.344649128452375e-02 -9.433891590568918e-03 6.038255122293847e-02 -1.048623867053734e-02 2.133371780950194e-01 2.767724720705425e-01 3.705770778316498e-01 -1.933490240838685e-01
            3.705360887054036e-01 -1.934005817353837e-01 2.133254367436666e-01 2.768035690708665e-01 5.770841203057478e-02 -6.797292658321755e-03 5.487053444840931e-02 -6.201447481044712e-03
            2.133424319062008e-01 2.768316120829482e-01 3.705511373406000e-01 -1.934037805311721e-01 5.493276884306803e-02 -6.113691220366031e-03 5.769364344948438e-02 -6.769894085515067e-03
383117500.0000000000 6.291302754712326e-02 1.099328514512010e-02 5.576175253515320e-02 1.172593950336654e-02 2.819647014489848e-01 -3.122319817577860e-01 2.928900899472245e-01 1.830726465061554e-01
            5.583442284500063e-02 1.168855523377130e-02 6.296409308989073e-02 1.097884063626138e-02 2.928331506554976e-01 1.830877326237313e-01 2.818887232363685e-01 -3.121993725052438e-01
            2.819589045597412e-01 -3.122372276999727e-01 2.928908172584949e-01 1.830914312797265e-01 5.835175506529613e-02 1.414129588950997e-02 5.676870100049189e-02 1.575971645245106e-02
            2.928190931262201e-01 1.831213328656459e-01 2.818933930467240e-01 -3.122169993949169e-01 5.682058429681568e-02 1.573452562433651e-02 5.835215131006785e-02 1.421761059895490e-02
383950000.0000000000 7.875199737336874e-02 2.536636401531397e-02 7.133002191333926e-02 2.549641713964263e-02 1.558631475824922e-01 -3.919292240793735e-01 3.334623456571344e-01 7.012417660082335e-02
            7.131567597862407e-02 2.547398137302012e-02 7.877531490878555e-02 2.537732437663060e-02 3.334857979434593e-01 7.019674543477245e-02 1.559183116453235e-01 -3.919608463720733e-01
            1.559508569384893e-01 -3.918873823957207e-01 3.334967363687571e-01 7.022404611595102e-02 7.232336766880365e-02 2.911716083186023e-02 7.273158738660668e-02 3.085283431698597e-02
            3.334759353302182e-01 7.023720320260057e-02 1.558840614602581e-01 -3.919156630859953e-01 7.268557596229608e-02 3.098017993274117e-02 7.232167429832734e-02 2.910891107571616e-02
384782500.0000000000 9.963521809101905e-02 2.599396286527679e-02 9.141623269800195e-02 2.527282488981411e-02 1.040486268796735e-02 -4.214691656812819e-01 3.335704406182406e-01 -4.693037656540925e-02
            9.141028610133300e-02 2.524776917424678e-02 9.965999343968245e-02 2.601056377366129e-02 3.335726817634298e-01 -4.684442087068150e-02 1.044231986920045e-02 -4.214710930249348e-01
            1.044211040307727e-02 -4.214422737090478e-01 3.335715487200041e-01 -4.691185885186257e-02 9.199414598169937e-02 3.102753346507276e-02 9.457524259975401e-02 3.203704871131968e-02
            3.335350110783471e-01 -4.694177387603172e-02 1.049954744713715e-02 -4.215363935091133e-01 9.461451088666596e-02 3.206172219781842e-02 9.201818846823800e-02 3.110332751100656e-02
385615000.0000000000 1.156463333599113e-01 1.320679416748325e-02 1.059260125690365e-01 1.191865380770060e-02 -1.346796325935747e-01 -3.989471108900373e-01 2.956032800589347e-01 -1.558554554651974e-01
            1.060164330731098e-01 1.192793291969185e-02 1.156856651262083e-01 1.316249911437340e-02 2.956296324059556e-01 -1.558210739124756e-01 -1.346317241353449e-01 -3.989979687703898e-01
            -1.345940116142324e-01 -3.989296648280383e-01 2.956108052783701e-01 -1.557767794509624e-01 1.075535808634983e-01 1.997502854093788e-02 1.117939127320483e-01 1.897963882922795e-02
            2.956409964947142e-01 -1.558065044416737e-01 -1.347020669614813e-01 -3.989518550758731e-01 1.117447264775603e-01 1.890799272987188e-02 1.075862633136215e-01 2.005005925392357e-02
386447500.0000000000 1.195630658365499e-01 -6.683241670399740e-03 1.079443422061484e-01 -7.674987716768737e-03 -2.624914922817039e-01 -3.293039825284043e-01 2.242387414246911e-01 -2.460716969984119e-01
            1.079746662062277e-01 -7.724800853162302e-03 1.195635168022917e-01 -6.573889477284245e-03 2.243663270479190e-01 -2.459789545466483e-01 -2.625011510594495e-01 -3.293288716865318e-01
            -2.624574220158822e-01 -3.293080651724987e-01 2.242405396929553e-01 -2.460593791025698e-01 1.117990092408010e-01 2.049266220245867e-03 1.166035651977835e-01 -1.907272094245774e-03
            2.243219605067275e-01 -2.459601194544925e-01 -2.625049216456812e-01 -3.293345225715648e-01 1.166079965690090e-01 -1.897114840828058e-03 1.118426323330420e-01 1.975210417976484e-03
387280000.0000000000 1.097823450589771e-01 -2.416367141837880e-02 9.635143161775069e-02 -2.402435042926981e-02 -3.598383396379436e-01 -2.215284421552693e-01 1.260657463236007e-01 -3.076341299599350e-01
            9.635151924066582e-02 -2.407387884361270e-02 1.097079127595978e-01 -2.425305058011505e-02 1.261086339421116e-01 -3.075990682168226e-01 -3.597642973784635e-01 -2.215675070053983e-01
            -3.597866467537033e-01 -2.215982834484953e-01 1.261363150926837e-01 -3.075930858647992e-01 1.030326508901724e-01 -1.407878828493811e-02 1.069291445290963e-01 -2.096760679201348e-02
            1.261400012723383e-01 -3.076185630055355e-01 -3.597540831851949e-01 -2.215682786318299e-01 1.069607070462930e-01 -2.093135564652421e-02 1.029973018989292e-01 -1.412336553965119e-02
388112500.0000000000 9.073830178299980e-02 -3.117379796342068e-02 7.600559529857399e-02 -2.886858027336119e-02 -4.164381750324248e-01 -8.650694443034135e-02 1.149670714133616e-02 -3.314850334284460e-01
            7.601871564886456e-02 -2.889140203117241e-02 9.068861078764719e-02 -3.113016935299188e-02 1.141793123243098e-02 -3.315887463727367e-01 -4.164834889501509e-01 -8.649275178981780e-02
            -4.164694510892936e-01 -8.654621188380224e-02 1.141226965831530e-02 -3.315395927399781e-01 8.549250870485028e-02 -2.019159043353297e-02 8.733947796011748e-02 -2.919361731970700e-02
            1.151751954395442e-02 -3.315805034789579e-01 -4.164271737989665e-01 -8.653281937730227e-02 8.724535179318220e-02 -2.921578308321498e-02 8.543643796922697e-02 -2.008512471604721e-02
388945000.0000000000 7.151816494276041e-02 -2.377634738659571e-02 5.680225483684979e-02 -1.872235801789198e-02 -4.243296666829159e-01 6.212455545357276e-02 -1.047275771648640e-01 -3.128087482652986e-01
            5.678670095098504e-02 -1.871347642250780e-02 7.155786292361341e-02 -2.375873411556831e-02 -1.046877294671813e-01 -3.127855689734988e-01 -4.244066318952066e-01 6.208216331118530e-02
            -4.244146064669791e-01 6.206980464423080e-02 -1.047061171695790e-01 -3.128389783446412e-01 6.801139786993748e-02 -1.236827435889855e-02 6.681176880120733e-02 -2.245456228003242e-02
            -1.046724260598407e-01 -3.128539398748702e-01 -4.244133203789338e-01 6.210721594658634e-02 6.696177402582222e-02 -2.241351686770333e-02 6.801489205215074e-02 -1.242525236777400e-02
389777500.0000000000 6.203781893541110e-02 -5.124382406787560e-03 4.860168539779919e-02 2.389222704303896e-03 -3.794268885392366e-01 2.068951073437607e-01 -2.053927534946762e-01 -2.537279190520750e-01
            4.853507868063494e-02 2.349072668572344e-03 6.204441251061917e-02 -5.101223417602672e-03 -2.053830294436610e-01 -2.536956698443805e-01 -3.794676654469054e-01 2.068713677396105e-01
            -3.794033848364407e-01 2.068364831788747e-01 -2.053944080692060e-01 -2.536278405097082e-01 5.993772611505283e-02 5.942365147258382e-03 5.617190923907683e-02 -3.536275099458659e-03
            -2.054410435179604e-01 -2.537314980331577e-01 -3.794462601109456e-01 2.068522528861644e-01 5.612273964856851e-02 -3.456423231204875e-03 5.997109353208921e-02 5.873641412262300e-03
390610000.0000000000 6.748485681775154e-02 1.516122413030200e-02 5.630487978635941e-02 2.434533859993479e-02 -2.847982886231692e-01 3.275740021686782e-01 -2.767231645557487e-01 -1.643856861212278e-01
            5.620250148522615e-02 2.432980249525488e-02 6.744765011231829e-02 1.516029575825822e-02 -2.767371784509630e-01 -1.644006137807272e-01 -2.848601931557174e-01 3.275905118485033e-01
            -2.848353022336474e-01 3.275349478576193e-01 -2.766965074683725e-01 -1.642780734065508e-01 6.657654223710910e-02 2.559719443071143e-02 6.079886550123367e-02 1.776063391541107e-02
            -2.767425292611570e-01 -1.643799412120885e-01 -2.848543967856491e-01 3.275327532645030e-01 6.086974169527987e-02 1.774443846455075e-02 6.652697806333061e-02 2.560882988619551e-02
391442500.0000000000 8.500555905439809e-02 2.681175455602874e-02 7.655742986338562e-02 3.626459965545895e-02 -1.531331504906033e-01 4.064355349445888e-01 -3.115930277812790e-01 -5.891784963811630e-02
            7.650586447195358e-02 3.629354322304144e-02 8.496049257650665e-02 2.687022136091333e-02 -3.115774476402209e-01 -5.886745522644171e-02 -1.531043808981676e-01 4.065090388568279e-01
            -1.531587400013629e-01 4.063958925234751e-01 -3.116111310187744e-01 -5.886950620189605e-02 8.483469795601638e-02 3.641447321739898e-02 7.851222013677765e-02 3.056982827858577e-02
            -3.116155577125884e-01 -5.891500472977953e-02 -1.530548120283511e-01 4.065319562480837e-01 7.853885184439098e-02 3.060864797679013e-02 8.488331220678828e-02 3.642501246467834e-02
392275000.0000000000 1.058118094159927e-01 2.431530591558898e-02 9.966385933425007e-02 3.283686178596436e-02 -3.266712932568474e-03 4.334578348956734e-01 -3.094740575945960e-01 4.936592720707147e-02
            9.964286965042179e-02 3.272737462480677e-02 1.058225800017142e-01 2.425495217564232e-02 -3.094395603855090e-01 4.933065505468774e-02 -3.206110684349584e-03 4.335416877690712e-01
            -3.282588058254244e-03 4.335717682224806e-01 -3.094676022860288e-01 4.944745354649833e-02 1.060505608485873e-01 3.299580041286070e-02 1.003558491227226e-01 2.885477137526588e-02
            -3.095343568254154e-01 4.933572193315744e-02 -3.161421266385015e-03 4.335139901843414e-01 1.002588516326783e-01 2.879054955386235e-02 1.061046502483015e-01 3.299033895397821e-02
393107500.0000000000 1.201487832296855e-01 8.991391031291566e-03 1.153322190486529e-01 1.564953154134815e-02 1.449439702202838e-01 4.075950785397727e-01 -2.727621535327138e-01 1.497918362698084e-01
            1.153574973941253e-01 1.568990172336062e-02 1.201146519549552e-01 9.043236502405686e-03 -2.727896608250425e-01 1.497308157253106e-01 1.449688017955374e-01 4.076258218429611e-01
            1.449305923288034e-01 4.076211890585074e-01 -2.728330034568762e-01 1.497584178357770e-01 1.204795655485621e-01 1.706231751060141e-02 1.158633891712873e-01 1.355303787257244e-02
            -2.727888913001933e-01 1.497790442059451e-01 1.449871338380450e-01 4.076239912117647e-01 1.159090111821943e-01 1.367213371040235e-02 1.205035074252221e-01 1.700391228369780e-02
393940000.0000000000 1.216049212470990e-01 -1.194513832479860e-02 1.168379915834061e-01 -7.136540283148987e-03 2.746636305598839e-01 3.341331372292650e-01 -2.052883118293235e-01 2.328265591245628e-01
            1.168395616836410e-01 -7.080601446561413e-03 1.216204884168887e-01 -1.197977403107586e-02 -2.053028846664436e-01 2.328345390859942e-01 2.746243221495813e-01 3.341978883977044e-01
            2.746630347568303e-01 3.341954218424904e-01 -2.052992480867009e-01 2.327116015223774e-01 1.219170405171232e-01 -4.401395613384550e-03 1.183803503555402e-01 -8.010211417488890e-03
            -2.053497695512279e-01 2.328057091788912e-01 2.746327204253404e-01 3.341225451837684e-01 1.183688318580758e-01 -7.935002010936068e-03 1.218788031009188e-01 -4.338135634160806e-03
394772500.0000000000 1.095750430824211e-01 -2.944222277378509e-02 1.038950980738266e-01 -2.556566581273199e-02 3.727476862180464e-01 2.222797030427359e-01 -1.128610555453634e-01 2.889900941521479e-01
            1.039865617727583e-01 -2.555343586779555e-02 1.094986229421032e-01 -2.940132951285355e-02 -1.128468224820287e-01 2.890548174129850e-01 3.728475748740664e-01 2.223348866208809e-01
            3.727884357510907e-01 2.222530735613986e-01 -1.128042829921747e-01 2.890101126119250e-01 1.096608462455298e-01 -2.192882681483112e-02 1.068758399252457e-01 -2.640233567751998e-02
            -1.129087201991614e-01 2.890816612293668e-01 3.727797273522950e-01 2.222501594796792e-01 1.068351246976225e-01 -2.639640163777937e-02 1.096653660575069e-01 -2.193073089235378e-02
395605000.0000000000 8.900722304005088e-02 -3.523322153966908e-02 8.232281381559817e-02 -3.152255365529131e-02 4.289595401692211e-01 8.300102281652076e-02 -5.208095220268625e-03 3.098249469039208e-01
            8.229358038786427e-02 -3.148221571351068e-02 8.903095637175427e-02 -3.524391019841636e-02 -5.116568224188634e-03 3.098358474135523e-01 4.289287629498489e-01 8.299781278927616e-02
            4.289919243195082e-01 8.295587334076183e-02 -5.115512531537934e-03 3.098159114634569e-01 8.906676380490840e-02 -2.781623724757601e-02 8.617003776615950e-02 -3.337996104955868e-02
            -5.164449698505894e-03 3.098079205401147e-01 4.290012318869629e-01 8.304754185329365e-02 8.612039715609207e-02 -3.340698231131745e-02 8.903728173540461e-02 -2.781410550790507e-02
396437500.0000000000 6.948506323003142e-02 -2.661050355614106e-02 6.226573056613587e-02 -2.194874813241301e-02 4.350104838784195e-01 -6.971262306295424e-02 1.033882720277379e-01 2.902307170695382e-01
            6.226003489343067e-02 -2.195433613974758e-02 6.944426750049512e-02 -2.663704739345264e-02 1.033463180752170e-01 2.902102352451598e-01 4.349460704051361e-01 -6.970175389113807e-02
            4.350346802573584e-01 -6.980143241875748e-02 1.034169334314863e-01 2.902556896319805e-01 6.937079274170771e-02 -1.893050946899011e-02 6.593537975489171e-02 -2.529256992270915e-02
            1.033148891383067e-01 2.902452162956435e-01 4.350688767444168e-01 -6.974000981813740e-02 6.591654216506397e-02 -2.529134286105822e-02 6.939325907847160e-02 -1.894732938707072e-02
397270000.0000000000 6.024916170422486e-02 -7.372571170365835e-03 5.373853955263470e-02 -1.641588045229548e-03 3.868541184724585e-01 -2.175288507617160e-01 1.964936665024656e-01 2.330138300648589e-01
            5.367204122424622e-02 -1.644498853231965e-03 6.023498615581502e-02 -7.365973826850216e-03 1.965006768231159e-01 2.329496944142591e-01 3.868009720978664e-01 -2.176221081746625e-01
            3.867840450982645e-01 -2.176544948283722e-01 1.964788671452374e-01 2.329682725702325e-01 6.026013860763938e-02 6.642394338153241e-04 5.630178358059405e-02 -6.102106361955245e-03
            1.965107225242015e-01 2.329163336425275e-01 3.867382336849782e-01 -2.176050182111732e-01 5.624917789366150e-02 -6.029274232887501e-03 6.033662344050421e-02 7.031682731111552e-04
398102500.0000000000 6.586260731084241e-02 1.265542619167451e-02 6.105548761646092e-02 1.906388718844523e-02 2.880608684333747e-01 -3.400456255422626e-01 2.612551444818071e-01 1.477909777742439e-01
            6.107263316209190e-02 1.900856825492739e-02 6.588827068554043e-02 1.267009404912414e-02 2.611945232433441e-01 1.478100732928865e-01 2.881373945590597e-01 -3.401319423225416e-01
            2.880602304982480e-01 -3.401573460957016e-01 2.611797087628432e-01 1.479275026667478e-01 6.646964949844546e-02 2.135534156677554e-02 6.178115264684723e-02 1.445547375144926e-02
            2.612678713004621e-01 1.478943876519425e-01 2.880788887685274e-01 -3.400907349281289e-01 6.175234317542622e-02 1.440789689100337e-02 6.644897222858227e-02 2.138996875001506e-02
398935000.0000000000 8.301652580287766e-02 2.365097314960293e-02 8.020568835135379e-02 2.923254072143657e-02 1.519547953142337e-01 -4.192855503016852e-01 2.915689610607849e-01 4.865933651855663e-02
            8.025189315396364e-02 2.923208552587507e-02 8.298596148174875e-02 2.370552660965239e-02 2.915499416357715e-01 4.866563632895588e-02 1.519778882530945e-01 -4.194023190600978e-01
            1.519027228101466e-01 -4.193149385043429e-01 2.916225206520940e-01 4.869268429068666e-02 8.428325561411164e-02 3.291667092898524e-02 7.926658954730399e-02 2.569061237984634e-02
            2.915211078985444e-01 4.867215000883616e-02 1.519652269324581e-01 -4.193017093674057e-01 7.919617265478250e-02 2.565647978817970e-02 8.431988053016604e-02 3.284554607386427e-02
399767500.0000000000 1.024418277017003e-01 2.062333036913189e-02 1.014167272295174e-01 2.410151815244990e-02 -2.054257586272498e-03 -4.452585576809354e-01 2.872676535071560e-01 -5.225361159043892e-02
            1.013719087842888e-01 2.410893701787552e-02 1.023727556882087e-01 2.064411256153964e-02 2.872240606912474e-01 -5.229163850715661e-02 -2.123754477817211e-03 -4.452168507015419e-01
            -2.141984400833055e-03 -4.452580307688916e-01 2.872590249542973e-01 -5.226262294048483e-02 1.047777142155117e-01 3.022878670996325e-02 9.961893779973760e-02 2.245806083479301e-02
            2.872199256750286e-01 -5.231375428168759e-02 -2.093829865439919e-03 -4.452530327926812e-01 9.952338419855218e-02 2.243005508345378e-02 1.047511696308142e-01 3.022826798694541e-02
400600000.0000000000 1.146766137830337e-01 5.917686991172183e-03 1.140672872002158e-01 6.100939707051167e-03 -1.539983753736247e-01 -4.169362543916225e-01 2.508667142351422e-01 -1.451772347517127e-01
            1.140321187999894e-01 6.154930236538068e-03 1.146357523153148e-01 5.943625085192112e-03 2.507949744279835e-01 -1.452338380760863e-01 -1.540073632523059e-01 -4.169286030249852e-01
            -1.540420403916702e-01 -4.169068392968266e-01 2.508465826787305e-01 -1.451343733024031e-01 1.185298325051591e-01 1.558657658843346e-02 1.127612219517429e-01 6.859999149277002e-03
            2.508101453381852e-01 -1.451397476010185e-01 -1.539809554466741e-01 -4.169761848369973e-01 1.127245275180168e-01 6.865764401284192e-03 1.185675881939383e-01 1.555032667698884e-02
401432500.0000000000 1.143120970359850e-01 -1.311806241341292e-02 1.122588072466181e-01 -1.609772969245317e-02 -2.865016972633065e-01 -3.400382348248046e-01 1.858860850661916e-01 -2.211524980275024e-01
            1.122727608019770e-01 -1.616533142686636e-02 1.142651634145296e-01 -1.313016370015043e-02 1.859593967018934e-01 -2.211719507649683e-01 -2.865826377928627e-01 -3.400710694136206e-01
            -2.866167789047931e-01 -3.400657734493270e-01 1.858418671031367e-01 -2.211980479745515e-01 1.197939616597462e-01 -3.906254305130418e-03 1.127884302834835e-01 -1.366725538366112e-02
            1.859537509969278e-01 -2.211021586557743e-01 -2.866080418507452e-01 -3.399791805531994e-01 1.127850218437453e-01 -1.363955521761348e-02 1.198389287018135e-01 -3.845996350424894e-03
402265000.0000000000 1.014492406024904e-01 -2.742811356122551e-02 9.632352631477571e-02 -3.275427292969763e-02 -3.863740637222719e-01 -2.234722149120186e-01 9.813251052469138e-02 -2.712670110712267e-01
            9.645977994466823e-02 -3.270118580639429e-02 1.014911074696570e-01 -2.739236796853021e-02 9.815906390937447e-02 -2.713128347719375e-01 -3.864114497759659e-01 -2.235366347985178e-01
            -3.863481088160758e-01 -2.234794201756417e-01 9.808941225189724e-02 -2.712457238307884e-01 1.086924145217069e-01 -1.907244193912208e-02 9.958563317501702e-02 -2.958262266436630e-02
            9.810902405589758e-02 -2.712982265297402e-01 -3.863334543217891e-01 -2.235059622039424e-01 9.954969394393946e-02 -2.963073899395317e-02 1.086399190120593e-01 -1.905831244335241e-02
403097500.0000000000 8.186032301627370e-02 -2.990893873395209e-02 7.290516079946416e-02 -3.558150293757946e-02 -4.422915242538947e-01 -7.902974178592734e-02 -2.720885936886187e-03 -2.875486379827996e-01
            7.289559855617260e-02 -3.558817148437389e-02 8.190019578649967e-02 -2.991310703039577e-02 -2.732559950699959e-03 -2.875853356116008e-01 -4.422573724887610e-01 -7.906224473969245e-02
            -4.421650677311461e-01 -7.907809260210329e-02 -2.776960679792898e-03 -2.874900887085637e-01 9.077496834568519e-02 -2.301649247432948e-02 7.888507463992318e-02 -3.339076234688793e-02
            -2.766866706189453e-03 -2.875181688544180e-01 -4.422338198966143e-01 -7.902432115852327e-02 7.897084278313081e-02 -3.345423833344043e-02 9.073010452005824e-02 -2.300484062387122e-02
403930000.0000000000 6.510454744038065e-02 -1.849148085441557e-02 5.230922253829097e-02 -2.270551449033246e-02 -4.457619589412909e-01 7.843482719042770e-02 -1.028525975879931e-01 -2.660436757854661e-01
            5.231205638706969e-02 -2.269942547589763e-02 6.514171132934352e-02 -1.858467300619862e-02 -1.028952211899153e-01 -2.661107491489373e-01 -4.457503937671126e-01 7.836279138842073e-02
            -4.457848837001903e-01 7.848519340516288e-02 -1.028766411079842e-01 -2.661348472013652e-01 7.520511801483638e-02 -1.373281512436989e-02 6.061206715234744e-02 -2.280384255935646e-02
            -1.029065181392443e-01 -2.661341154303800e-01 -4.458034796797378e-01 7.849246713348450e-02 6.058216946849771e-02 -2.283269614551846e-02 7.517013062484715e-02 -1.382978971765662e-02
404762500.0000000000 5.987793157991624e-02 1.516275790898141e-03 4.462028361631876e-02 5.214619866883545e-04 -3.933636861497119e-01 2.294701146785509e-01 -1.871477207027536e-01 -2.102839228137579e-01
            4.463957768521839e-02 5.328097322527786e-04 5.991132149765367e-02 1.458020503305291e-03 -1.872116841691911e-01 -2.102632779466884e-01 -3.932678656483191e-01 2.295036062585451e-01
            -3.933138926849465e-01 2.295299382233357e-01 -1.871770923585016e-01 -2.103049106457944e-01 7.032556006411700e-02 3.633600852723609e-03 5.381894474945387e-02 -2.895563426455469e-03
            -1.871548928179703e-01 -2.102485896794212e-01 -3.933725470257148e-01 2.294756342885803e-01 5.378907147651405e-02 -2.944468773985282e-03 7.030496346817262e-02 3.661253954496646e-03
405595000.0000000000 6.921125970601048e-02 2.020908456938285e-02 5.354363743972791e-02 2.305688804432759e-02 -2.896871723358561e-01 3.530672602946980e-01 -2.443548412059042e-01 -1.301683727901407e-01
            5.355818235629468e-02 2.309449842898730e-02 6.928615684561869e-02 2.016733922512847e-02 -2.443065422760428e-01 -1.302389830049512e-01 -2.896888448236877e-01 3.530906766565066e-01
            -2.896334624421586e-01 3.530650072059527e-01 -2.443968396415834e-01 -1.302445325235984e-01 7.920286659072351e-02 1.954123267224539e-02 6.173863192989502e-02 1.626222944618630e-02
            -2.443473129983074e-01 -1.301363332340268e-01 -2.896776754192442e-01 3.530106006593504e-01 6.186905306305993e-02 1.618710364827878e-02 7.926089466038382e-02 1.955431789241726e-02
406427500.0000000000 8.853053634205134e-02 2.816639341474326e-02 7.415814353048635e-02 3.445200026465507e-02 -1.491653744456446e-01 4.315369837624063e-01 -2.696765958989046e-01 -3.830838266557843e-02
            7.416684986377951e-02 3.447455602776640e-02 8.860469537393520e-02 2.822510827785197e-02 -2.696818807515270e-01 -3.830252397733333e-02 -1.491319367754968e-01 4.314438550437438e-01
            -1.491693685576499e-01 4.315064742820238e-01 -2.696883287659708e-01 -3.834923073064665e-02 9.705049731072361e-02 2.522522385570595e-02 8.026580470268510e-02 2.497456098292071e-02
            -2.696823702491502e-01 -3.832802042643713e-02 -1.490845329706824e-01 4.314568921077820e-01 8.030989425635340e-02 2.492468173507493e-02 9.701173013883485e-02 2.511563531400695e-02
407260000.0000000000 1.082418783444293e-01 2.196167307739452e-02 9.637200300816233e-02 3.017906169648103e-02 8.530639920430341e-03 4.554438033254389e-01 -2.634689435069658e-01 5.439613165551624e-02
            9.636724900623436e-02 3.023754507186020e-02 1.082015167600929e-01 2.197988534027243e-02 -2.635506283238661e-01 5.440156869445948e-02 8.532078809525830e-03 4.555178398569334e-01
            8.574320635529303e-03 4.555527494446549e-01 -2.634590356153571e-01 5.436511090294684e-02 1.145796703505227e-01 1.719143272164335e-02 9.961564521776659e-02 1.936970499600990e-02
            -2.634949356248680e-01 5.437549515837471e-02 8.598934592696101e-03 4.555022288442594e-01 9.962662912284856e-02 1.937102687722964e-02 1.144833560299437e-01 1.715963366885542e-02
408092500.0000000000 1.193464072838166e-01 4.905386739425868e-03 1.103481063353455e-01 1.350755346382310e-02 1.632573364735474e-01 4.245717906520420e-01 -2.280676968536913e-01 1.391412755731069e-01
            1.102904044478130e-01 1.338751309805461e-02 1.194180628814197e-01 4.965226400418580e-03 -2.280133810674501e-01 1.392177584632933e-01 1.633281775204939e-01 4.245247670348250e-01
            1.632647222284388e-01 4.244790358929071e-01 -2.280850162632219e-01 1.391705017711208e-01 1.230247257884486e-01 -7.223295944610766e-04 1.105508059654281e-01 2.542549337403493e-03
            -2.280868764727123e-01 1.390877624707738e-01 1.632607822417077e-01 4.245761070063087e-01 1.106241906718169e-01 2.532151738734572e-03 1.230200272479666e-01 -6.391463707384071e-04
408925000.0000000000 1.172218057707808e-01 -1.516346725944475e-02 1.102426031006789e-01 -7.611980793356564e-03 2.977997125115596e-01 3.441783574889474e-01 -1.665608353666539e-01 2.079806227257869e-01
            1.102029090094278e-01 -7.695184944503611e-03 1.172844579509691e-01 -1.515294160367633e-02 -1.665436884376836e-01 2.080130784284607e-01 2.978306363918176e-01 3.442062437188093e-01
            2.978867930543760e-01 3.441886020158663e-01 -1.665606194172120e-01 2.079428981333297e-01 1.183067801064866e-01 -2.052753350796956e-02 1.082100340484629e-01 -1.758349567584507e-02
            -1.665757187831771e-01 2.079962592541070e-01 2.978237599666451e-01 3.442054538716212e-01 1.081346118487933e-01 -1.764198105405793e-02 1.183142532786335e-01 -2.057898031575464e-02
409757500.0000000000 1.030568244707257e-01 -2.942833376174126e-02 9.676950301446612e-02 -2.331849595700723e-02 3.985241306828414e-01 2.235911148970520e-01 -8.428898917568993e-02 2.523846457533775e-01
            9.677286471015285e-02 -2.339499921150310e-02 1.031251536773275e-01 -2.945778536478564e-02 -8.420976879065242e-02 2.523314357227407e-01 3.985941593990923e-01 2.236005456266118e-01
            3.985293150599914e-01 2.236089647662506e-01 -8.427524047688958e-02 2.523442282899650e-01 1.018320195104030e-01 -3.355324362425195e-02 9.310695052731120e-02 -3.182754816137244e-02
            -8.429829020983967e-02 2.523736961022445e-01 3.985267624200578e-01 2.234971371961924e-01 9.304291991969962e-02 -3.194608780954594e-02 1.019123037601299e-01 -3.355449782545003e-02
410590000.0000000000 8.319186120580475e-02 -3.138619589470916e-02 7.651404313545558e-02 -2.637377633108208e-02 4.538456367106207e-01 7.462691624011764e-02 9.523308183685228e-03 2.649021349386093e-01
            7.647054958077876e-02 -2.635165574226687e-02 8.327020780174134e-02 -3.130472223848185e-02 9.511494487663004e-03 2.647852998744042e-01 4.537812409591385e-01 7.463206617658844e-02
            4.537443673007345e-01 7.473375919272081e-02 9.448596123894296e-03 2.648227668557547e-01 8.037693359627589e-02 -3.336834136477710e-02 7.202137457753234e-02 -3.345950764308198e-02
            9.497985704194056e-03 2.648347578237865e-01 4.538503850702643e-01 7.467092979814387e-02 7.200076365305404e-02 -3.337051655939501e-02 8.035824155784549e-02 -3.356191572758128e-02
411422500.0000000000 6.701568041374663e-02 -2.007294770537462e-02 5.930310823040000e-02 -1.513238461515662e-02 4.550071545838356e-01 -8.667143497468570e-02 1.013822784219900e-01 2.422570525338656e-01
            5.933144288444795e-02 -1.508418534299784e-02 6.708472203535396e-02 -2.005973486770782e-02 1.014460540300493e-01 2.422582276647512e-01 4.549533782210050e-01 -8.662047469796044e-02
            4.549068985376846e-01 -8.663432192427409e-02 1.012828542689703e-01 2.423194752553402e-01 6.360439539233317e-02 -1.978387808590300e-02 5.449649847605017e-02 -2.096124047355846e-02
            1.013694613302944e-01 2.422694506149550e-01 4.549642324959428e-01 -8.663762126358060e-02 5.456673585474836e-02 -2.097118599128251e-02 6.366381510013366e-02 -1.973636445026822e-02
412255000.0000000000 6.222511065680207e-02 -1.344082705828893e-03 5.399483874622237e-02 4.602396849173816e-03 3.988982959516529e-01 -2.402596872487508e-01 1.773686794153470e-01 1.884737635221331e-01
            5.406068992357945e-02 4.635810011711543e-03 6.232584696323352e-02 -1.280465896029885e-03 1.773152491968348e-01 1.884958540813546e-01 3.987519469936582e-01 -2.402798798664505e-01
            3.988431840036087e-01 -2.402876215265843e-01 1.772709208892558e-01 1.884260347274466e-01 5.969377553189623e-02 1.369493850466252e-03 4.934584615613196e-02 -5.814067513468006e-04
            1.772963567739197e-01 1.884703274408081e-01 3.987567418548078e-01 -2.403377418838076e-01 4.931868855141002e-02 -4.874048829692237e-04 5.968152951820206e-02 1.362198596487169e-03
413087500.0000000000 7.110035203244008e-02 1.511684336014655e-02 6.322793719108986e-02 2.284338708601224e-02 2.911042403882216e-01 -3.647367503304298e-01 2.276561844425301e-01 1.132781823004240e-01
            6.324108984131213e-02 2.276078854250449e-02 7.120576564167209e-02 1.508321919099486e-02 2.277129880474054e-01 1.132773509498642e-01 2.911362667779961e-01 -3.647867879373574e-01
            2.910845254769741e-01 -3.647682086016730e-01 2.276449103661942e-01 1.133371901352141e-01 7.019170802482246e-02 1.955602231375685e-02 5.842473172405565e-02 1.782726060882892e-02
            2.276175825378014e-01 1.132369286607143e-01 2.911361191601581e-01 -3.648708996753458e-01 5.823816925249601e-02 1.776094189290455e-02 7.016539760186194e-02 1.945391174225835e-02
413920000.0000000000 8.799444129194044e-02 2.101471683195344e-02 8.183733799180874e-02 3.015592995393096e-02 1.467437631437629e-01 -4.428070809088077e-01 2.484110339708338e-01 2.818651785954961e-02
            8.186442558648604e-02 3.012919842594864e-02 8.801172893995053e-02 2.104265093413625e-02 2.485349751714405e-01 2.811914955534265e-02 1.467347768510014e-01 -4.428911127861747e-01
            1.467078933387886e-01 -4.428291568143092e-01 2.484343784337285e-01 2.819531489275567e-02 8.934816089781902e-02 2.606384163366341e-02 7.643239865336379e-02 2.515516756146424e-02
            2.484756689441867e-01 2.812673487057055e-02 1.466736478061322e-01 -4.428817820118303e-01 7.642737903254004e-02 2.509541323119027e-02 8.937200168354129e-02 2.603464323717040e-02
414752500.0000000000 1.037257377167548e-01 1.408406480499591e-02 1.003426575221455e-01 2.361518358181584e-02 -1.453990412283702e-02 -4.655386753207576e-01 2.402039170419047e-01 -5.693052652631320e-02
            1.003214195345467e-01 2.366379032614188e-02 1.038971180726505e-01 1.400665373227109e-02 2.402689930183556e-01 -5.690211652285343e-02 -1.448490121932387e-02 -4.655556971837571e-01
            -1.453857783264835e-02 -4.655249726769167e-01 2.403059044667170e-01 -5.690171354170419e-02 1.075167557040808e-01 1.866744648163495e-02 9.387684158303045e-02 1.888771284309964e-02
            2.402400792428642e-01 -5.694559057110896e-02 -1.458181208032733e-02 -4.654570974417478e-01 9.380626273650863e-02 1.885710176898813e-02 1.075132465073813e-01 1.860055458242759e-02
415585000.0000000000 1.104429444670641e-01 -1.508421195101991e-03 1.099255280013581e-01 6.906899020876738e-03 -1.724988812579547e-01 -4.322049327559786e-01 2.051567701950619e-01 -1.340273100501106e-01
            1.099651661130476e-01 6.980407839114668e-03 1.104487489754223e-01 -1.547980626574377e-03 2.052239181500009e-01 -1.340401346231921e-01 -1.724604924999655e-01 -4.322328652943653e-01
            -1.725032683210063e-01 -4.322010447521083e-01 2.052124576680522e-01 -1.340286926384440e-01 1.160710232629791e-01 1.528056341880004e-03 1.019797924695664e-01 3.066318877368386e-03
            2.051372998522688e-01 -1.340644217463978e-01 -1.724834827086706e-01 -4.322419578503150e-01 1.021018831224789e-01 3.014057420095800e-03 1.160620891860556e-01 1.640599124661383e-03
416417500.0000000000 1.047259509231008e-01 -1.759759850686464e-02 1.063668345830404e-01 -1.172008729191018e-02 -3.097532309218937e-01 -3.483941055677833e-01 1.461364103906997e-01 -1.954287837616271e-01
            1.064007388693831e-01 -1.173741287795477e-02 1.047111856353678e-01 -1.762413807189760e-02 1.461889862367295e-01 -1.954531802965268e-01 -3.096374523723538e-01 -3.483722493181561e-01
            -3.096959099430373e-01 -3.483714092495372e-01 1.461497390319500e-01 -1.955589148206548e-01 1.113565119806068e-01 -1.672615817253459e-02 9.719115821245597e-02 -1.408440967339686e-02
            1.461714295982687e-01 -1.954304749992995e-01 -3.096827518998972e-01 -3.483385727175143e-01 9.713358661648241e-02 -1.413101936797560e-02 1.113498209080460e-01 -1.670485182968434e-02
417250000.0000000000 8.908799132653719e-02 -2.595601412452263e-02 9.142313865770513e-02 -2.341946442769769e-02 -4.116767281299284e-01 -2.229009430328597e-01 6.877830609825406e-02 -2.330343104895327e-01
            9.147564108907227e-02 -2.345763506610780e-02 8.913351892505190e-02 -2.584652921874800e-02 6.873580228721347e-02 -2.331882690881697e-01 -4.115438036727707e-01 -2.229928086442771e-01
            -4.116232479284541e-01 -2.229822725625947e-01 6.876267784869894e-02 -2.330555860680603e-01 9.571230718623668e-02 -2.742586830001378e-02 8.137641597794930e-02 -2.366451211996182e-02
            6.873672234960483e-02 -2.330722698809427e-01 -4.116220416038159e-01 -2.230127261549301e-01 8.144434372590828e-02 -2.359974381552800e-02 9.560314361317830e-02 -2.742301549354117e-02
418082500.0000000000 7.119641094672392e-02 -2.132485414387417e-02 7.244184276372570e-02 -2.224337451225679e-02 -4.658638165163936e-01 -6.867288147942342e-02 -1.755366338277556e-02 -2.404865085900100e-01
            7.246691075644583e-02 -2.230918743221399e-02 7.116034333507995e-02 -2.135662289361744e-02 -1.757226817466721e-02 -2.404923500137262e-01 -4.658810459767923e-01 -6.872949683578974e-02
            -4.659177556122835e-01 -6.864461173573819e-02 -1.760425640204428e-02 -2.405402897099964e-01 7.661130188311219e-02 -2.491913814601864e-02 6.214385353829069e-02 -1.984845541544941e-02
            -1.760855685386154e-02 -2.405082320028331e-01 -4.658812642422056e-01 -6.874640945636522e-02 6.218791477511947e-02 -1.989716019145389e-02 7.657175512169201e-02 -2.482489919638243e-02
418915000.0000000000 6.013047779462399e-02 -5.139618912812258e-03 5.906771984906576e-02 -8.563544290886418e-03 -4.633910710318169e-01 9.707972509379724e-02 -9.983815826247754e-02 -2.158755051596385e-01
            5.907323713164256e-02 -8.515248039611593e-03 6.013359431617370e-02 -5.083405642933057e-03 -9.989500986941388e-02 -2.158839554498062e-01 -4.634562075730559e-01 9.702178358681696e-02
            -4.634343176115059e-01 9.713886727492882e-02 -9.985465018255474e-02 -2.159146062973989e-01 6.367988601450415e-02 -1.001008822324123e-02 4.943276880529628e-02 -3.293906202269401e-03
            -9.979315630646377e-02 -2.158721196554899e-01 -4.633919954042574e-01 9.708986337742272e-02 4.954844909117741e-02 -3.287645403545652e-03 6.385958498594112e-02 -9.989172742071294e-03
419747500.0000000000 6.278804666016775e-02 1.508961416165909e-02 5.846413744961317e-02 1.088360737394652e-02 -4.020930997958051e-01 2.529242347000556e-01 -1.658982885274999e-01 -1.643478649332084e-01
            5.840847112730498e-02 1.089272880420837e-02 6.278703212718192e-02 1.515179263031276e-02 -1.658748957556278e-01 -1.642455686829185e-01 -4.021186873535955e-01 2.528529640869100e-01
            -4.020949614859212e-01 2.528824386219403e-01 -1.658336628278940e-01 -1.642601605332888e-01 6.423545396216283e-02 1.001433716860966e-02 5.069437101494625e-02 1.861806604420112e-02
            -1.658453157782946e-01 -1.642295856678274e-01 -4.021446496833553e-01 2.528081657988778e-01 5.057469027512126e-02 1.863840748356667e-02 6.421759120871415e-02 1.001452486825919e-02
420580000.0000000000 7.842938502538446e-02 2.913727754752765e-02 7.115890273051512e-02 2.573999949971474e-02 -2.891770575514789e-01 3.768247773668537e-01 -2.078701080382827e-01 -9.529005218577830e-02
            7.115246418703725e-02 2.569938715434775e-02 7.842137582006442e-02 2.921680381375638e-02 -2.079174647430815e-01 -9.531678470703837e-02 -2.891812465505549e-01 3.767737118554042e-01
            -2.892386234397288e-01 3.767056938730884e-01 -2.078811568662760e-01 -9.526894734315997e-02 7.789408733701914e-02 2.489396617654062e-02 6.583160587621099e-02 3.542752533977876e-02
            -2.078472450733014e-01 -9.530294251539152e-02 -2.892016233463726e-01 3.768543822069145e-01 6.580292203924394e-02 3.539105693711801e-02 7.796050391566076e-02 2.478684742767553e-02
421412500.0000000000 9.985384870342616e-02 2.994266417567763e-02 9.046445875993839e-02 2.834092585482041e-02 -1.409371968484894e-01 4.524790647038701e-01 -2.238881780001505e-01 -1.893748459880663e-02
            9.042085447177400e-02 2.832204860721120e-02 9.982858891561737e-02 2.985762880268137e-02 -2.239104918453257e-01 -1.906945033149602e-02 -1.409240098135304e-01 4.523900874101476e-01
            -1.409454824812867e-01 4.524908319868860e-01 -2.239391132942573e-01 -1.888610080117928e-02 9.796571953715320e-02 2.710302108469100e-02 8.809016799598979e-02 3.914004347362916e-02
            -2.239082523615137e-01 -1.894759169084878e-02 -1.409021521018267e-01 4.524953442253023e-01 8.810643281910632e-02 3.919893504138736e-02 9.807016591187105e-02 2.704936197600146e-02
422245000.0000000000 1.170598875770458e-01 1.675661008196315e-02 1.068724804244337e-01 1.775423993961917e-02 2.256113603747407e-02 4.720597764516510e-01 -2.147955443903672e-01 5.668368050310381e-02
            1.068931626562129e-01 1.774513675750694e-02 1.171146041640982e-01 1.675430960562509e-02 -2.147661420582385e-01 5.673621344005209e-02 2.248119366993708e-02 4.720085502515369e-01
            2.250149311159067e-02 4.720731375196238e-01 -2.146858185102685e-01 5.670591820912729e-02 1.149495611890165e-01 1.591134696591030e-02 1.077122968268340e-01 2.879099349151359e-02
            -2.147528793274150e-01 5.674081501337874e-02 2.251971194748931e-02 4.721525590782256e-01 1.076879345415928e-01 2.873552455416950e-02 1.148687098960324e-01 1.599829608288706e-02
423077500.0000000000 1.222361806589474e-01 -4.502898293890892e-03 1.125666257502499e-01 -1.246845675089618e-03 1.814935147465329e-01 4.357789691911990e-01 -1.819896005805858e-01 1.252109013139873e-01
            1.126494045342814e-01 -1.235079139624351e-03 1.222651213124962e-01 -4.512623609696980e-03 -1.819353601915309e-01 1.252266081847134e-01 1.815435244349058e-01 4.357873714359097e-01
            1.814904866369690e-01 4.357722616354433e-01 -1.819382399482565e-01 1.252498759106796e-01 1.208976168056941e-01 -3.273548439433345e-03 1.165122694777892e-01 9.362072768271086e-03
            -1.819128350539489e-01 1.252597034388122e-01 1.814468933372255e-01 4.358664700807109e-01 1.165293153045346e-01 9.321936241949158e-03 1.209319128527768e-01 -3.335764991845826e-03
423910000.0000000000 1.130296805604326e-01 -2.476580407142611e-02 1.047500416633572e-01 -1.967145884718206e-02 3.190530390891227e-01 3.490073740513415e-01 -1.276310877915927e-01 1.797014962210833e-01
            1.048114992618224e-01 -1.961960123597942e-02 1.130834145122142e-01 -2.476675101755390e-02 -1.276179773431378e-01 1.797684946593890e-01 3.190416178748235e-01 3.489796580064747e-01
            3.190089238670387e-01 3.490680698778895e-01 -1.276669766651460e-01 1.797344162490927e-01 1.135909959775542e-01 -2.202922276548497e-02 1.116718183673820e-01 -1.060932374015594e-02
            -1.276484017929153e-01 1.796864108678744e-01 3.190357164143447e-01 3.489800932940929e-01 1.116983712745189e-01 -1.066003127323471e-02 1.135782637348031e-01 -2.208333941605576e-02
424742500.0000000000 9.296978473941304e-02 -3.501068152828576e-02 8.652997618042635e-02 -2.919130265291880e-02 4.206435225848627e-01 2.207125453070857e-01 -5.662819997977414e-02 2.125037541825135e-01
            8.658953156204810e-02 -2.921154521410074e-02 9.294781044538904e-02 -3.504283031908815e-02 -5.650974018177217e-02 2.124161648853673e-01 4.207226013625616e-01 2.206988058927178e-01
            4.207015433288857e-01 2.207107362248119e-01 -5.658004458629874e-02 2.124013920197106e-01 9.610245974895636e-02 -3.196176506149525e-02 9.604790371765733e-02 -2.223973501837533e-02
            -5.663345327159443e-02 2.124290496039962e-01 4.206949179458249e-01 2.207384093340572e-01 9.604890654310241e-02 -2.229680087329585e-02 9.609202888793891e-02 -3.201371256687093e-02
425575000.0000000000 7.026467983881540e-02 -3.045777831541680e-02 6.589847374604367e-02 -2.453710357133454e-02 4.737156412628589e-01 6.365524742476557e-02 2.211963085148638e-02 2.170497559635895e-01
            6.600919725479647e-02 -2.453326756786617e-02 7.026049695732210e-02 -3.041154435141735e-02 2.210747008004908e-02 2.169848745406690e-01 4.737826552227196e-01 6.368668314296697e-02
            4.737408523662270e-01 6.361588997397941e-02 2.211144996089292e-02 2.170173174880635e-01 7.643737858514339e-02 -2.853851908551224e-02 7.750659594626218e-02 -2.060175096861889e-02
            2.207407817161873e-02 2.170264575798592e-01 4.738362122086139e-01 6.356462349907455e-02 7.751915860266334e-02 -2.057152998395545e-02 7.637030091126899e-02 -2.844392230808200e-02
426407500.0000000000 5.552705349024627e-02 -1.251140222960037e-02 5.298097074457001e-02 -7.459759995557826e-03 4.691903221811805e-01 -1.045602682158301e-01 9.621115146225011e-02 1.922253740135433e-01
            5.295025303504645e-02 -7.399330329467223e-03 5.553019046465240e-02 -1.256820439408516e-02 9.617221952857728e-02 1.922055382705037e-01 4.692055794761278e-01 -1.045814286037407e-01
            4.692461311819944e-01 -1.045403295221656e-01 9.627111500011915e-02 1.922237269571954e-01 6.384208883596153e-02 -1.325012576140604e-02 6.574647551252637e-02 -7.106557067683581e-03
            9.630564623498333e-02 1.923001033511488e-01 4.691972473566591e-01 -1.045762500115420e-01 6.575734564761467e-02 -6.986047208989536e-03 6.382699069921607e-02 -1.319417124079127e-02
427240000.0000000000 5.533902484253309e-02 1.046998606017903e-02 5.422087105211560e-02 1.437367699217544e-02 4.049061367022744e-01 -2.619094968508424e-01 1.544159608537118e-01 1.432901541270658e-01
            5.424533127680518e-02 1.436090984321151e-02 5.540067421134464e-02 1.046298917823368e-02 1.544519011272273e-01 1.432525448425241e-01 4.049457007761093e-01 -2.617934081363147e-01
            4.049058252347087e-01 -2.619398554673585e-01 1.544114829005722e-01 1.433565010282483e-01 6.471737049364969e-02 6.061896469592053e-03 6.696436477267477e-02 1.068318748735660e-02
            1.545224894908048e-01 1.433640062224088e-01 4.049289310321667e-01 -2.618614345051180e-01 6.693349966055791e-02 1.069385311481795e-02 6.465410341549112e-02 6.106541147902518e-03
428072500.0000000000 6.939078700853209e-02 2.767896552388220e-02 6.930824733618815e-02 3.001896258280669e-02 2.888591159291137e-01 -3.861447969342491e-01 1.900706212326820e-01 7.944891432032816e-02
            6.925065381170475e-02 3.003259777673213e-02 6.938432824431492e-02 2.772789080699854e-02 1.902067392596895e-01 7.948602728153202e-02 2.888556079081900e-01 -3.861764206537302e-01
            2.888768652363751e-01 -3.861492543080177e-01 1.901321394357165e-01 7.949788856740896e-02 7.784417328760605e-02 1.930986383705209e-02 8.056716136798650e-02 2.240563736876582e-02
            1.900613297579911e-01 7.952403315969783e-02 2.887953324631594e-01 -3.860852270868229e-01 8.055830407953982e-02 2.244512311369283e-02 7.787783801049543e-02 1.938324093631386e-02
428905000.0000000000 9.006547647035273e-02 3.196182962436869e-02 9.045523220354863e-02 3.215520022396055e-02 1.374988894312774e-01 -4.611119190026484e-01 2.019552098573875e-01 1.007144049919358e-02
            9.051719479023276e-02 3.220321574699996e-02 9.003726382614878e-02 3.199415306387787e-02 2.018370717013514e-01 1.013291541585553e-02 1.375321090335536e-01 -4.611525398403891e-01
            1.375294367171436e-01 -4.611410700738842e-01 2.019807626359029e-01 1.006830256722566e-02 9.586199229631273e-02 2.022574551867421e-02 9.914417196600930e-02 2.153824063913108e-02
            2.020293685752513e-01 1.014769935352304e-02 1.374804161089661e-01 -4.611530622740820e-01 9.910361870258534e-02 2.157007003848685e-02 9.589822493748483e-02 2.024448473979040e-02
429737500.0000000000 1.076086002254250e-01 2.270344423460144e-02 1.076850643302362e-01 2.057973767394269e-02 -2.861751816719410e-02 -4.792975063236048e-01 1.911873789424866e-01 -5.789427203888979e-02
            1.076603307006920e-01 2.056904853474797e-02 1.075873241687029e-01 2.265227418761296e-02 1.911206156701917e-01 -5.779129750320375e-02 -2.859316361295943e-02 -4.792867943675708e-01
            -2.862376834624564e-02 -4.792413958465890e-01 1.910276073180018e-01 -5.782070157671500e-02 1.096004024795928e-01 8.855403009075761e-03 1.129099476797569e-01 7.893174856109469e-03
            1.911165629431565e-01 -5.779040821985633e-02 -2.863180567368292e-02 -4.792530478448175e-01 1.128574482829360e-01 8.001932454721444e-03 1.095870203043843e-01 8.791568921472323e-03
430570000.0000000000 1.144000831298186e-01 5.404631655792393e-03 1.134891489455378e-01 1.121344452581781e-03 -1.898296175266143e-01 -4.406067501897231e-01 1.590645306476449e-01 -1.185653882418428e-01
            1.134755989818692e-01 1.105166863114181e-03 1.145231014024390e-01 5.432315284413933e-03 1.590699017879733e-01 -1.185168352808873e-01 -1.898992258137147e-01 -4.406528797258301e-01
            -1.899248202384597e-01 -4.406002779886814e-01 1.590647231654891e-01 -1.184529359642181e-01 1.120482403150324e-01 -8.813821045724686e-03 1.150315779521658e-01 -1.221235600652286e-02
            1.591056927851442e-01 -1.186116104716699e-01 -1.898839434113062e-01 -4.406332591142683e-01 1.149960185925728e-01 -1.227732939488248e-02 1.120749214406817e-01 -8.809513204467150e-03
431402500.0000000000 1.085665152787375e-01 -1.121367921859578e-02 1.054998894273746e-01 -1.733558340037111e-02 -3.289606830250835e-01 -3.506396373552672e-01 1.079277976499751e-01 -1.656159873190916e-01
            1.054344110781452e-01 -1.736354175938313e-02 1.086406208815495e-01 -1.118652691041314e-02 1.079731155406421e-01 -1.655635840706902e-01 -3.290282338651234e-01 -3.506100850322434e-01
            -3.290849675638867e-01 -3.505742871921335e-01 1.079384262546701e-01 -1.655648496861410e-01 1.019826581188752e-01 -2.397860756509547e-02 1.034488060286223e-01 -3.008272218259828e-02
            1.080047959920964e-01 -1.656261139223262e-01 -3.290399020786053e-01 -3.505332405692886e-01 1.034710386043840e-01 -3.007510064459910e-02 1.019670484789388e-01 -2.391195873070825e-02
432235000.0000000000 9.353558391633157e-02 -1.912558481708469e-02 8.756175302051283e-02 -2.603667307620964e-02 -4.308487821647530e-01 -2.184373230151019e-01 4.266944216544644e-02 -1.919250162957682e-01
            8.752569729278563e-02 -2.599743415905957e-02 9.355747453655258e-02 -1.910886420705714e-02 4.260248380165304e-02 -1.919958825140304e-01 -4.309255140766963e-01 -2.183233872616484e-01
            -4.308463965345031e-01 -2.184230804293623e-01 4.268695164720408e-02 -1.918921854600467e-01 8.366951961786556e-02 -2.878539953238297e-02 8.281159548097257e-02 -3.722296706572449e-02
            4.259618233971107e-02 -1.919086495338438e-01 -4.308218283329127e-01 -2.184192652770300e-01 8.283299380581104e-02 -3.732524479230842e-02 8.364323139386635e-02 -2.877686622964305e-02
433067500.0000000000 7.725980978781428e-02 -1.442611290871515e-02 6.805857035711858e-02 -2.084070136946041e-02 -4.822833068084185e-01 -5.732797482297643e-02 -2.805553778425580e-02 -1.924006945231003e-01
            6.809175225365910e-02 -2.075461920181560e-02 7.730277185065079e-02 -1.438593466915590e-02 -2.811471773239427e-02 -1.923892055664334e-01 -4.822884156402550e-01 -5.734168459098244e-02
            -4.823550889547168e-01 -5.733499221618676e-02 -2.816277691749586e-02 -1.924234904452568e-01 6.597989474446625e-02 -1.992536917584720e-02 6.172541905189589e-02 -2.982910108778721e-02
            -2.816520676585214e-02 -1.923918884113620e-01 -4.824013804648733e-01 -5.736775366748095e-02 6.174759022650917e-02 -2.971416965742246e-02 6.594572027096351e-02 -1.999217751740633e-02
433900000.0000000000 6.874078568348164e-02 5.801676884901528e-04 5.683629502660081e-02 -3.736824328221232e-03 -4.744334088442511e-01 1.136823230837948e-01 -9.285682427649070e-02 -1.667117600693601e-01
            5.688977845037196e-02 -3.807528682945179e-03 6.880254763612359e-02 5.770720955252628e-04 -9.290770279035628e-02 -1.667533695722845e-01 -4.744598394758102e-01 1.137132897566997e-01
            -4.744054312252557e-01 1.136607758196651e-01 -9.277832876345744e-02 -1.667569386597880e-01 5.797116927267880e-02 -9.397711231461821e-04 5.016868113786822e-02 -1.073548957967808e-02
            -9.288890392803953e-02 -1.666882127644503e-01 -4.744252751922257e-01 1.136666602065877e-01 5.025968732144369e-02 -1.069322804970211e-02 5.797244149869039e-02 -8.502681604291937e-04
434732500.0000000000 7.319235674437560e-02 1.765977626853055e-02 5.985973754275269e-02 1.660711714454659e-02 -4.061081983659784e-01 2.718512041327232e-01 -1.418716676938670e-01 -1.207156646462523e-01
            5.983879550165321e-02 1.660122068189678e-02 7.319913499015079e-02 1.767296187592445e-02 -1.419608230572357e-01 -1.206786394532508e-01 -4.060564092746149e-01 2.718624896069066e-01
            -4.060870893201683e-01 2.718384796113296e-01 -1.419495868765588e-01 -1.206262776541972e-01 6.463567482631238e-02 1.951729803101870e-02 5.357034040331769e-02 1.084466315334524e-02
            -1.418990614544730e-01 -1.206214799181218e-01 -4.060654330903430e-01 2.719001200128660e-01 5.353473427088433e-02 1.072743783712161e-02 6.469510734272187e-02 1.946873435927942e-02
435565000.0000000000 8.846070787798871e-02 2.751500771248949e-02 7.535116158867874e-02 3.012827523302550e-02 -2.862234769828857e-01 3.953378046224398e-01 -1.704141268784465e-01 -6.307826634670909e-02
            7.539053613724238e-02 3.011099543623970e-02 8.848636880229173e-02 2.750031563407535e-02 -1.703973562663580e-01 -6.306701329606682e-02 -2.862315539840622e-01 3.952707659053928e-01
            -2.862403567625360e-01 3.953155994550436e-01 -1.705295834599388e-01 -6.307654258261415e-02 8.317811749774552e-02 3.079957828276269e-02 6.954040510727565e-02 2.431901272330896e-02
            -1.704035657069893e-01 -6.307770769428055e-02 -2.863193143254624e-01 3.953224769561828e-01 6.960393016782104e-02 2.436865892618632e-02 8.324396798712062e-02 3.080625667180347e-02
436397500.0000000000 1.066792047482981e-01 2.467178502306945e-02 9.580497585097245e-02 3.050077335112298e-02 -1.322464036428340e-01 4.683843331935221e-01 -1.781742690102796e-01 -1.775771313837197e-03
            9.579694006195998e-02 3.049408877574499e-02 1.067067405973308e-01 2.472725269678982e-02 -1.780745933094659e-01 -1.871749876591762e-03 -1.323551139684540e-01 4.683785685613450e-01
            -1.322333557372366e-01 4.683963028410390e-01 -1.781111092353354e-01 -1.880136067421139e-03 1.047102059513060e-01 2.780351212530561e-02 8.973683121266410e-02 2.395489486364489e-02
            -1.781469320972578e-01 -1.881463260697174e-03 -1.323407820126482e-01 4.684577113426933e-01 8.970821326455736e-02 2.393546981071145e-02 1.047537556457855e-01 2.778195633238009e-02
437230000.0000000000 1.190683659875773e-01 1.053435326220041e-02 1.116305986498198e-01 1.819318009064297e-02 3.569086710315878e-02 4.841902365989416e-01 -1.663689119253520e-01 5.743960055386536e-02
            1.116422478330890e-01 1.815750700922448e-02 1.190687852174705e-01 1.055401827387698e-02 -1.663314379198354e-01 5.742412275075425e-02 3.565866883829162e-02 4.841966639928982e-01
            3.564076051971649e-02 4.841752698449592e-01 -1.664021527895231e-01 5.739984258409313e-02 1.196128308663809e-01 1.196518105960055e-02 1.039552685379106e-01 1.063509734141919e-02
            -1.663693503043472e-01 5.746708303614360e-02 3.561749123676632e-02 4.841714528587276e-01 1.038625000379876e-01 1.066918712301475e-02 1.196627008921622e-01 1.197253917060510e-02
438062500.0000000000 1.195052863801645e-01 -8.512959676776651e-03 1.161474315493306e-01 -9.782543332584285e-04 1.979562612771695e-01 4.431279237178402e-01 -1.361117042940727e-01 1.099026800358591e-01
            1.161757724173622e-01 -9.362268552440441e-04 1.195534837755499e-01 -8.423931529587233e-03 -1.361260910081693e-01 1.098806082912126e-01 1.979579052626964e-01 4.431178454074161e-01
            1.979742025002035e-01 4.430580231594639e-01 -1.361383762821138e-01 1.099282775025672e-01 1.214252944016291e-01 -9.434478612623965e-03 1.057660435334155e-01 -8.711732884959272e-03
            -1.362213085142550e-01 1.099052772842329e-01 1.980253478928526e-01 4.431842985968842e-01 1.057976667772693e-01 -8.660568130167693e-03 1.214216115310017e-01 -9.472274144714904e-03
438895000.0000000000 1.076472500054464e-01 -2.358962399694319e-02 1.079748366571281e-01 -1.813348324094953e-02 3.375550455635521e-01 3.503584757225487e-01 -8.923699397525539e-02 1.497923687340855e-01
            1.078689808754492e-01 -1.815859008543928e-02 1.076313902106431e-01 -2.355198016665310e-02 -8.918248037145825e-02 1.497983004088995e-01 3.375041870293646e-01 3.503358952539938e-01
            3.375554266684659e-01 3.503289159679411e-01 -8.919889390479455e-02 1.498273093702293e-01 1.095325023017932e-01 -2.720859776194076e-02 9.410268702829966e-02 -2.463798887744383e-02
            -8.919983949438440e-02 1.498206378400820e-01 3.375531373757044e-01 3.503991464180545e-01 9.401171223455478e-02 -2.464100466313327e-02 1.096004326094646e-01 -2.724970206112052e-02
439727500.0000000000 8.849626610523784e-02 -2.766626231049389e-02 9.101522630385729e-02 -2.588272668416633e-02 4.389475294148212e-01 2.150671754081239e-01 -3.017219875825460e-02 1.707463200947158e-01
            9.107511715609815e-02 -2.580680333940701e-02 8.854687770525470e-02 -2.768018496137343e-02 -3.018623370942908e-02 1.706796091175481e-01 4.388915010400959e-01 2.150913067251904e-01
            4.388154280739992e-01 2.151233446016661e-01 -3.013951765414034e-02 1.706885749735575e-01 8.926876495121265e-02 -3.355351706852219e-02 7.393898955071895e-02 -2.919433210301927e-02
            -3.011019349793347e-02 1.707460685863500e-01 4.388907281868258e-01 2.151307666416233e-01 7.391927098230797e-02 -2.916974777092635e-02 8.919814618179747e-02 -3.348275630080057e-02
440560000.0000000000 7.091250344036788e-02 -1.823868982492191e-02 7.396011049316330e-02 -2.047787536619962e-02 4.886828328170821e-01 5.128320367872181e-02 3.263125401835363e-02 1.679066336996747e-01
            7.396607528671267e-02 -2.045159437822546e-02 7.092435416264070e-02 -1.825210153834651e-02 3.257613858618352e-02 1.679237067728052e-01 4.886621177673204e-01 5.119674797718807e-02
            4.887259333113140e-01 5.131544864093818e-02 3.259583741476769e-02 1.679264673960330e-01 6.986877913988437e-02 -2.544568445775421e-02 5.490782632067928e-02 -1.913408535041150e-02
            3.264585464618236e-02 1.679537516405547e-01 4.888028912419584e-01 5.124190734604376e-02 5.493847829166629e-02 -1.913817464989752e-02 6.984868056143484e-02 -2.538588672103831e-02
441392500.0000000000 6.358157323881940e-02 7.081188475456258e-04 6.537498535371258e-02 -5.360104910546498e-03 4.781181678196791e-01 -1.217380818320282e-01 8.843579150594397e-02 1.420479695456263e-01
            6.535909292315757e-02 -5.342836442652977e-03 6.360645332328339e-02 7.508734217618396e-04 8.849707165661651e-02 1.421585932214257e-01 4.780136732239880e-01 -1.217346977050436e-01
            4.780475755464319e-01 -1.216899096228890e-01 8.851203671757465e-02 1.420807032817175e-01 6.073972133254625e-02 -6.810111235806367e-03 4.650757318174462e-02 1.641710935933041e-03
            8.844308316026180e-02 1.420765794630501e-01 4.780775927691627e-01 -1.216779061984852e-01 4.645988405540117e-02 1.694124914735230e-03 6.067473538062546e-02 -6.731130298339837e-03
442225000.0000000000 7.066789552042393e-02 2.003394767346629e-02 6.982733321361390e-02 1.115815183240395e-02 4.064270418510890e-01 -2.804165681996870e-01 1.290770522467233e-01 9.914823021550288e-02
            6.979741930666238e-02 1.116805037060155e-02 7.068225444056359e-02 2.013796764147801e-02 1.290738460429905e-01 9.925605438216897e-02 4.063880616571794e-01 -2.804302207334227e-01
            4.063112921724016e-01 -2.804441740965890e-01 1.291584016862873e-01 9.914752621085608e-02 6.615056612286266e-02 1.263460062693320e-02 5.352595098804933e-02 2.356998743803748e-02
            1.290511020049729e-01 9.914745436656673e-02 4.064109570747617e-01 -2.804686107821796e-01 5.355680316563808e-02 2.358874127729067e-02 6.616786203980156e-02 1.269421943198278e-02
443057500.0000000000 8.858357909629005e-02 3.017777852418116e-02 8.449194326317720e-02 1.991627414891176e-02 2.836015578926657e-01 -4.031123224500346e-01 1.510465910794574e-01 4.753098729732224e-02
            8.450412094817962e-02 1.993393484253613e-02 8.855306358133357e-02 3.015608006136170e-02 1.510363073934535e-01 4.760423819969455e-02 2.835874614517262e-01 -4.031066603352738e-01
            2.835950776722198e-01 -4.030820836398105e-01 1.510196278732614e-01 4.764598733396646e-02 8.278896266869915e-02 2.301586283276903e-02 7.297194312603371e-02 3.589582947833253e-02
            1.510744319670339e-01 4.755905639204298e-02 2.836225037674711e-01 -4.031030938990202e-01 7.289501292119081e-02 3.590258269652758e-02 8.285946496368148e-02 2.312813674993410e-02
443890000.0000000000 1.085159338167176e-01 2.652412836870465e-02 1.014473211640824e-01 1.621212213669375e-02 1.273300903385385e-01 -4.745548932677973e-01 1.548464168981937e-01 -5.862609325954101e-03
            1.014474308364837e-01 1.611413000038251e-02 1.086274237483740e-01 2.655524435539603e-02 1.548648952640070e-01 -5.878919817200254e-03 1.273400919747760e-01 -4.745148229448931e-01
            1.272978659573284e-01 -4.744972765235417e-01 1.548710613106362e-01 -5.925716879949475e-03 1.017609861919376e-01 1.975564085436435e-02 9.532516896768269e-02 3.341859222887276e-02
            1.548603251186543e-01 -5.914839100861699e-03 1.273354269528614e-01 -4.746017919503903e-01 9.539912909717360e-02 3.331565113490433e-02 1.017909850189300e-01 1.973911620857270e-02
444722500.0000000000 1.215281973379914e-01 1.135098005606984e-02 1.120108748637683e-01 1.820630768022035e-03 -4.216196559474965e-02 -4.883270638263206e-01 1.420421353681270e-01 -5.690736265591315e-02
            1.120368128648516e-01 1.756416395256585e-03 1.216297820465667e-01 1.129757484520435e-02 1.420261438620807e-01 -5.693244777084612e-02 -4.214934661871467e-02 -4.883980251807059e-01
            -4.215612653006370e-02 -4.883779508209117e-01 1.419695071117755e-01 -5.683003576632526e-02 1.134778779560656e-01 4.808090385766448e-03 1.110007406972323e-01 1.769050648223106e-02
            1.420169425924396e-01 -5.693690331040339e-02 -4.215655716661414e-02 -4.883747367657966e-01 1.110509757652506e-01 1.774144191626697e-02 1.135316606124654e-01 4.810025798882793e-03
445555000.0000000000 1.221466514426288e-01 -8.194013891889142e-03 1.110093528867403e-01 -1.662207439492912e-02 -2.055449313004853e-01 -4.448856309604777e-01 1.134273553739513e-01 -1.013129151543073e-01
            1.109250395095296e-01 -1.667393153219291e-02 1.221881689116450e-01 -8.138522681587114e-03 1.134207347111610e-01 -1.014284541592022e-01 -2.055523962541553e-01 -4.449485999704459e-01
            -2.056038138909843e-01 -4.449634025531961e-01 1.134201966850376e-01 -1.013249237491296e-01 1.127090853223875e-01 -1.433092426258390e-02 1.132755397808523e-01 -3.825194931127104e-03
            1.133824216969952e-01 -1.014136799296454e-01 -2.055080324899436e-01 -4.449037273755839e-01 1.132242933934066e-01 -3.802915365523275e-03 1.126059497625200e-01 -1.430651668020176e-02
446387500.0000000000 1.103820228298692e-01 -2.338443495677732e-02 9.818064386056018e-02 -3.082812194046809e-02 -3.454701939198939e-01 -3.496099308263614e-01 7.058766252634138e-02 -1.341001580331239e-01
            9.815245863324164e-02 -3.077731328443385e-02 1.103773575273763e-01 -2.341776837373401e-02 7.051534709055531e-02 -1.340185708973053e-01 -3.454736474288865e-01 -3.494953850559275e-01
            -3.454783185627109e-01 -3.494418964784928e-01 7.052761264247635e-02 -1.340622250653472e-01 9.933426213582247e-02 -2.859717499637062e-02 1.015895059608507e-01 -2.161969007131202e-02
            7.057217279382329e-02 -1.341667764636274e-01 -3.454519102048327e-01 -3.495532586278683e-01 1.015142009662762e-01 -2.158279227572842e-02 9.928303567442136e-02 -2.853886843955587e-02
447220000.0000000000 9.203491080029245e-02 -2.738492952300322e-02 7.900487153710999e-02 -3.384129104063455e-02 -4.462065639388010e-01 -2.113251597417811e-01 1.787843722500424e-02 -1.492507319159058e-01
            7.901726653362480e-02 -3.388147732918761e-02 9.202133208041122e-02 -2.736140437931202e-02 1.779568236302142e-02 -1.493060461787753e-01 -4.461959753964862e-01 -2.113499531563013e-01
            -4.462367832893511e-01 -2.114368902912590e-01 1.789201901500341e-02 -1.492699093402953e-01 7.932400163617728e-02 -3.100758510865757e-02 8.130951176056427e-02 -2.765021033315668e-02
            1.786446069100766e-02 -1.493210445989232e-01 -4.461711961261727e-01 -2.113757863767562e-01 8.127796751139398e-02 -2.770064579502377e-02 7.927171778624958e-02 -3.098548642069287e-02
448052500.0000000000 7.579350668103489e-02 -1.825984023496547e-02 6.214919791024098e-02 -2.410681337858695e-02 -4.940337225752126e-01 -4.501418331589077e-02 -3.669089827412149e-02 -1.432618401763838e-01
            6.208565180389653e-02 -2.410420285402274e-02 7.578933526334265e-02 -1.838462364265657e-02 -3.682182931838971e-02 -1.433111553488347e-01 -4.940570084077295e-01 -4.503807423566702e-02
            -4.940649513469434e-01 -4.502834519445075e-02 -3.675313441132835e-02 -1.433249212755321e-01 6.185768714657305e-02 -1.957559945541379e-02 6.188868891012381e-02 -1.904063485666559e-02
            -3.670084748809549e-02 -1.434057560698519e-01 -4.940855337027261e-01 -4.495343444225091e-02 6.194734299361278e-02 -1.906576190625311e-02 6.194611833082207e-02 -1.959559534108242e-02
448885000.0000000000 7.013317283444653e-02 -7.232591528413932e-04 5.576288308037456e-02 -5.906508577878714e-03 -4.805821871503276e-01 1.294663826601790e-01 -8.360364569820054e-02 -1.174778663363827e-01
            5.567635922612786e-02 -5.910616501611901e-03 7.014167407605888e-02 -7.967740621847598e-04 -8.365576183044975e-02 -1.175933449567068e-01 -4.805679721219209e-01 1.294434364110628e-01
            -4.806105208972019e-01 1.294724318496695e-01 -8.365305115864374e-02 -1.175740648622923e-01 5.576392719685359e-02 7.510508287450772e-04 5.294653021688581e-02 6.738030279855097e-05
            -8.358363105127332e-02 -1.174977673034820e-01 -4.805821757573949e-01 1.294585925842878e-01 5.288146951645746e-02 8.403392338554804e-05 5.589770388948615e-02 7.546636551489809e-04
449717500.0000000000 7.804267029256937e-02 1.564450221113051e-02 6.275656252285941e-02 1.144446833586935e-02 -4.058367005321116e-01 2.883420743118604e-01 -1.160321795263013e-01 -7.801201488358991e-02
            6.286004512614939e-02 1.128562164023812e-02 7.808929836951449e-02 1.570663852393444e-02 -1.159818754771550e-01 -7.788467946346934e-02 -4.059208092713997e-01 2.883052240409742e-01
            -4.058145091478451e-01 2.883369681480216e-01 -1.159406578268238e-01 -7.805968933509419e-02 6.431474259820122e-02 2.017766706957956e-02 5.863678836261307e-02 2.031679192903730e-02
            -1.160249928448340e-01 -7.801159355213243e-02 -4.059208952266492e-01 2.883587001743363e-01 5.861331652089167e-02 2.031603157733372e-02 6.435094193172654e-02 2.014949963250812e-02
450550000.0000000000 9.504247533937406e-02 2.226495471055931e-02 7.916271017050078e-02 1.896278893062265e-02 -2.805507447631144e-01 4.101294426437956e-01 -1.315941410182873e-01 -3.236115238087964e-02
            7.910417485896820e-02 1.896693309452135e-02 9.507066454826665e-02 2.225722245277056e-02 -1.315725923363667e-01 -3.238605830095975e-02 -2.805618692991851e-01 4.100306560585336e-01
            -2.806162915704222e-01 4.100864022790509e-01 -1.316652871096612e-01 -3.236851919235439e-02 8.300799799319290e-02 2.929377839166493e-02 7.588560511045217e-02 3.173970915591026e-02
            -1.315488044033012e-01 -3.237178322980123e-02 -2.805405479401666e-01 4.100788645011208e-01 7.575998186965568e-02 3.176712416129377e-02 8.301539667341835e-02 2.934892292557323e-02
451382500.0000000000 1.122589649615955e-01 1.564176216270130e-02 9.583951322396358e-02 1.346100123728318e-02 -1.222456981943577e-01 4.800109528220137e-01 -1.316749102179424e-01 1.363237953000940e-02
            9.587252283392321e-02 1.356017265790608e-02 1.123415941860980e-01 1.561949591095442e-02 -1.317133532261764e-01 1.360687689595164e-02 -1.222603990524711e-01 4.800767023904822e-01
            -1.223061414389311e-01 4.800405523549028e-01 -1.316600140556966e-01 1.359481038507804e-02 1.025164442074006e-01 2.445360484520653e-02 9.562319119758833e-02 2.970441681339198e-02
            -1.316884928743288e-01 1.367118902287288e-02 -1.222459553810686e-01 4.800943270921808e-01 9.568012974571902e-02 2.970074370043776e-02 1.024988883595060e-01 2.457171274025330e-02
452215000.0000000000 1.211314830230195e-01 -8.515947205259092e-04 1.044852049774000e-01 -1.919777212258915e-03 4.872133554202599e-02 4.919635468796344e-01 -1.176207067899198e-01 5.648419885453394e-02
            1.044431105507937e-01 -1.899698737536279e-03 1.210536476372818e-01 -8.832250426143753e-04 -1.176477825247445e-01 5.650028293963127e-02 4.872496776308810e-02 4.920498657929440e-01
            4.874956305520126e-02 4.920685863515646e-01 -1.176530738760190e-01 5.654043986822882e-02 1.138828879889499e-01 8.925869770946185e-03 1.090735069486844e-01 1.603764535552183e-02
            -1.176566629498406e-01 5.651991670076902e-02 4.879168051973977e-02 4.919986088420124e-01 1.091104136410385e-01 1.600283771018360e-02 1.139359990859271e-01 8.872925645256607e-03
453047500.0000000000 1.171068286521416e-01 -1.955182823552464e-02 1.005397622037290e-01 -1.979488982242761e-02 2.132292176241286e-01 4.462438862344023e-01 -9.027919555508029e-02 9.280662656401401e-02
            1.004600790892014e-01 -1.973669874340819e-02 1.170751981916858e-01 -1.956666695172874e-02 -9.039653092000964e-02 9.285220259173926e-02 2.131951387380906e-01 4.462114191410522e-01
            2.132261841510595e-01 4.462212153854074e-01 -9.028463193096588e-02 9.284925902985904e-02 1.126120501366507e-01 -9.817091281061887e-03 1.106150722435741e-01 -2.387928805157762e-03
            -9.041268246525959e-02 9.285211780828395e-02 2.132926734133684e-01 4.462622666006606e-01 1.106391963772483e-01 -2.291848112015386e-03 1.125688114531029e-01 -9.794349634062637e-03
453880000.0000000000 1.016207323374511e-01 -3.183500902055088e-02 8.509647538527911e-02 -3.129885352886207e-02 3.534706569500162e-01 3.478736603737085e-01 -5.145679956874227e-02 1.180868250687729e-01
            8.514430481120257e-02 -3.135758844665772e-02 1.016327209247860e-01 -3.176616021530460e-02 -5.143121305368740e-02 1.180318487285098e-01 3.534891255737468e-01 3.478340637139083e-01
            3.535273980928222e-01 3.478515486854405e-01 -5.141122998448341e-02 1.180367673005054e-01 9.951894530624691e-02 -2.271594046186045e-02 1.004015445212674e-01 -1.679523021317043e-02
            -5.135822472608912e-02 1.179979476631133e-01 3.534736117066222e-01 3.478024688978117e-01 1.004663018562514e-01 -1.687840256931037e-02 9.950129922458488e-02 -2.273899160939930e-02
454712500.0000000000 8.136903968192111e-02 -3.141065377813298e-02 6.464886791632690e-02 -3.036490160767652e-02 4.532424232922681e-01 2.065423695261979e-01 -5.164842393950347e-03 1.272285962617281e-01
            6.463447196435128e-02 -3.033030065069222e-02 8.137033879302032e-02 -3.138085427764707e-02 -5.245762103999949e-03 1.272083738394238e-01 4.532125355812996e-01 2.066559551049640e-01
            4.532312311309278e-01 2.066235541943823e-01 -5.145723418353625e-03 1.272186951760769e-01 8.127268221725203e-02 -2.356216472497482e-02 8.365812155744709e-02 -2.055483794030884e-02
            -5.212849536455062e-03 1.271844456120182e-01 4.531772827590297e-01 2.065409914670935e-01 8.360373903407732e-02 -2.052645566915020e-02 8.125858984596637e-02 -2.364523577203798e-02
455545000.0000000000 6.586748880643706e-02 -1.769457092095179e-02 4.883484859005509e-02 -1.585359024302703e-02 4.986681140897712e-01 3.759425459861705e-02 4.070071937386321e-02 1.177928706134100e-01
            4.886049770468600e-02 -1.579212323511104e-02 6.593891623152166e-02 -1.766068928129347e-02 4.068261502511240e-02 1.177784660112830e-01 4.986425987503020e-01 3.761787699367505e-02
            4.986314091501434e-01 3.761513467518381e-02 4.071742457357530e-02 1.177667552650268e-01 6.704913115495933e-02 -1.169848656516699e-02 6.916870175612011e-02 -1.201036894563688e-02
            4.066945967213996e-02 1.178025587685993e-01 4.987047716501150e-01 3.762859597036115e-02 6.917262921230713e-02 -1.189697477333255e-02 6.708992676597413e-02 -1.167871454884282e-02
456377500.0000000000 6.292590245936149e-02 3.174541087862240e-03 4.551405660887756e-02 6.010858520927541e-03 4.815897371061919e-01 -1.380259926914893e-01 7.801652137702203e-02 9.200943556468905e-02
            4.557789020382168e-02 5.958839124830369e-03 6.295492051498092e-02 3.178988632863121e-03 7.803162312224864e-02 9.206841822681243e-02 4.817151660425500e-01 -1.380571087849490e-01
            4.816317125418443e-01 -1.380474830624135e-01 7.801973185678786e-02 9.199328664968812e-02 6.475578646474255e-02 7.076801974827419e-03 6.492052278055918e-02 4.268006168310126e-03
            7.805721040020647e-02 9.208268525651361e-02 4.815826829790127e-01 -1.380348772003813e-01 6.487721472773721e-02 4.266739663537337e-03 6.480678971114964e-02 6.968817300710627e-03
457210000.0000000000 7.429684562748701e-02 2.080044481738886e-02 5.682272610207887e-02 2.495739183981739e-02 4.033729274919565e-01 -2.962194789345239e-01 1.015343740216616e-01 5.647339456162125e-02
            5.680161333285354e-02 2.501766369389732e-02 7.430219814844520e-02 2.079595617320764e-02 1.015686094352396e-01 5.643610049890880e-02 4.033933652121771e-01 -2.962554394577078e-01
            4.033951217189294e-01 -2.962527070466898e-01 1.015842764193324e-01 5.639548122725414e-02 7.604489650130437e-02 2.261083442421887e-02 7.318310898018451e-02 1.899552494408681e-02
            1.014938110726693e-01 5.642465520327335e-02 4.034445991304960e-01 -2.962227574268914e-01 7.326950047560926e-02 1.895697466554934e-02 7.599444935905726e-02 2.263933611384754e-02
458042500.0000000000 9.431023410904350e-02 2.695694071957040e-02 7.702556228441675e-02 3.252962414449105e-02 2.754526082469881e-01 -4.159837809682084e-01 1.107936585857339e-01 1.771342151960868e-02
            7.714680125179414e-02 3.247330185462964e-02 9.434419133370665e-02 2.694328283654519e-02 1.107032701564217e-01 1.764338275984128e-02 2.754638372764729e-01 -4.159547444997841e-01
            2.754676753553401e-01 -4.159706049839398e-01 1.107916899515481e-01 1.769493748817519e-02 9.527935451097763e-02 2.686260910914871e-02 8.966199605675021e-02 2.419984736115235e-02
            1.107141731176394e-01 1.768065246912877e-02 2.755770221835401e-01 -4.159500950983091e-01 8.968475420926807e-02 2.413664852297173e-02 9.522719463064339e-02 2.690540485944029e-02
458875000.0000000000 1.134006212373951e-01 1.894904502505702e-02 9.693541641600144e-02 2.594042821870018e-02 1.159328292024478e-01 -4.834699036697315e-01 1.074087829551733e-01 -2.002646852179434e-02
            9.684881189041387e-02 2.595595887070442e-02 1.134318943637068e-01 1.902811401358605e-02 1.074572827463304e-01 -2.002316807780130e-02 1.159546489197255e-01 -4.834785180329876e-01
            1.159370321260110e-01 -4.835818482679329e-01 1.074007264938170e-01 -1.997838321793439e-02 1.128928436357846e-01 1.749316375178251e-02 1.059103980629238e-01 1.692668651011836e-02
            1.075197203913343e-01 -1.992202191722651e-02 1.160233433271325e-01 -4.834721371152519e-01 1.058274018781983e-01 1.691480406321969e-02 1.128175193862618e-01 1.751649503575684e-02
459707500.0000000000 1.231597417900610e-01 9.763591604906584e-04 1.076114848852764e-01 8.852925562041997e-03 -5.552473497079111e-02 -4.930917447008712e-01 9.315041516779897e-02 -5.424634608709948e-02
            1.075547711116801e-01 8.868407391201932e-03 1.232043892033673e-01 8.828371953687811e-04 9.307143003454045e-02 -5.425317784268111e-02 -5.544592295517714e-02 -4.930672415185252e-01
            -5.544494513630355e-02 -4.931007999557583e-01 9.319450085998428e-02 -5.430834961489931e-02 1.207046260194573e-01 -1.370483938374535e-03 1.138563578154348e-01 6.178333494126072e-04
            9.311389646275232e-02 -5.426835954973583e-02 -5.541964309773108e-02 -4.930784915018603e-01 1.139490066981634e-01 6.971529014119999e-04 1.206759839357983e-01 -1.390331785025023e-03
460540000.0000000000 1.196530921962613e-01 -1.901267798964202e-02 1.051087325995491e-01 -1.041340273544105e-02 -2.196728615616756e-01 -4.451970045462006e-01 6.820107991655348e-02 -8.275325903777421e-02
            1.051418379277132e-01 -1.049729192956184e-02 1.197257232658463e-01 -1.908032603745957e-02 6.828603933856807e-02 -8.264532190243781e-02 -2.196984985003306e-01 -4.451860265511898e-01
            -2.197955640512656e-01 -4.452082707278214e-01 6.823913918235835e-02 -8.264183567444672e-02 1.148630352478860e-01 -2.132313103478081e-02 1.098451549855480e-01 -1.748807426420702e-02
            6.820618043476853e-02 -8.270362358370434e-02 -2.196552241475840e-01 -4.451658868621969e-01 1.099514015513355e-01 -1.757865248825493e-02 1.149647906592335e-01 -2.133578869546559e-02
461372500.0000000000 1.047027874659924e-01 -3.232580244111882e-02 9.082726388993678e-02 -2.340694071967706e-02 -3.591675181327914e-01 -3.448820515970117e-01 3.398025965925205e-02 -1.012160693095605e-01
            9.080036739654865e-02 -2.342353271625970e-02 1.046031630413266e-01 -3.238062007521534e-02 3.406951449711499e-02 -1.011865182800817e-01 -3.592314240504719e-01 -3.448381951010818e-01
            -3.592174203490213e-01 -3.449087573370913e-01 3.405412500861790e-02 -1.011572448955991e-01 9.755269938905571e-02 -3.360478871807428e-02 9.535136187084009e-02 -2.948237469786875e-02
            3.397314600960940e-02 -1.011962455055941e-01 -3.592314017711783e-01 -3.448374576782323e-01 9.537427396135276e-02 -2.949353255288091e-02 9.755760935069867e-02 -3.369951458561196e-02
462205000.0000000000 8.502085783847503e-02 -3.316910065865540e-02 7.160724888662907e-02 -2.392497066404211e-02 -4.576865522833077e-01 -2.018049655162179e-01 -5.523703600452729e-03 -1.054263148293683e-01
            7.160997445908096e-02 -2.390911266111245e-02 8.493261819026011e-02 -3.322629084633652e-02 -5.525261008262838e-03 -1.054925483706790e-01 -4.577812221056196e-01 -2.017820814826761e-01
            -4.576670689705629e-01 -2.017247685066804e-01 -5.579936031627590e-03 -1.055155163101369e-01 7.601523145820474e-02 -3.245227497464660e-02 7.634448097136154e-02 -2.977830941128294e-02
            -5.537363763158156e-03 -1.054914020188206e-01 -4.576495747076638e-01 -2.018473989126156e-01 7.632455399281521e-02 -2.974223514569003e-02 7.600990181087997e-02 -3.249275463619963e-02
463037500.0000000000 6.982885350648987e-02 -2.147676517052614e-02 5.663284502928927e-02 -1.159876529469115e-02 -5.011385446845169e-01 -3.158579801144069e-02 -4.336479548321237e-02 -9.362617734949322e-02
            5.665657036362418e-02 -1.150457096505971e-02 6.977088960577377e-02 -2.147283266105311e-02 -4.354046183695693e-02 -9.358906776841491e-02 -5.011685745401566e-01 -3.159963627742014e-02
            -5.011586669362819e-01 -3.149503679312194e-02 -4.341003111008841e-02 -9.365465245659312e-02 5.994696958746482e-02 -1.787922915454127e-02 6.178391948381323e-02 -1.795634204212307e-02
            -4.344875642351342e-02 -9.367877375974958e-02 -5.011267128206461e-01 -3.154779386324719e-02 6.176102344322665e-02 -1.798423192992411e-02 5.992408226322635e-02 -1.792540056319206e-02
463870000.0000000000 6.625846300787470e-02 -3.452702266717001e-03 5.361377097889610e-02 7.727837046800286e-03 -4.819152062156646e-01 1.444374277556539e-01 -7.233219987991865e-02 -6.855348006810551e-02
            5.366092234071920e-02 7.661377199084557e-03 6.632448814047850e-02 -3.356841376852649e-03 -7.231123021387004e-02 -6.853718325313765e-02 -4.818945093480048e-01 1.444660983469643e-01
            -4.818875816850130e-01 1.445178926900128e-01 -7.237905069741431e-02 -6.852857456150399e-02 5.682310671399683e-02 3.419673420695988e-03 5.860676216797078e-02 -8.509788708955748e-05
            -7.233744390323107e-02 -6.842706926825785e-02 -4.819062667402238e-01 1.444833993449396e-01 5.863747848916279e-02 -1.214006735756069e-04 5.686492132805289e-02 3.380432929439963e-03
464702500.0000000000 7.553196040461976e-02 1.145454176159211e-02 6.384449632494704e-02 2.416477227206052e-02 -4.015802108339091e-01 3.023010476899424e-01 -8.840083238152217e-02 -3.644774566696646e-02
            6.393574847788558e-02 2.418648534854411e-02 7.555640032103594e-02 1.139390613879625e-02 -8.837198652076141e-02 -3.642365737449165e-02 -4.016122071374408e-01 3.022206202673818e-01
            -4.015385819468995e-01 3.023745251688513e-01 -8.833171494581650e-02 -3.636172356116315e-02 6.792110508623798e-02 2.110126350910226e-02 6.786185347513114e-02 1.469909141672044e-02
            -8.833892035495534e-02 -3.631892235528582e-02 -4.016208212760436e-01 3.024124499139228e-01 6.792562020786458e-02 1.459796307181735e-02 6.792896731287847e-02 2.113965225001511e-02
465535000.0000000000 9.180349547034732e-02 1.570314064518958e-02 8.199196049454974e-02 2.985604351140778e-02 -2.718623565461762e-01 4.211598491757423e-01 -9.167468945791872e-02 -3.142938925851934e-03
            8.202280217644299e-02 2.980940169326531e-02 9.173979960415254e-02 1.565933246927117e-02 -9.170816456743601e-02 -3.070506720543725e-03 -2.718471277870023e-01 4.211085000608620e-01
            -2.718555591019870e-01 4.212397754918173e-01 -9.169628272275715e-02 -3.138881937438759e-03 8.685553089656721e-02 2.730017089035656e-02 8.413205158325363e-02 1.880538131707194e-02
            -9.167948312346495e-02 -3.137034473517387e-03 -2.718575423241793e-01 4.211407985997118e-01 8.406761829958904e-02 1.880695024056287e-02 8.688833470774233e-02 2.722017738450433e-02
466367500.0000000000 1.058563907302233e-01 7.629084964172061e-03 9.910795397873483e-02 2.268281619627921e-02 -1.107634766640487e-01 4.874623265423405e-01 -8.461960841871533e-02 2.751492469971167e-02
            9.914622796614456e-02 2.271667601865230e-02 1.058622745207197e-01 7.620255089652348e-03 -8.461242103510103e-02 2.759449268695010e-02 -1.107937297451028e-01 4.873824977558649e-01
            -1.107927759493550e-01 4.875346434543498e-01 -8.455601366442297e-02 2.758168562441860e-02 1.043873064063121e-01 1.988655001849347e-02 9.838745501919821e-02 1.086821760442294e-02
            -8.458901491134561e-02 2.753740397977293e-02 -1.106749262311713e-01 4.874286483231868e-01 9.838471296707300e-02 1.084866134937402e-02 1.044226357984927e-01 1.989019841318274e-02
467200000.0000000000 1.105135227683723e-01 -7.916233094619739e-03 1.071953984958186e-01 6.765657665042188e-03 6.199314472401815e-02 4.953776625970684e-01 -6.869858683456796e-02 5.395413307508454e-02
            1.073224770552688e-01 6.786495205088693e-03 1.104608549319156e-01 -7.921222637244164e-03 -6.867427132505499e-02 5.400629131123345e-02 6.198577573177175e-02 4.953454865432659e-01
            6.192789926716360e-02 4.953722773822835e-01 -6.869809317811862e-02 5.392914893360540e-02 1.123933993542094e-01 3.651250335145045e-03 1.033863376419124e-01 -4.801295656007864e-03
            -6.878601991380093e-02 5.391248904901901e-02 6.210201729747478e-02 4.953586932930729e-01 1.032793374867611e-01 -4.767758158258612e-03 1.123933534557756e-01 3.672116076993200e-03
468032500.0000000000 1.032418165604436e-01 -2.295293387084973e-02 1.033937958725828e-01 -1.009609152587044e-02 2.272027440833287e-01 4.449761593933413e-01 -4.483750604942214e-02 7.405611375691648e-02
            1.034144971692230e-01 -1.009903913462090e-02 1.031870020653433e-01 -2.288857238228048e-02 -4.471572628716402e-02 7.409654719708293e-02 2.271896984795157e-01 4.449829524538328e-01
            2.272235090518548e-01 4.448970144561563e-01 -4.470569922634633e-02 7.395937530567837e-02 1.076794320841130e-01 -1.330909860442839e-02 9.617634193276484e-02 -2.033476270638810e-02
            -4.478200602075449e-02 7.403646105864069e-02 2.272830510984814e-01 4.449472034244270e-01 9.616537088647398e-02 -2.035888418920283e-02 1.076453600459197e-01 -1.330618519884066e-02
468865000.0000000000 8.700544031908881e-02 -2.949911387323250e-02 8.950293354111044e-02 -2.012021992152136e-02 3.666430058265343e-01 3.414399765980371e-01 -1.441596517496964e-02 8.435549825645793e-02
            8.957226763020390e-02 -2.012442375010844e-02 8.694992096480235e-02 -2.949547707770269e-02 -1.440694609204739e-02 8.439530714471838e-02 3.666977673100528e-01 3.414471144867404e-01
            3.667271104499090e-01 3.414327707809539e-01 -1.444930801445892e-02 8.442390931023484e-02 9.285652191735323e-02 -2.247100045801781e-02 7.969030887663690e-02 -2.785279917093286e-02
            -1.440710462903763e-02 8.444004506165088e-02 3.667221962415283e-01 3.414770868683913e-01 7.970868366328285e-02 -2.784657916585024e-02 9.289785719752197e-02 -2.245988255966251e-02
469697500.0000000000 6.941122199615732e-02 -2.349954442337673e-02 7.282819911139760e-02 -1.819734828612260e-02 4.633672158766526e-01 1.951377040939384e-01 1.820063830445407e-02 8.209811941928136e-02
            7.285146001964343e-02 -1.830798716906166e-02 6.940562939224046e-02 -2.348668971452488e-02 1.813546879532370e-02 8.217057290635127e-02 4.633919743068084e-01 1.951109587932285e-01
            4.632989498149596e-01 1.952100193375315e-01 1.812806774057096e-02 8.207392304697711e-02 7.552193515548207e-02 -1.909795274484033e-02 6.125530243439913e-02 -2.257842724371402e-02
            1.812311170420449e-02 8.215373528058348e-02 4.634389758111085e-01 1.951211716173436e-01 6.122212023762236e-02 -2.264548818695077e-02 7.550525363119123e-02 -1.905143323739293e-02
470530000.0000000000 5.968071385681094e-02 -6.717480009779715e-03 6.194380926900569e-02 -5.471736712750924e-03 5.034425383731967e-01 2.277478804657180e-02 4.646152067128082e-02 6.686129844122972e-02
            6.195103601119139e-02 -5.512692462222471e-03 5.958007847445952e-02 -6.756228878326453e-03 4.647195206308590e-02 6.687537772640374e-02 5.034020811739071e-01 2.274341197708288e-02
            5.034728814545634e-01 2.273163397565603e-02 4.643465262758541e-02 6.686303791729227e-02 6.494541552874245e-02 -4.414731310428513e-03 4.973506060858227e-02 -6.053255738526699e-03
            4.647225352407454e-02 6.690360612887065e-02 5.034946855310759e-01 2.271865532865115e-02 4.971756021458871e-02 -5.998152670797794e-03 6.488059899399905e-02 -4.289684669228340e-03
471362500.0000000000 6.322229079045427e-02 1.307176555611845e-02 6.283208446745703e-02 1.114272806224117e-02 4.800438191522216e-01 -1.533272678532438e-01 6.514195948528534e-02 4.249132722074730e-02
            6.282844198371157e-02 1.116753298664365e-02 6.317349908102925e-02 1.306300548283269e-02 6.513794131382405e-02 4.257897455304881e-02 4.800157077723183e-01 -1.532413916482747e-01
            4.799686492282627e-01 -1.532601837462095e-01 6.517502483007533e-02 4.251840909181244e-02 6.703359484735283e-02 1.435000381245496e-02 5.117203912912211e-02 1.459545542553564e-02
            6.512279492968166e-02 4.252456073616467e-02 4.800090619827646e-01 -1.533440331081155e-01 5.125350321592672e-02 1.465287716730403e-02 6.693438531118326e-02 1.429411150775026e-02
472195000.0000000000 7.900122604416532e-02 2.607726017895542e-02 7.486287630902419e-02 2.271111392016696e-02 3.962760516966594e-01 -3.091005751491887e-01 7.216194280194441e-02 1.522582476393980e-02
            7.496135474285774e-02 2.275901007515672e-02 7.901945113514953e-02 2.602847698091719e-02 7.220755013123913e-02 1.518216528894174e-02 3.962098370736576e-01 -3.091142746098153e-01
            3.962832787594757e-01 -3.091401900721641e-01 7.220831229326148e-02 1.520969741208610e-02 8.142622913491560e-02 2.714250603657889e-02 6.520617881864216e-02 2.968115788615848e-02
            7.214023108855963e-02 1.523832673616823e-02 3.962325550097546e-01 -3.090984775590576e-01 6.521435580490638e-02 2.970986121320765e-02 8.137164361458203e-02 2.718992808766512e-02
473027500.0000000000 9.941348933101053e-02 2.589636570705814e-02 9.165903076877085e-02 2.303941891571619e-02 2.647163919199509e-01 -4.249730341144108e-01 6.951065175360610e-02 -1.053709332143730e-02
            9.170289565489798e-02 2.313704910968008e-02 9.949310981867762e-02 2.583597471254421e-02 6.962563136708734e-02 -1.050205772318790e-02 2.647862096183677e-01 -4.249369261974701e-01
            2.647854677436815e-01 -4.248695210212134e-01 6.957877147596721e-02 -1.047010751083764e-02 1.010157393786092e-01 2.762158625379782e-02 8.501526686574386e-02 3.273612042449171e-02
            6.950894990953185e-02 -1.041793328421620e-02 2.646712858330601e-01 -4.249530080996403e-01 8.502027093249764e-02 3.267275789328458e-02 1.009111339573238e-01 2.769001540303383e-02
473860000.0000000000 1.151012537176257e-01 1.279829629408520e-02 1.045986919487940e-01 1.199706070130485e-02 1.033841338372459e-01 -4.882257540201280e-01 5.984206321578469e-02 -3.241231508066200e-02
            1.046403537797089e-01 1.201773394530205e-02 1.151662747066523e-01 1.274996287475272e-02 5.977415280904428e-02 -3.250630056252615e-02 1.033249553658617e-01 -4.882493709837344e-01
            1.033406419320233e-01 -4.882166152997924e-01 5.979808144419763e-02 -3.253342909328505e-02 1.165157485743168e-01 1.554710377215069e-02 1.014865209217945e-01 2.330734842494677e-02
            5.980355087119117e-02 -3.243311299853726e-02 1.033882509739241e-01 -4.881758774616834e-01 1.015282653385437e-01 2.333251612710870e-02 1.165449718498258e-01 1.555150358559610e-02
474692500.0000000000 1.190617166551174e-01 -7.317302668613640e-03 1.071768152814543e-01 -5.191436956866133e-03 -6.867696050224928e-02 -4.936636119698290e-01 4.423377441704787e-02 -5.027569856513493e-02
            1.071016555676909e-01 -5.153515392262832e-03 1.190982920841890e-01 -7.375483520201847e-03 4.418275243077023e-02 -5.034237377704918e-02 -6.859699453826472e-02 -4.936711664460590e-01
            -6.864768819274712e-02 -4.936074902039701e-01 4.423325090124949e-02 -5.032870263035507e-02 1.211137695812255e-01 -3.674307584955335e-03 1.079180364149699e-01 6.442297053278740e-03
            4.419383082483518e-02 -5.036630794236543e-02 -6.869397740985751e-02 -4.936153071307010e-01 1.080273020811615e-01 6.449112636116422e-03 1.210950825431259e-01 -3.676892747670700e-03
475525000.0000000000 1.094155482242974e-01 -2.547157029954098e-02 9.784663160803528e-02 -2.036725302941619e-02 -2.329116831730437e-01 -4.414699575952915e-01 2.313054696654441e-02 -6.266247880153064e-02
            9.777404744265565e-02 -2.031240973025045e-02 1.094072674560643e-01 -2.556807023108528e-02 2.311062965644525e-02 -6.263650389054672e-02 -2.328279646391130e-01 -4.414480714754240e-01
            -2.328105128774811e-01 -4.415308432904403e-01 2.309400950515571e-02 -6.264129662168715e-02 1.127906228139504e-01 -2.144506486690640e-02 1.023502000611038e-01 -9.640973116540335e-03
            2.310630650311896e-02 -6.264654048412822e-02 -2.328110944385119e-01 -4.414578641591608e-01 1.023175670920593e-01 -9.705695985381355e-03 1.127208871362349e-01 -2.133386371360042e-02
476357500.0000000000 9.018612746417574e-02 -3.360647610847998e-02 8.005224088451139e-02 -2.608551583394532e-02 -3.709348609274419e-01 -3.363585462698853e-01 -2.309804144954385e-03 -6.650472004899159e-02
            8.006264693334637e-02 -2.604142058600343e-02 9.022322529319615e-02 -3.365323107911035e-02 -2.373848093787235e-03 -6.649221384777515e-02 -3.709727238139213e-01 -3.363617165409724e-01
            -3.709643082898718e-01 -3.363759943512983e-01 -2.266038880591118e-03 -6.640869508837205e-02 9.527691863812651e-02 -2.989544923602567e-02 8.783313473044631e-02 -1.760029549280191e-02
            -2.320275870991828e-03 -6.640156158231188e-02 -3.709330707653639e-01 -3.363669582896611e-01 8.786928897257583e-02 -1.750468479778316e-02 9.529293444264911e-02 -2.983895646002279e-02
477190000.0000000000 7.010411776724798e-02 -2.760626431177580e-02 6.216893615025792e-02 -1.879056744156782e-02 -4.657223700215334e-01 -1.887669943014076e-01 -2.786587430271599e-02 -5.948563666463399e-02
            6.220171541317773e-02 -1.883533896305218e-02 7.006717129753934e-02 -2.761940575421025e-02 -2.779563212874000e-02 -5.943937417913158e-02 -4.657364781811067e-01 -1.887388763353870e-01
            -4.658053305846641e-01 -1.887791280046620e-01 -2.783175083862791e-02 -5.948735392991309e-02 7.652714687536276e-02 -2.521255387734197e-02 7.212385130194882e-02 -1.324185998042204e-02
            -2.784011060071591e-02 -5.949762605105492e-02 -4.657670861898459e-01 -1.887256264712821e-01 7.218129411201368e-02 -1.323814226429328e-02 7.661067480371625e-02 -2.521143972334116e-02
478022500.0000000000 5.848543157956167e-02 -1.020410704755735e-02 5.293734116535059e-02 -1.046219222171232e-03 -5.032497504553766e-01 -1.582778220628741e-02 -4.775471695979414e-02 -4.213769928278187e-02
            5.294892782372832e-02 -1.022632431653270e-03 5.848497647007321e-02 -1.009240275916837e-02 -4.772657336249655e-02 -4.203707637392595e-02 -5.033223195348839e-01 -1.575786830665341e-02
            -5.033172019855022e-01 -1.579278696177161e-02 -4.769803217446399e-02 -4.203068068978812e-02 6.569999974590507e-02 -9.631213453916121e-03 6.381516932847987e-02 9.983575851824225e-04
            -4.774105946803833e-02 -4.208125064971465e-02 -5.032409281077974e-01 -1.574103176473340e-02 6.378837534829741e-02 1.001092971862875e-03 6.570768620794692e-02 -9.698974029403121e-03
478855000.0000000000 6.092708591366457e-02 1.041933780241247e-02 5.749097809576199e-02 1.886843555908741e-02 -4.771841333329554e-01 1.597208997317277e-01 -5.766165467208631e-02 -1.893336151344707e-02
            5.743081590572417e-02 1.891844939764445e-02 6.094805262799453e-02 1.043889435080325e-02 -5.761719197559740e-02 -1.883515903355522e-02 -4.771584005620010e-01 1.597147109284888e-01
            -4.770635423343254e-01 1.597336919755001e-01 -5.758769209097782e-02 -1.890777494957992e-02 6.793093339759604e-02 8.654811130073469e-03 6.783852270576406e-02 1.761143752913370e-02
            -5.758590322737362e-02 -1.883407388387939e-02 -4.771867504236615e-01 1.596758974681908e-01 6.780059585025633e-02 1.756308516557327e-02 6.795623856301539e-02 8.816818755702874e-03
479687500.0000000000 7.565669684128246e-02 2.413989215390235e-02 7.380344268959346e-02 3.130826990273112e-02 -3.913972059984021e-01 3.139156150199352e-01 -5.705368216423384e-02 4.261223919658137e-03
            7.382858381187346e-02 3.125047096278358e-02 7.562519653283635e-02 2.411657413841392e-02 -5.711764016326560e-02 4.250456563142325e-03 -3.913748905000678e-01 3.139307677967471e-01
            -3.913615327361551e-01 3.139374573182915e-01 -5.706317253717928e-02 4.186056603628203e-03 8.164121579470898e-02 2.055031525217650e-02 8.252790278594238e-02 2.746829740857777e-02
            -5.709358912278374e-02 4.211600391526539e-03 -3.914150199117344e-01 3.139685753217569e-01 8.254150867862919e-02 2.746595845644027e-02 8.158596357170150e-02 2.044060287265998e-02
480520000.0000000000 9.492868870436563e-02 2.489661977678665e-02 9.407009479167434e-02 3.040364480472380e-02 -2.586490705450419e-01 4.275416766209703e-01 -4.891350576374629e-02 2.343605335894666e-02
            9.407839302571502e-02 3.044831924098743e-02 9.488816804878983e-02 2.489119915287156e-02 -4.888978795729577e-02 2.337021664025631e-02 -2.586474263863331e-01 4.275042503644741e-01
            -2.586441456381643e-01 4.275472403480743e-01 -4.887753902267875e-02 2.340818509683480e-02 9.914670367183910e-02 1.996206715111324e-02 1.006456592304919e-01 2.522877428524945e-02
            -4.883449540250757e-02 2.336031888321411e-02 -2.586943625569913e-01 4.275492785573333e-01 1.007182025963145e-01 2.514731418103103e-02 9.910754496408719e-02 1.993360118457690e-02
481352500.0000000000 1.094384134518003e-01 1.336445007834002e-02 1.090471961419699e-01 1.715955454616473e-02 -9.688959053631889e-02 4.886171695852976e-01 -3.611652542910559e-02 3.761610261717575e-02
            1.090946851146684e-01 1.713287525663929e-02 1.093851309946676e-01 1.340203633775047e-02 -3.620179781408051e-02 3.767941941382099e-02 -9.690048354935030e-02 4.886495971343202e-01
            -9.690699551918024e-02 4.887009075282186e-01 -3.616087941183769e-02 3.765762922224883e-02 1.116005141486439e-01 8.080114339485736e-03 1.135289547615399e-01 1.172546304978938e-02
            -3.614040642621304e-02 3.765536486534125e-02 -9.695834640108773e-02 4.886790933127207e-01 1.136634882414397e-01 1.162705364745362e-02 1.115388117412024e-01 8.031462623715889e-03
482185000.0000000000 1.125796337999281e-01 -4.252918517434105e-03 1.122342028429626e-01 -2.187026984659054e-03 7.497774749889839e-02 4.919734779942890e-01 -2.019779926796956e-02 4.738959918699073e-02
            1.123237435035391e-01 -2.242408569965931e-03 1.126574035361526e-01 -4.261546107515213e-03 -2.022558766541365e-02 4.735290664866714e-02 7.501690548783739e-02 4.920760418141749e-01
            7.491879549381618e-02 4.920105978113510e-01 -2.024843670261532e-02 4.737163122202292e-02 1.130731290625934e-01 -9.091053639638282e-03 1.153493700696131e-01 -7.131488570201852e-03
            -2.018912597164869e-02 4.739933844478939e-02 7.498160673094721e-02 4.921549805317555e-01 1.153119572637980e-01 -7.195769240087609e-03 1.130102690007344e-01 -9.126430041050704e-03
483017500.0000000000 1.034981007881566e-01 -1.926017442491226e-02 1.025401782584813e-01 -1.912896188903937e-02 2.384229176674612e-01 4.377348502897770e-01 -1.291767240138242e-03 5.170811550630203e-02
            1.025231254711054e-01 -1.906236443966735e-02 1.034491730885925e-01 -1.933489494941719e-02 -1.300132648388586e-03 5.160885925202684e-02 2.384396116377819e-01 4.378219873928083e-01
            2.383974792299945e-01 4.378266538240445e-01 -1.222677506281891e-03 5.176367391113987e-02 1.025137675034253e-01 -2.317548334225680e-02 1.049597637874512e-01 -2.300684159353989e-02
            -1.268981698618674e-03 5.170224424631411e-02 2.384097824343502e-01 4.377450435495005e-01 1.049432665917566e-01 -2.300572844051520e-02 1.025478496669134e-01 -2.321194350329717e-02
483850000.0000000000 8.652629665037675e-02 -2.434657749211086e-02 8.428514493763499e-02 -2.570886672536884e-02 3.751635957664000e-01 3.306980116808397e-01 1.929809221751664e-02 4.862359555791954e-02
            8.431470545977987e-02 -2.578477028063743e-02 8.651750400383525e-02 -2.445578833395731e-02 1.925471094266762e-02 4.859418315615609e-02 3.751157306095676e-01 3.307624257266887e-01
            3.750837156898980e-01 3.307262347883780e-01 1.921632105994160e-02 4.859121398185684e-02 8.475007447738886e-02 -2.701999079050403e-02 8.687434294958503e-02 -2.878904354714334e-02
            1.923779843085440e-02 4.857636896679859e-02 3.752277880617850e-01 3.307032605067542e-01 8.696634058679435e-02 -2.896785417929820e-02 8.473656674851038e-02 -2.694036889781432e-02
484682500.0000000000 7.034425266366702e-02 -1.647803123652003e-02 6.616035716122649e-02 -1.871013981001361e-02 4.675413684697324e-01 1.815948835759508e-01 3.758094361346034e-02 3.649759446196217e-02
            6.610793854724720e-02 -1.878522496339807e-02 7.022081290351392e-02 -1.653781709610301e-02 3.762105076116961e-02 3.647928447118132e-02 4.675620510073981e-01 1.815765395885315e-01
            4.675092958135142e-01 1.815138684524508e-01 3.759585712309668e-02 3.643195481402309e-02 6.828741994008945e-02 -1.778187619773857e-02 6.962891965972738e-02 -2.174740168143920e-02
            3.758778896208956e-02 3.647445720958389e-02 4.675918733640857e-01 1.815664066172763e-01 6.954867748163729e-02 -2.177614853731390e-02 6.826986893943095e-02 -1.774910535961952e-02
485515000.0000000000 6.336293718965505e-02 8.222693057306498e-04 5.698877342837794e-02 -1.542759280128806e-03 5.020657310787158e-01 8.260253923547102e-03 4.866513474269607e-02 1.689772615252742e-02
            5.703860360220368e-02 -1.468058663525510e-03 6.343206119877945e-02 9.169392527009843e-04 4.872037959982772e-02 1.695105687868545e-02 5.020432554860588e-01 8.196065403910142e-03
            5.020594408905323e-01 8.195184023340484e-03 4.859881000579122e-02 1.690747169508939e-02 6.160054671675107e-02 7.334407544447422e-04 6.137066362220039e-02 -5.144901378620719e-03
            4.865462613535316e-02 1.693919334499028e-02 5.020836208645141e-01 8.158629990064552e-03 6.142180906470458e-02 -5.165921479110111e-03 6.164072032280456e-02 8.408483663987610e-04
486347500.0000000000 7.014477340421013e-02 1.888114033298221e-02 6.171775452422279e-02 1.746565712174220e-02 4.729353370796405e-01 -1.662665674379012e-01 4.949252102235323e-02 -4.760219435379188e-03
            6.164158442146217e-02 1.742954751444555e-02 7.017736634364148e-02 1.883790807866564e-02 4.944961637950530e-02 -4.782720052437084e-03 4.729769335659676e-01 -1.662438849944018e-01
            4.729267312177454e-01 -1.662336066314534e-01 4.945553301447400e-02 -4.852102111313837e-03 6.888782829913741e-02 1.976025460802225e-02 6.645899419544733e-02 1.227917561344832e-02
            4.951247208495573e-02 -4.884954032620945e-03 4.728738620417623e-01 -1.662032145011998e-01 6.651976699341602e-02 1.226396021234864e-02 6.889488468019292e-02 1.977626108014362e-02
487180000.0000000000 8.744664717575411e-02 2.802550825790960e-02 7.756654122518317e-02 2.867069675449585e-02 3.849131097904758e-01 -3.180433001437698e-01 4.114371974054098e-02 -2.327951847769093e-02
            7.759257128678509e-02 2.863470537123468e-02 8.746051841684817e-02 2.800907628706661e-02 4.115673412968937e-02 -2.324394230552867e-02 3.848152954898259e-01 -3.180134378729060e-01
            3.849632268982828e-01 -3.180858960307227e-01 4.121800761578241e-02 -2.324671255492584e-02 8.689933664900909e-02 2.972688389558853e-02 8.190988167625897e-02 2.167186276564426e-02
            4.128063736923406e-02 -2.326306528342787e-02 3.849580833760895e-01 -3.180632869424485e-01 8.190139419190776e-02 2.171755830442625e-02 8.694001389402635e-02 2.973223458007957e-02
488012500.0000000000 1.068749552040509e-01 2.366707036248095e-02 9.680864272755003e-02 2.692248886966244e-02 2.514559445824457e-01 -4.287713336254133e-01 2.773295248160949e-02 -3.549553059047816e-02
            9.683220197791241e-02 2.690839062739533e-02 1.068200407749965e-01 2.369043641051496e-02 2.774422351375654e-02 -3.548393059465905e-02 2.514332661085265e-01 -4.287327605212647e-01
            2.515186764902855e-01 -4.287606600687470e-01 2.776369642729486e-02 -3.544823632985742e-02 1.071711778442641e-01 2.621363432421930e-02 9.967145918985360e-02 1.833074421681458e-02
            2.777222685296994e-02 -3.546012623568655e-02 2.514941429916561e-01 -4.288991187083181e-01 9.974009661840298e-02 1.825015332152413e-02 1.071841463195643e-01 2.620785257010928e-02
488845000.0000000000 1.192138113185411e-01 7.883130508040870e-03 1.102929386692889e-01 1.354047169535804e-02 9.002982557792506e-02 -4.872361796439086e-01 1.254513693689232e-02 -4.181954224704650e-02
            1.103783428241253e-01 1.354598457526338e-02 1.192910159885314e-01 7.905539932809192e-03 1.254182161512074e-02 -4.173596335619369e-02 9.012169328793974e-02 -4.872617424121031e-01
            9.011559872574897e-02 -4.873429790719776e-01 1.255850780828094e-02 -4.169282012182417e-02 1.207007205066620e-01 1.100698475651690e-02 1.110560960670801e-01 4.020526240801996e-03
            1.250964934802177e-02 -4.169252006377246e-02 9.012217917426271e-02 -4.872562208661090e-01 1.111381040155225e-01 4.066441848672552e-03 1.206899239806810e-01 1.107794344508066e-02
489677500.0000000000 1.190046392121060e-01 -1.248666438865005e-02 1.125020784063908e-01 -5.208259535191039e-03 -8.067358460845049e-02 -4.885635283736980e-01 -3.174980539396893e-03 -4.344348537078006e-02
            1.124716207940138e-01 -5.169101374066234e-03 1.189231257942174e-01 -1.240684360514122e-02 -3.199369909942843e-03 -4.330999915481422e-02 -8.071494189858018e-02 -4.886632886132571e-01
            -8.069478116872079e-02 -4.886104474617314e-01 -3.190987166704919e-03 -4.335382789989555e-02 1.219287656791070e-01 -8.926129798507244e-03 1.108450301899032e-01 -1.453928690762792e-02
            -3.189653648806124e-03 -4.328405177349994e-02 -8.065323947165658e-02 -4.885477893781545e-01 1.108767431216451e-01 -1.457552467679634e-02 1.219487910869953e-01 -8.977777342123197e-03
490510000.0000000000 1.058320221475827e-01 -2.837267007380640e-02 1.024498827202892e-01 -2.093404267865432e-02 -2.426376062047244e-01 -4.327162764914069e-01 -1.922651421921968e-02 -4.017645488044187e-02
            1.024404826011704e-01 -2.091613405113110e-02 1.058484261023274e-01 -2.840717468463827e-02 -1.931284205305634e-02 -4.016672849187457e-02 -2.425978175202718e-01 -4.327281075695625e-01
            -2.425925487788674e-01 -4.327422085637469e-01 -1.934611267600137e-02 -4.019608679806079e-02 1.107869453950549e-01 -2.499553061823887e-02 9.877188109668843e-02 -2.930861649525744e-02
            -1.922706274691246e-02 -4.016400437454327e-02 -2.425732223621084e-01 -4.327011336666859e-01 9.872241450484096e-02 -2.931048465947859e-02 1.108133883014875e-01 -2.495765784356067e-02
491342500.0000000000 8.542891079085947e-02 -3.267333532405315e-02 8.479574511891295e-02 -2.662503006581646e-02 -3.773104266031131e-01 -3.245917165562318e-01 -3.469764526360907e-02 -3.080533427513085e-02
            8.483378076593985e-02 -2.659325308501425e-02 8.524633867029778e-02 -3.270497527242983e-02 -3.464671000686548e-02 -3.079024416113295e-02 -3.773567688187220e-01 -3.246000722601137e-01
            -3.773656198269260e-01 -3.246052610016623e-01 -3.469147946818391e-02 -3.078054328820177e-02 9.235144793181867e-02 -3.017767165796428e-02 7.972406581600826e-02 -3.338326820459443e-02
            -3.471407728324794e-02 -3.073440211644626e-02 -3.772913615077843e-01 -3.246285933915240e-01 7.971793446314850e-02 -3.334839161192104e-02 9.237250727792193e-02 -3.014585187790884e-02
492175000.0000000000 6.662200167615004e-02 -2.300676320618555e-02 6.791733093412038e-02 -1.967001469738736e-02 -4.676564073025175e-01 -1.749999192435994e-01 -4.607798851374466e-02 -1.447448037739555e-02
            6.789638562712375e-02 -1.961881774871480e-02 6.663667964059349e-02 -2.299438123374996e-02 -4.606103361677746e-02 -1.444848329499889e-02 -4.675819541464895e-01 -1.750539688510360e-01
            -4.675639999799079e-01 -1.750614746842781e-01 -4.613416794686846e-02 -1.442206726325866e-02 7.568168950548702e-02 -2.221987384637492e-02 6.242159298852246e-02 -2.437003623639660e-02
            -4.610066147665507e-02 -1.445532793079133e-02 -4.675413896654984e-01 -1.750815007300388e-01 6.248431086989779e-02 -2.438912466385180e-02 7.565443074077621e-02 -2.221246188505079e-02
493007500.0000000000 5.846930175918791e-02 -3.624086556108063e-03 6.002640520767048e-02 -3.590749010259106e-03 -4.998006427394132e-01 -2.056724843664538e-03 -4.919274021010341e-02 6.569230865239446e-03
            5.999392409965730e-02 -3.510735240672471e-03 5.842134980944911e-02 -3.603352344294832e-03 -4.915666623486931e-02 6.590776517126108e-03 -4.997873825789033e-01 -2.075484204179290e-03
            -4.998198638601632e-01 -2.054708518210714e-03 -4.918299176980199e-02 6.552271471442863e-03 6.863548046850565e-02 -5.462552816343776e-03 5.494172861668743e-02 -6.631752422864219e-03
            -4.917289563729096e-02 6.637994902054510e-03 -4.997195508670381e-01 -2.078423632735529e-03 5.487684301799475e-02 -6.611081397219094e-03 6.867284168647585e-02 -5.500667294185083e-03
493840000.0000000000 6.450781784362832e-02 1.617937520907774e-02 6.487086285883528e-02 1.336786852756943e-02 -4.687090018705468e-01 1.710897354266850e-01 -4.196837792305686e-02 2.708943941211180e-02
            6.486082100675311e-02 1.335380479796690e-02 6.449586956678623e-02 1.613121223438029e-02 -4.194421741290084e-02 2.706093206918877e-02 -4.687981711057969e-01 1.711272975218913e-01
            -4.687696552850140e-01 1.711062844616811e-01 -4.202869040598123e-02 2.701644808502010e-02 7.499903945325344e-02 1.108634521113825e-02 6.064505805629476e-02 1.125703263232395e-02
            -4.201184928663849e-02 2.702137823992218e-02 -4.687712429620225e-01 1.710565349735289e-01 6.069507734331412e-02 1.119479001101162e-02 7.495017298461937e-02 1.112327616561976e-02
494672500.0000000000 8.144354937972877e-02 2.690768940935820e-02 7.952187829690015e-02 2.234987078426988e-02 -3.794504714117595e-01 3.212351995967839e-01 -2.671540831544167e-02 4.158655128167157e-02
            7.947599021213031e-02 2.235333786088975e-02 8.141924461612757e-02 2.696482105941475e-02 -2.668723041098429e-02 4.164633485760479e-02 -3.793753344985508e-01 3.212227584795762e-01
            -3.794355443334052e-01 3.212217080411868e-01 -2.681107002322123e-02 4.166013033991696e-02 9.059748524538537e-02 1.884514793313577e-02 7.623947966492406e-02 2.041409908279320e-02
            -2.672016696109756e-02 4.165064585012785e-02 -3.794354866360651e-01 3.211578461308122e-01 7.621516006920859e-02 2.046188079199052e-02 9.064735983044765e-02 1.881468931408066e-02
495505000.0000000000 1.005816597489964e-01 2.424463192413161e-02 9.602857365220624e-02 1.919104696504827e-02 -2.452906498095599e-01 4.300784036885631e-01 -8.026079215716089e-03 4.802000947733125e-02
            9.597209751481364e-02 1.919881933099529e-02 1.004581723163248e-01 2.418810645110267e-02 -7.996306244100622e-03 4.802436556050801e-02 -2.452376018881580e-01 4.300971565800449e-01
            -2.453428776771795e-01 4.301467025235350e-01 -8.035580658249121e-03 4.800570076839413e-02 1.074500119955783e-01 1.386648707881854e-02 9.334106038607370e-02 1.713059951088275e-02
            -7.989593201206744e-03 4.800995380579028e-02 -2.452701368305993e-01 4.301314494925412e-01 9.330784699934566e-02 1.717493604943194e-02 1.075031293171611e-01 1.383691479026995e-02
496337500.0000000000 1.127361665923023e-01 1.032317073196566e-02 1.062175647802307e-01 6.038524411963561e-03 -8.358399474551353e-02 4.866574154145891e-01 1.040638763965644e-02 4.711833488720764e-02
            1.062286741647125e-01 6.006845519205979e-03 1.127171593293947e-01 1.024896625780425e-02 1.046971053822237e-02 4.713778399941572e-02 -8.365781568221094e-02 4.867181481002517e-01
            -8.362048684446874e-02 4.865905615819011e-01 1.046633861517323e-02 4.712629855884991e-02 1.168092029020488e-01 -1.019761662898626e-03 1.036972086590400e-01 3.651831331588530e-03
            1.038043586050171e-02 4.704229245393792e-02 -8.373099987260998e-02 4.866530729122153e-01 1.036707206679550e-01 3.586982932065729e-03 1.168010074076456e-01 -1.095055668617592e-03
497170000.0000000000 1.127956255903071e-01 -7.805030300296613e-03 1.053034511971599e-01 -1.069846552644561e-02 8.691994893967186e-02 4.858020209808689e-01 2.702200375024501e-02 4.072678760875399e-02
            1.053339742096411e-01 -1.062180380220097e-02 1.127753370833228e-01 -7.802766246575847e-03 2.699332098793780e-02 4.067708925889828e-02 8.694617352032645e-02 4.858736999722207e-01
            8.696794579241578e-02 4.858197544611968e-01 2.701295238880930e-02 4.069160454254356e-02 1.141047971722987e-01 -1.880636411646956e-02 1.025888338981198e-01 -1.325887941300645e-02
            2.692868803074128e-02 4.065209796586316e-02 8.694490957071335e-02 4.858042574746394e-01 1.025820610738263e-01 -1.322804780780378e-02 1.141163955362293e-01 -1.884521794074750e-02
498002500.0000000000 1.010296949292265e-01 -2.119387293706444e-02 9.354850545823726e-02 -2.308060956052507e-02 2.479736347126920e-01 4.277667152522195e-01 4.118314319761649e-02 2.925005437839015e-02
            9.357781567265519e-02 -2.300829186151013e-02 1.009828526575419e-01 -2.125164264715795e-02 4.122558204859186e-02 2.925555645429061e-02 2.480384750892357e-01 4.277724453615411e-01
            2.480208158654827e-01 4.276934409446355e-01 4.114077344167412e-02 2.921635614046120e-02 1.004318857369207e-01 -3.084360451433904e-02 9.052498243951142e-02 -2.534628665209946e-02
            4.120328845778932e-02 2.919056504878404e-02 2.479314484179352e-01 4.277626683350939e-01 9.053888324223734e-02 -2.541399239368151e-02 1.005469948972704e-01 -3.089742717777442e-02
498835000.0000000000 8.300101661648814e-02 -2.333622853371475e-02 7.626432936366631e-02 -2.476713979301544e-02 3.807905551624219e-01 3.173539986256431e-01 5.173789846017706e-02 1.241107568405027e-02
            7.627088678533239e-02 -2.473903970294443e-02 8.299127262640141e-02 -2.330880371762443e-02 5.169208807707273e-02 1.239967858365429e-02 3.807405488559205e-01 3.173410300555923e-01
            3.808279480030144e-01 3.173075383084565e-01 5.174629923520353e-02 1.239853470585819e-02 8.180991327087136e-02 -3.115393502490428e-02 7.320158284594096e-02 -2.670381892936523e-02
            5.172025659979718e-02 1.243189503336915e-02 3.807672406010122e-01 3.173326261322221e-01 7.320193981685044e-02 -2.672596463715012e-02 8.179759899530481e-02 -3.119793450482205e-02
499667500.0000000000 6.792950523476843e-02 -1.265318474395150e-02 6.162589018338534e-02 -1.463014421479493e-02 4.678115892345455e-01 1.664888581152650e-01 5.539685095147800e-02 -9.116374246959288e-03
            6.165335351095584e-02 -1.471862836835009e-02 6.794762904704267e-02 -1.271789428519981e-02 5.531103271030161e-02 -9.088099890575102e-03 4.678598381523250e-01 1.665021377245383e-01
            4.678698362327085e-01 1.664992787898537e-01 5.536181227464696e-02 -9.114929770313239e-03 6.728827331468461e-02 -1.903694843236276e-02 5.894445565115317e-02 -1.622841148400119e-02
            5.534969409955578e-02 -9.107892669937884e-03 4.678799221742511e-01 1.664908277709168e-01 5.903883715483056e-02 -1.629156998931859e-02 6.730215807064099e-02 -1.899597020042206e-02
500500000.0000000000 6.359511156122249e-02 5.775350708626720e-03 5.712887950796605e-02 2.599115826315556e-03 4.963002427679527e-01 -6.035825953261542e-03 4.913858763647173e-02 -3.199291203363807e-02
            5.717192425442472e-02 2.634920152642580e-03 6.367209823686339e-02 5.773653155114571e-03 4.910103453437777e-02 -3.192771612047739e-02 4.963151739102872e-01 -6.188070147107773e-03
            4.963152837849793e-01 -6.139811492665295e-03 4.908664310926978e-02 -3.197808866507095e-02 6.431316675431784e-02 -2.125418941546185e-04 5.510149678526455e-02 9.941362511269082e-04
            4.907267132233291e-02 -3.188150967911759e-02 4.963697399576829e-01 -6.110955106008818e-03 5.510789384515458e-02 1.043345886092228e-03 6.429786843571567e-02 -7.627003556495860e-05
501332500.0000000000 7.277914195681451e-02 2.285807836405238e-02 6.493618091798931e-02 1.855079804717956e-02 4.622068046507641e-01 -1.771630426134797e-01 3.284411254696348e-02 -5.036275261399936e-02
            6.492848047028141e-02 1.852763455382956e-02 7.281972203802442e-02 2.282914279433669e-02 3.288306398662254e-02 -5.038090450353327e-02 4.621378677704899e-01 -1.771694652307840e-01
            4.621565039079103e-01 -1.771287715876949e-01 3.278846382850072e-02 -5.042106549602233e-02 7.473706039800884e-02 1.607099668725303e-02 6.369834198901578e-02 1.636740677778379e-02
            3.287965437585511e-02 -5.032263731363765e-02 4.622315139260106e-01 -1.770747778784480e-01 6.375695418776760e-02 1.635621929084949e-02 7.469632570876694e-02 1.602380867900454e-02
502165000.0000000000 9.102080208544257e-02 3.004514344180948e-02 8.108534804332808e-02 2.536578832853282e-02 3.711906119374561e-01 -3.240158714282576e-01 1.024502195959977e-02 -5.969653262079716e-02
            8.103097018480476e-02 2.530988523654892e-02 9.104066210333842e-02 2.997348986518565e-02 1.020534654743867e-02 -5.986551077971283e-02 3.711939347505496e-01 -3.240259572501034e-01
            3.712881845178849e-01 -3.240927980398064e-01 1.015734993418716e-02 -5.981968557790301e-02 9.336389857722370e-02 2.140826127614116e-02 8.004082354599561e-02 2.197326663247650e-02
            1.020902613267691e-02 -5.982297016405558e-02 3.712114990562403e-01 -3.240356236956722e-01 8.002661728835694e-02 2.197782325527243e-02 9.340123140427593e-02 2.140615335030541e-02
502997500.0000000000 1.096610856087537e-01 2.394986816880298e-02 9.714099550732730e-02 2.029023491623283e-02 2.369537973421317e-01 -4.296187629335683e-01 -1.333082887551730e-02 -5.920984400900425e-02
            9.721305412695237e-02 2.026699087357512e-02 1.097097754942450e-01 2.394392484811509e-02 -1.334750333898153e-02 -5.918888108764731e-02 2.370331668679836e-01 -4.297470335238682e-01
            2.370333882949581e-01 -4.296387158619082e-01 -1.329091533140860e-02 -5.914884856438078e-02 1.110657102602527e-01 1.329607645550499e-02 9.557897623283935e-02 1.547205984132374e-02
            -1.335783689052557e-02 -5.915727527849494e-02 2.369052914533127e-01 -4.297148526888659e-01 9.559308185334914e-02 1.541867033546903e-02 1.111298350706966e-01 1.329077009194182e-02
503830000.0000000000 1.202160361330474e-01 7.765622268836106e-03 1.059336002163582e-01 6.257390635998832e-03 7.637928962519105e-02 -4.834334244038658e-01 -3.395365043904730e-02 -5.058225955012334e-02
            1.059250786262537e-01 6.295222829641345e-03 1.202200501844081e-01 7.746529302079543e-03 -3.393883313272843e-02 -5.041228604409896e-02 7.643562634145312e-02 -4.833776880032137e-01
            7.635712162829650e-02 -4.833958158786453e-01 -3.392898552445178e-02 -5.043534465181730e-02 1.197002880533141e-01 -4.427529691515880e-03 1.028730980709915e-01 4.113542258481432e-04
            -3.390967318731657e-02 -5.054139712295391e-02 7.634916537723105e-02 -4.833841924274279e-01 1.028527995558565e-01 3.868314212210639e-04 1.197091961259720e-01 -4.407286379491736e-03
504662500.0000000000 1.184297850395698e-01 -1.134120548910826e-02 1.035236828752348e-01 -9.674770932435541e-03 -9.260445246136428e-02 -4.805174411920952e-01 -5.009748349947495e-02 -3.604671436237510e-02
            1.035745234865400e-01 -9.658221788184507e-03 1.184585705748797e-01 -1.140382240531399e-02 -5.015746446964255e-02 -3.605395379347790e-02 -9.265188974658231e-02 -4.805707491719692e-01
            -9.257720993542605e-02 -4.805262106427935e-01 -5.020122910252009e-02 -3.612430071628166e-02 1.152784224633444e-01 -2.372722193927997e-02 9.841996086274153e-02 -1.601254059808760e-02
            -5.018553309799871e-02 -3.601843627572991e-02 -9.274427639169514e-02 -4.804868045514631e-01 9.830754913246188e-02 -1.605607867249931e-02 1.152244012534432e-01 -2.375990639652641e-02
505495000.0000000000 1.053244628521921e-01 -2.489182044931189e-02 9.134129303925489e-02 -1.999154830702801e-02 -2.516391570995627e-01 -4.207599217951072e-01 -6.159669043654283e-02 -1.709781348764351e-02
            9.141484872912853e-02 -2.007570015145583e-02 1.052732710286246e-01 -2.487300076000214e-02 -6.155651533196148e-02 -1.714008983647759e-02 -2.516233460587539e-01 -4.207169867839951e-01
            -2.516153568289742e-01 -4.207573873400003e-01 -6.156215249994065e-02 -1.713275808621407e-02 9.944637729465701e-02 -3.619227149048401e-02 8.388414725449633e-02 -2.583413518199707e-02
            -6.153778938520275e-02 -1.706656343381299e-02 -2.516334366192519e-01 -4.207813303572906e-01 8.375676521147300e-02 -2.583561613383793e-02 9.940494545807534e-02 -3.620372921700409e-02
506327500.0000000000 8.684096957603650e-02 -2.682115742086673e-02 7.535268444678521e-02 -1.970054107351981e-02 -3.819088367029950e-01 -3.094251741787837e-01 -6.676160270300795e-02 6.090899259021299e-03
            7.533328029838492e-02 -1.971808980084251e-02 8.689476188799003e-02 -2.680069208201443e-02 -6.676808170178605e-02 6.126299960399415e-03 -3.820058996855026e-01 -3.094131230858250e-01
            -3.819540373119801e-01 -3.094106787866188e-01 -6.673873878267306e-02 6.005549883050743e-03 7.925739671467377e-02 -3.595998108613464e-02 6.563743807128374e-02 -2.378318086742469e-02
            -6.681553379740914e-02 6.063108111440904e-03 -3.819600833951687e-01 -3.094297291882293e-01 6.568529911577531e-02 -2.377030400905651e-02 7.919946434176976e-02 -3.592238895524764e-02
507160000.0000000000 7.189020041231139e-02 -1.656607657719868e-02 6.354017481777538e-02 -8.542706644540652e-03 -4.660278376913662e-01 -1.584582373852931e-01 -6.304017205360536e-02 3.185585210754231e-02
            6.350542442660979e-02 -8.505655007719156e-03 7.188127662261201e-02 -1.653982211844721e-02 -6.300926415656521e-02 3.185305834870299e-02 -4.659735331306325e-01 -1.584675461722131e-01
            -4.659723742322062e-01 -1.584232029007922e-01 -6.307306749690067e-02 3.185206033178587e-02 6.390406897452945e-02 -2.293057881456817e-02 5.261133721283583e-02 -1.001855220534996e-02
            -6.306359464420939e-02 3.179843932259380e-02 -4.660776372586457e-01 -1.584394995038738e-01 5.261223694508945e-02 -1.002578076824140e-02 6.392186345068418e-02 -2.298900062864135e-02
507992500.0000000000 6.771720148593864e-02 6.296727822009345e-04 6.239617542228489e-02 7.888254570270896e-03 -4.916030459807023e-01 1.302168603196202e-02 -4.829146909456027e-02 5.589186930754671e-02
            6.236330252793425e-02 7.912352100326609e-03 6.775184542274273e-02 5.711622408859172e-04 -4.838707443169602e-02 5.595488469608714e-02 -4.915689172738592e-01 1.303462130206188e-02
            -4.916067095189754e-01 1.298946053018408e-02 -4.838100753122818e-02 5.589073444357293e-02 6.076799817745453e-02 -3.495347055981541e-03 5.133420602657615e-02 9.277963907244851e-03
            -4.834625874358299e-02 5.596657079193176e-02 -4.915689307867250e-01 1.300486247480710e-02 5.134771358995743e-02 9.353793818529422e-03 6.074257210591204e-02 -3.578856418535007e-03
508825000.0000000000 7.592001730097581e-02 1.563287928579930e-02 7.272528357412890e-02 2.101315319899843e-02 -4.551759444134494e-01 1.817287164769289e-01 -2.383053532142464e-02 7.233947659469142e-02
            7.267514918735740e-02 2.110377387663380e-02 7.590922311516472e-02 1.565820020585708e-02 -2.385274102106716e-02 7.236513502601252e-02 -4.552142887703018e-01 1.817223445777781e-01
            -4.551422245393345e-01 1.816795538370577e-01 -2.379763923705662e-02 7.237389020373304e-02 7.084690858918465e-02 1.267452633615561e-02 6.273554912040777e-02 2.504956360173279e-02
            -2.389646213422187e-02 7.234478486944647e-02 -4.551948988260796e-01 1.817909610102345e-01 6.290044216898022e-02 2.500621491054826e-02 7.087783670419898e-02 1.272790507221393e-02
509657500.0000000000 9.163982312488023e-02 2.101280563926274e-02 8.934142931229332e-02 2.389753268512946e-02 -3.631516621158569e-01 3.258204481486059e-01 5.634751300132562e-03 7.720981943959229e-02
            8.929314532075872e-02 2.393247599352403e-02 9.174403535656937e-02 2.099855574027428e-02 5.582193153123385e-03 7.721403916369261e-02 -3.631751883411267e-01 3.258305693686692e-01
            -3.631654069622003e-01 3.257738534172656e-01 5.603263266364862e-03 7.717442733417748e-02 8.857718269048612e-02 1.790596921412518e-02 8.139266269864660e-02 2.981879536159724e-02
            5.580391355618415e-03 7.722080589903449e-02 -3.632025657864531e-01 3.256966453589369e-01 8.144049782019719e-02 2.978996858914179e-02 8.847603863281170e-02 1.789937017877217e-02
510490000.0000000000 1.065818106196961e-01 1.446930331309556e-02 1.039049944807993e-01 1.521016328737964e-02 -2.289847091529281e-01 4.285823980875357e-01 3.387958204177231e-02 7.019220021668068e-02
            1.038828620287988e-01 1.526391091927109e-02 1.065770935607937e-01 1.446275594586713e-02 3.382229466454575e-02 7.019658635266335e-02 -2.289326590412861e-01 4.285352358235533e-01
            -2.289881680477667e-01 4.286157016558417e-01 3.393714570712820e-02 7.023345784374598e-02 1.047910780279869e-01 1.035857064155146e-02 9.816363445098325e-02 2.192188845704357e-02
            3.382130370434307e-02 7.021126664539969e-02 -2.289624424936711e-01 4.285998240128996e-01 9.813591046207504e-02 2.188075052226161e-02 1.048614034349518e-01 1.025893550816872e-02
511322500.0000000000 1.133198203509462e-01 -2.952334914025944e-04 1.095065373027960e-01 -9.807226746415699e-04 -6.925791110259627e-02 4.798922568407599e-01 5.692295751061437e-02 5.406546703386102e-02
            1.094826439696374e-01 -9.890234684189353e-04 1.133648902900705e-01 -3.349509556580050e-04 5.700509254706732e-02 5.398767950943301e-02 -6.912736894898121e-02 4.798280117345261e-01
            -6.921307419106157e-02 4.799716024456246e-01 5.693839201260505e-02 5.395920954570478e-02 1.118619058437285e-01 -5.875405402249914e-03 1.058000188602936e-01 5.756868761618276e-03
            5.699272562344776e-02 5.399021617912648e-02 -6.922820649030567e-02 4.797949505202282e-01 1.058088689509716e-01 5.699186054633925e-03 1.118000845300893e-01 -5.789459727471299e-03
512155000.0000000000 1.085452626582725e-01 -1.608736558183366e-02 1.034079709204904e-01 -1.727055627047167e-02 9.839898473496732e-02 4.747286072142273e-01 7.333027612423745e-02 3.163084521483134e-02
            1.034057622031926e-01 -1.715706923883352e-02 1.085893413491953e-01 -1.601762939620307e-02 7.325656730055681e-02 3.161308439609935e-02 9.833669958290016e-02 4.747989271136105e-01
            9.842259323429456e-02 4.747311919204771e-01 7.329102687963597e-02 3.166122090083354e-02 1.066254147319201e-01 -2.254628358768011e-02 1.015203942960500e-01 -1.107220896774829e-02
            7.323946856741627e-02 3.158587038213963e-02 9.842300158819114e-02 4.747894495631912e-01 1.014099408709656e-01 -1.112603953454373e-02 1.065817245583768e-01 -2.251727842373548e-02
512987500.0000000000 9.414689950079995e-02 -2.494667602267113e-02 8.802769008513350e-02 -2.586481657889053e-02 2.554423005009904e-01 4.131457598972209e-01 8.208016092680756e-02 4.900836506149475e-03
            8.800374434881798e-02 -2.597317431029720e-02 9.413443697418516e-02 -2.500435453635566e-02 8.211010328796102e-02 4.846507363859629e-03 2.554913051607233e-01 4.130720932831525e-01
            2.554320783290870e-01 4.132137386831611e-01 8.207324308489163e-02 4.825674391611119e-03 9.147230571069284e-02 -3.188552702803524e-02 8.736673677951383e-02 -2.081107525482512e-02
            8.200222381801896e-02 4.820518260551063e-03 2.554651857352321e-01 4.132161708154122e-01 8.727135637772324e-02 -2.075392612657685e-02 9.153128643411450e-02 -3.178543157697435e-02
513820000.0000000000 7.675662720824901e-02 -2.219316686923709e-02 7.037297477340058e-02 -2.278155518131489e-02 3.828576750726261e-01 3.004209840432359e-01 8.193150244041562e-02 -2.494741452830034e-02
            7.033154602059472e-02 -2.273152695437910e-02 7.683725959269282e-02 -2.218985373010252e-02 8.186890685580228e-02 -2.496270989332191e-02 3.827993557111614e-01 3.004778738191716e-01
            3.828312574567579e-01 3.004755965254393e-01 8.186886847698074e-02 -2.496280163260612e-02 7.384002842535446e-02 -2.890590857032656e-02 7.053590916323857e-02 -1.862102268868814e-02
            8.187503338645194e-02 -2.504191771718776e-02 3.828608627923537e-01 3.004168337679752e-01 7.049077846979068e-02 -1.854225322515086e-02 7.388822509198835e-02 -2.886428841404894e-02
514652500.0000000000 6.499679857947496e-02 -8.307412382775995e-03 5.888262326210799e-02 -8.635413865285602e-03 4.634176965961573e-01 1.493362979270115e-01 7.043465482779152e-02 -5.511167316591574e-02
            5.881388044294593e-02 -8.602781718493607e-03 6.497809100260403e-02 -8.186850327228814e-03 7.040119871879477e-02 -5.511135606053202e-02 4.633744232588155e-01 1.493169174349454e-01
            4.634205182079397e-01 1.492923708477426e-01 7.042426268344276e-02 -5.510789473623457e-02 6.249502956906966e-02 -1.474255577865021e-02 5.953022322213770e-02 -5.613950375352913e-03
            7.042957450113653e-02 -5.511613797187905e-02 4.633434022589401e-01 1.492633809858363e-01 5.953986346738649e-02 -5.602120463349849e-03 6.249218238418131e-02 -1.476123343983804e-02
515485000.0000000000 6.504396235192546e-02 1.039362250980242e-02 5.941279575564450e-02 9.724952947304752e-03 4.854126957573404e-01 -2.065621021601942e-02 4.665943617949739e-02 -8.014718705294567e-02
            5.946581280197094e-02 9.665860268542199e-03 6.510856894170512e-02 1.043079729210854e-02 4.673698163306968e-02 -8.016241028631269e-02 4.854698309808719e-01 -2.064862209032677e-02
            4.853967795364122e-01 -2.060076687635034e-02 4.673579983947781e-02 -8.013492318272651e-02 6.351366811825038e-02 3.531156493827842e-03 6.027093088221365e-02 1.149575869128135e-02
            4.676515471331125e-02 -8.014787320708507e-02 4.854122176586680e-01 -2.065245995087178e-02 6.026012608968823e-02 1.149886768605816e-02 6.356225303728937e-02 3.491970649925652e-03
516317500.0000000000 7.711779053570787e-02 2.486233270067159e-02 7.183047014321113e-02 2.307340822666557e-02 4.464039305000411e-01 -1.863109385435163e-01 1.375594168729991e-02 -9.407192372704049e-02
            7.176559830142339e-02 2.310997772616108e-02 7.723579698108710e-02 2.478617465018708e-02 1.374447601986024e-02 -9.405961826840403e-02 4.463685262653410e-01 -1.863280848302546e-01
            4.464122798912519e-01 -1.862598316087338e-01 1.378640553816431e-02 -9.415809184278073e-02 7.668950262481518e-02 1.635045718471815e-02 7.237940755097298e-02 2.377687310939080e-02
            1.367833811039731e-02 -9.409858721279564e-02 4.464867309355626e-01 -1.862852858918503e-01 7.237464949197316e-02 2.370194110624708e-02 7.668457649283021e-02 1.636856719520934e-02
517150000.0000000000 9.559371304651812e-02 2.824205591031667e-02 8.964923237974153e-02 2.527150914904744e-02 3.534543618303783e-01 -3.266037344411169e-01 -2.226958198133715e-02 -9.374185384464144e-02
            8.966423528255241e-02 2.525511571404567e-02 9.560330019675779e-02 2.822182049025656e-02 -2.231501503506388e-02 -9.369339452137140e-02 3.535276847738753e-01 -3.265571046028061e-01
            3.534553669341979e-01 -3.265502120081141e-01 -2.226411062537358e-02 -9.374101195283779e-02 9.516034326098766e-02 1.712754842582821e-02 8.966634135148135e-02 2.475911016726626e-02
            -2.235633594653446e-02 -9.373237848867261e-02 3.535575227461262e-01 -3.266174329522823e-01 8.964819304647782e-02 2.482143459209181e-02 9.514320992373272e-02 1.717906182617799e-02
517982500.0000000000 1.116642563167321e-01 1.956444358440092e-02 1.045422385160415e-01 1.556121110413893e-02 2.198751396107242e-01 -4.258615093577893e-01 -5.470163049326131e-02 -7.987056330876799e-02
            1.045380237533425e-01 1.562353147362961e-02 1.117537056926139e-01 1.963438746851875e-02 -5.482502003955649e-02 -7.990473240802003e-02 2.199416384704535e-01 -4.258058271639957e-01
            2.199640100931209e-01 -4.258173863893401e-01 -5.480979634468554e-02 -7.985505669828341e-02 1.098916695155892e-01 5.456028722700762e-03 1.035060533937670e-01 1.432984789220168e-02
            -5.476727655032654e-02 -7.980661539658680e-02 2.200137795498993e-01 -4.258116337588447e-01 1.034275012934675e-01 1.436185934796964e-02 1.098163352080198e-01 5.479076658079798e-03
518815000.0000000000 1.187422307263826e-01 3.247125552965261e-03 1.096956908675877e-01 -1.238136873568798e-03 6.192931711906821e-02 -4.742551299055681e-01 -7.967952405847595e-02 -5.615137871802860e-02
            1.097818926184038e-01 -1.240691840511913e-03 1.187051721528099e-01 3.204680527560539e-03 -7.965248328309554e-02 -5.610531375444263e-02 6.189302203715462e-02 -4.743426035805541e-01
            6.194256404916298e-02 -4.742670486262782e-01 -7.967935976015972e-02 -5.608140854970845e-02 1.137572243921333e-01 -1.339413405571840e-02 1.073748229886918e-01 -2.767984172693267e-03
            -7.966443316023694e-02 -5.618021836859963e-02 6.190136282148267e-02 -4.743057222324693e-01 1.073357359234249e-01 -2.747470241581466e-03 1.137428881123369e-01 -1.336402724156963e-02
519647500.0000000000 1.141379438184245e-01 -1.333557381285713e-02 1.032813776988983e-01 -1.739936573236942e-02 -1.033500864599069e-01 -4.671484699837187e-01 -9.529452747563712e-02 -2.610810698131933e-02
            1.032310705116240e-01 -1.739785001245900e-02 1.141142388152645e-01 -1.340105846882299e-02 -9.527347029373084e-02 -2.606677898235412e-02 -1.033315605569308e-01 -4.671827691924093e-01
            -1.034296214605104e-01 -4.672075725340592e-01 -9.531223249635729e-02 -2.602565617904461e-02 1.046470093779286e-01 -3.101560784060029e-02 9.946942939988906e-02 -1.863903389910048e-02
            -9.524445642925811e-02 -2.613435909271937e-02 -1.033493664842409e-01 -4.671287544468741e-01 9.945964962690031e-02 -1.864758040452692e-02 1.047489892816635e-01 -3.095116526666182e-02
520480000.0000000000 1.004476175204662e-01 -2.282210720520114e-02 8.800846618054595e-02 -2.563099111977699e-02 -2.575709452282096e-01 -4.042856030123398e-01 -1.009483810485125e-01 7.707202093441308e-03
            8.793169542866797e-02 -2.560622587296397e-02 1.003811164782928e-01 -2.284587446057346e-02 -1.008606777523707e-01 7.861050660615657e-03 -2.575571385919140e-01 -4.043530821469356e-01
            -2.575184721339841e-01 -4.043472788365866e-01 -1.009101510632622e-01 7.751427572586236e-03 8.605298694516661e-02 -3.941334947242232e-02 8.302410407818993e-02 -2.584543981646429e-02
            -1.009521607394923e-01 7.786081269552372e-03 -2.575699552185106e-01 -4.043673312990509e-01 8.301481037477769e-02 -2.595239490014606e-02 8.610875345650700e-02 -3.939467149585229e-02
521312500.0000000000 8.429653871998120e-02 -2.113287359143600e-02 7.091198705711872e-02 -2.215224975855292e-02 -3.818888695857104e-01 -2.913672089187794e-01 -9.533590576914364e-02 4.329472719429080e-02
            7.089790020579340e-02 -2.212985529005507e-02 8.425080322286901e-02 -2.114756743302269e-02 -9.538148195519282e-02 4.338887423143093e-02 -3.818546570467784e-01 -2.913096077313435e-01
            -3.818000833353224e-01 -2.913591680366844e-01 -9.535385764300520e-02 4.337806687169690e-02 6.595465895047566e-02 -3.436796637488165e-02 6.548685177364233e-02 -2.095127467240459e-02
            -9.535854741068607e-02 4.339686384539598e-02 -3.818488682196913e-01 -2.913808387450300e-01 6.550856090449188e-02 -2.100249239272434e-02 6.584000791685674e-02 -3.429371582910716e-02
522145000.0000000000 7.391632011051552e-02 -9.320306577850202e-03 6.037113019024364e-02 -8.454090009654256e-03 -4.591613534346642e-01 -1.410420743732300e-01 -7.669293123779149e-02 7.707980497225053e-02
            6.037250412964584e-02 -8.400887236985144e-03 7.383906791046692e-02 -9.310564845752156e-03 -7.670413710580447e-02 7.697739891851953e-02 -4.592499997783934e-01 -1.410818544808367e-01
            -4.592120676642671e-01 -1.409995042193220e-01 -7.675190532024000e-02 7.699082511012845e-02 5.325705323296291e-02 -1.778054440715511e-02 5.531261301262329e-02 -5.725466604851188e-03
            -7.672397231232589e-02 7.699189188831868e-02 -4.592328771866013e-01 -1.410247770656353e-01 5.527449005432616e-02 -5.735144353676481e-03 5.332704059290518e-02 -1.779219025964112e-02
522977500.0000000000 7.425062001451428e-02 5.924437605092373e-03 6.141957179971844e-02 8.617982959506451e-03 -4.785580282917257e-01 2.681328404954574e-02 -4.508166789276404e-02 1.027260467569642e-01
            6.144032056861978e-02 8.565208905435771e-03 7.422434390261377e-02 5.995303504147471e-03 -4.506819332303315e-02 1.026853115958620e-01 -4.785382857639668e-01 2.688758842563337e-02
            -4.785795317719084e-01 2.691328276612931e-02 -4.512563854084613e-02 1.027493741196137e-01 5.397033305582696e-02 2.461179016024157e-03 5.748840518829609e-02 1.233137685821909e-02
            -4.516216642572551e-02 1.027174099276386e-01 -4.786259961394889e-01 2.686627805005790e-02 5.757532529478555e-02 1.236162715132583e-02 5.399909594775123e-02 2.512526151481114e-03
523810000.0000000000 8.504710634277410e-02 1.662967639183507e-02 7.330234283620439e-02 2.037463063716354e-02 -4.379803679159892e-01 1.896227355425052e-01 -4.693473678685338e-03 1.146876178514711e-01
            7.324343045002278e-02 2.035137358038416e-02 8.495253486358260e-02 1.665291816936487e-02 -4.622050984087019e-03 1.147247080734825e-01 -4.378720790048593e-01 1.897999733768743e-01
            -4.379529549729944e-01 1.896835375374291e-01 -4.571061902737897e-03 1.146689319840557e-01 6.706789918299573e-02 1.686587135917055e-02 7.084181366067793e-02 2.418777392921144e-02
            -4.567844241358475e-03 1.147247845280665e-01 -4.379348533257363e-01 1.897007753721037e-01 7.082413074856303e-02 2.416767618313920e-02 6.702585446538886e-02 1.687176259843538e-02
524642500.0000000000 9.997814723908374e-02 1.711949852423168e-02 8.947502841450410e-02 2.140009671032926e-02 -3.445790608935340e-01 3.269380848084228e-01 3.763648384224118e-02 1.100879823925906e-01
            8.960064048417860e-02 2.141217558529596e-02 1.000030070654077e-01 1.712983922795616e-02 3.776125084112619e-02 1.099978901996823e-01 -3.445528564470473e-01 3.269094652680931e-01
            -3.444614577732385e-01 3.269343054920781e-01 3.769758174089159e-02 1.099882495001240e-01 8.527299889871164e-02 1.910123253864703e-02 8.823305787645823e-02 2.419524142264795e-02
            3.770031309732188e-02 1.099856284930464e-01 -3.446096422188435e-01 3.269643472184831e-01 8.820884816694514e-02 2.419426613334880e-02 8.526200856308595e-02 1.909850755123057e-02
525475000.0000000000 1.113522234254207e-01 7.443072013456791e-03 1.021136152470235e-01 1.183619060036178e-02 -2.113972782625187e-01 4.232496536775369e-01 7.482899589944757e-02 9.018996063906225e-02
            1.021723630629833e-01 1.182482190259122e-02 1.113812011042948e-01 7.493944539383970e-03 7.482504954037279e-02 9.015717853982097e-02 -2.113439256539707e-01 4.233738719756453e-01
            -2.113707803759323e-01 4.232872366280879e-01 7.479773943544120e-02 9.010569685527332e-02 9.967346456226775e-02 9.086715895340380e-03 1.011131602961132e-01 1.287440599501206e-02
            7.485153098747833e-02 9.021691237005645e-02 -2.114231982736854e-01 4.233232308846743e-01 1.010709292849074e-01 1.295208064054377e-02 9.950090683494671e-02 9.101134262895164e-03
526307500.0000000000 1.136102236884035e-01 -7.522683156218484e-03 1.053392934688105e-01 -3.308724765666821e-03 -5.445276089117762e-02 4.691949842019600e-01 1.022336589611086e-01 5.920568029820777e-02
            1.053184296012352e-01 -3.350338376040998e-03 1.136368402090998e-01 -7.538595495993656e-03 1.022703068784145e-01 5.924089566702730e-02 -5.439162530166149e-02 4.692069679947349e-01
            -5.438412210220089e-02 4.691889301665284e-01 1.022605544723530e-01 5.919645061911723e-02 1.033790637038251e-01 -7.369709134710840e-03 1.032709754161372e-01 -4.008484119024108e-03
            1.021768371062311e-01 5.920748861590746e-02 -5.445230842603213e-02 4.692284322804396e-01 1.031761667890307e-01 -4.013388137895329e-03 1.033043032862813e-01 -7.478624200802734e-03
527140000.0000000000 1.053833034007376e-01 -2.044862285878995e-02 9.794020818823738e-02 -1.663185200873558e-02 1.091084700962728e-01 4.597159067282458e-01 1.180624393739127e-01 2.121000055221554e-02
            9.793521902209709e-02 -1.663623419159569e-02 1.054554505345311e-01 -2.043639847808764e-02 1.180150636542103e-01 2.121401779260370e-02 1.091336128886138e-01 4.597235794911907e-01
            1.091035825397599e-01 4.596973521896681e-01 1.179663595012129e-01 2.113820026265234e-02 9.482832174523073e-02 -2.203788163578728e-02 9.362618414824020e-02 -1.833447449789839e-02
            1.180049053557388e-01 2.119820780093385e-02 1.091642547331531e-01 4.597203444123610e-01 9.358138382361506e-02 -1.836651184641388e-02 9.486779685264224e-02 -2.205279878070066e-02
527972500.0000000000 9.042755751043663e-02 -2.493286236684636e-02 8.363755657864866e-02 -2.161878467201523e-02 2.607508966507787e-01 3.947412646492864e-01 1.209390580015248e-01 -2.068532385012460e-02
            8.369468601723520e-02 -2.166527078998616e-02 9.037926313331426e-02 -2.497172473566780e-02 1.208737466275667e-01 -2.071994674315794e-02 2.607151806496105e-01 3.947806012479033e-01
            2.607364209602171e-01 3.947220066940446e-01 1.209143580427283e-01 -2.067936372442795e-02 7.816012266215944e-02 -2.738329041343904e-02 7.638993684161850e-02 -2.316330429407706e-02
            1.209780555015408e-01 -2.071337315526305e-02 2.607786174711183e-01 3.947332040426909e-01 7.635207647013506e-02 -2.314814576033616e-02 7.816744440954496e-02 -2.734922215743189e-02
528805000.0000000000 7.597808691386004e-02 -1.836239404212806e-02 6.983236583480211e-02 -1.568344095110940e-02 3.812965370364252e-01 2.806321045175100e-01 1.095283238131624e-01 -6.293368298185691e-02
            6.992122100699655e-02 -1.574526833406905e-02 7.601350925342470e-02 -1.834997064339222e-02 1.095027977736550e-01 -6.301166190312264e-02 3.813798151044827e-01 2.806376936295289e-01
            3.813213331433230e-01 2.805591091203059e-01 1.094887308741708e-01 -6.298970756024454e-02 6.148004710663391e-02 -1.993297645525171e-02 5.953354161694110e-02 -1.529464843763559e-02
            1.095129543439197e-01 -6.299172896971673e-02 3.813199731426521e-01 2.805203485028244e-01 5.949441281957387e-02 -1.537509819858295e-02 6.146679981867290e-02 -1.991564476600866e-02
529637500.0000000000 6.938000499865375e-02 -3.612331531182516e-03 6.385232360725347e-02 -1.951464190700851e-03 4.542780985605102e-01 1.308088241362402e-01 8.254418775704431e-02 -1.004597291997099e-01
            6.375844246572791e-02 -1.950039327340850e-03 6.945301589942643e-02 -3.658895750096072e-03 8.257772355281043e-02 -1.005361329873083e-01 4.542738304005358e-01 1.308142051473709e-01
            4.542369067755411e-01 1.307262286876686e-01 8.255678613311308e-02 -1.005204671228966e-01 5.343277849486992e-02 -2.585458436585871e-03 5.140586960124983e-02 1.971508899022776e-03
            8.259774540113989e-02 -1.004803909772538e-01 4.542610156518648e-01 1.308019094214401e-01 5.139512212252328e-02 1.982818420039357e-03 5.349736882951070e-02 -2.665461522435767e-03
530470000.0000000000 7.440242287983416e-02 1.186156190942730e-02 6.896373300039672e-02 1.237009359443244e-02 4.696897485236355e-01 -3.451866298509118e-02 4.199060123442741e-02 -1.264225314641706e-01
            6.904379348499437e-02 1.227096072512124e-02 7.433453860146468e-02 1.188575809220370e-02 4.205531774012779e-02 -1.264528851294507e-01 4.697108321850669e-01 -3.454423227169385e-02
            4.698449779092324e-01 -3.454041368352867e-02 4.201636041200429e-02 -1.265069175993912e-01 5.874945984727905e-02 1.628716422232146e-02 5.616134708120234e-02 2.074169185218239e-02
            4.194994435511013e-02 -1.265101834921094e-01 4.697000819966388e-01 -3.446503108708636e-02 5.611950954528523e-02 2.082586459152596e-02 5.867053228812142e-02 1.624640552935631e-02
531302500.0000000000 8.855163166285193e-02 2.010696657058501e-02 8.289192762090955e-02 1.923570366224172e-02 4.267339579970927e-01 -1.931851367339635e-01 -6.604009591588958e-03 -1.351773843959895e-01
            8.288748220802482e-02 1.922865531430315e-02 8.845926483374511e-02 2.018313188971232e-02 -6.543379851705597e-03 -1.351904760627998e-01 4.267432575742307e-01 -1.931238347449705e-01
            4.267567345952200e-01 -1.932340427225193e-01 -6.535747126683119e-03 -1.351425058847422e-01 7.492620136309899e-02 2.755206449292179e-02 7.156619319905426e-02 3.207431915527326e-02
            -6.553992465622317e-03 -1.352122666150102e-01 4.267891055374771e-01 -1.931741481097089e-01 7.154687823479597e-02 3.200159650161517e-02 7.494774026728153e-02 2.754949434582840e-02
532135000.0000000000 1.046796284398244e-01 1.714604382258050e-02 9.820877579511431e-02 1.473465839081103e-02 3.330739465860870e-01 -3.259074055918309e-01 -5.483572155021702e-02 -1.249284749230069e-01
            9.820817909133954e-02 1.478156003114488e-02 1.045872855586290e-01 1.716093332579832e-02 -5.489919945693995e-02 -1.248891206102547e-01 3.330629636694680e-01 -3.258894577888523e-01
            3.331305266168463e-01 -3.258834492111161e-01 -5.490610441836034e-02 -1.250076041252719e-01 9.462022645636360e-02 2.604447745266238e-02 8.997869519321391e-02 3.128423428673769e-02
            -5.479632518258295e-02 -1.249607756361054e-01 3.331966979590095e-01 -3.258586862931073e-01 8.996370745427641e-02 3.126701428730359e-02 9.465448424538156e-02 2.604485877022686e-02
532967500.0000000000 1.150608320902425e-01 4.320861212632240e-03 1.072220057698411e-01 8.649966976365533e-04 2.014946586627819e-01 -4.182287109003565e-01 -9.559551543448513e-02 -9.825679709289542e-02
            1.070878696340029e-01 9.063015401909366e-04 1.150613684019508e-01 4.322356538449330e-03 -9.552249154972074e-02 -9.830483464451793e-02 2.014579478841452e-01 -4.183576712656489e-01
            2.014543262890703e-01 -4.183217836070710e-01 -9.546722540532564e-02 -9.827218518254605e-02 1.086997478695589e-01 1.285510138480315e-02 1.031721969210655e-01 1.965316355019335e-02
            -9.554433521124740e-02 -9.826274208539913e-02 2.014917129491632e-01 -4.182244879956314e-01 1.030965277076534e-01 1.962667348264974e-02 1.086743308090604e-01 1.277269051094498e-02
533800000.0000000000 1.149463179971543e-01 -1.237587130288652e-02 1.049663904737068e-01 -1.631613264571414e-02 4.705245780095072e-02 -4.613132914568431e-01 -1.242221286048197e-01 -6.000853138195075e-02
            1.049429847632397e-01 -1.628309672491594e-02 1.150001414701308e-01 -1.236861906018961e-02 -1.242339112177618e-01 -5.999639906399751e-02 4.703347090865998e-02 -4.612436515516667e-01
            4.710205178840502e-02 -4.612798464212721e-01 -1.242414065418885e-01 -6.009126532068825e-02 1.114555926190878e-01 -6.034586592300132e-03 1.057231269245739e-01 3.185891430380100e-03
            -1.241635841879733e-01 -5.993689324823100e-02 4.707282268018445e-02 -4.612544017971770e-01 1.056967729471904e-01 3.095453990864968e-03 1.114632661739807e-01 -6.003002091210111e-03
534632500.0000000000 1.041648536923514e-01 -2.536220545431633e-02 9.208542400993672e-02 -2.890067011778745e-02 -1.134240876778002e-01 -4.500145155554353e-01 -1.388879161386055e-01 -1.467588711663081e-02
            9.205272874389600e-02 -2.883666339747796e-02 1.042497879350612e-01 -2.544897328105679e-02 -1.389183991343693e-01 -1.462246760244639e-02 -1.134801446842617e-01 -4.499800904700701e-01
            -1.133911406305372e-01 -4.499661949521003e-01 -1.389874976362953e-01 -1.477003040722019e-02 1.017898513931734e-01 -2.201973225870429e-02 9.722524385086033e-02 -1.046974787387059e-02
            -1.389100862395371e-01 -1.470431933908335e-02 -1.134207401444380e-01 -4.499376665405539e-01 9.723266858968750e-02 -1.036969947461012e-02 1.018212519002858e-01 -2.209572312668156e-02
535465000.0000000000 8.738043794396266e-02 -2.860447344033520e-02 7.338382808800588e-02 -3.085874611189798e-02 -2.614337396314387e-01 -3.841648305935334e-01 -1.385052766726143e-01 3.380367120508745e-02
            7.328345058848017e-02 -3.085641052212873e-02 8.739213676400970e-02 -2.861088956303691e-02 -1.384492716295987e-01 3.381115449426725e-02 -2.614696251573739e-01 -3.841839623333952e-01
            -2.615398046485911e-01 -3.841803543897322e-01 -1.384413272549771e-01 3.377728909805894e-02 8.449045166200099e-02 -2.829472162154928e-02 8.219392883625713e-02 -1.454602765490118e-02
            -1.385590745519645e-01 3.387878824511008e-02 -2.615153096887780e-01 -3.841766817105659e-01 8.224293366284462e-02 -1.461414297251349e-02 8.444519821485645e-02 -2.822199442025291e-02
536297500.0000000000 7.252008108713742e-02 -2.033112385835647e-02 5.705169346254235e-02 -2.045550559024234e-02 -3.784302630803050e-01 -2.702334085622592e-01 -1.215344743431091e-01 8.140902300906613e-02
            5.709334588197693e-02 -2.040698705477050e-02 7.250141294274315e-02 -2.023691555373713e-02 -1.215096996787851e-01 8.140403504683581e-02 -3.784996235091852e-01 -2.701309701331556e-01
            -3.784321270515890e-01 -2.701468559818438e-01 -1.215244376132533e-01 8.144653674813238e-02 6.745457112715171e-02 -2.189724101730852e-02 6.847441579494622e-02 -7.300628424810124e-03
            -1.215340749484649e-01 8.143099716075772e-02 -3.783522814240280e-01 -2.701314344198711e-01 6.835507066700738e-02 -7.201281817558964e-03 6.748109933462219e-02 -2.189804075619118e-02
537130000.0000000000 6.667728781379072e-02 -4.366027414710490e-03 5.080573548566259e-02 -1.901933501988095e-03 -4.477934759168789e-01 -1.218359779501552e-01 -8.758163994824025e-02 1.220239327651856e-01
            5.087958227524597e-02 -1.984395632209406e-03 6.667285777235520e-02 -4.339349192410003e-03 -8.748196575418622e-02 1.219784662940363e-01 -4.478688972438136e-01 -1.219745182367720e-01
            -4.478162189224617e-01 -1.219304318023338e-01 -8.751341225649810e-02 1.220181568492406e-01 5.900824860536170e-02 -6.276564995724967e-03 6.335466700747108e-02 7.793249932705560e-03
            -8.757786220738041e-02 1.219161566878083e-01 -4.478521159641993e-01 -1.219371797958190e-01 6.331636375207503e-02 7.791045102667090e-03 5.905041886653022e-02 -6.241512048027685e-03
537962500.0000000000 7.278096137849578e-02 1.111022611762645e-02 5.768097984386984e-02 1.595232367496263e-02 -4.604946204451388e-01 4.057597333607145e-02 -3.916419974424939e-02 1.483017823392862e-01
            5.765087760212307e-02 1.590855388526379e-02 7.279751559773830e-02 1.112438286033164e-02 -3.914427409376307e-02 1.482924908006422e-01 -4.604622800388797e-01 4.053985572003874e-02
            -4.604671850579313e-01 4.056129305221761e-02 -3.917487973122048e-02 1.482920195515526e-01 6.297064832918707e-02 1.056092099217748e-02 7.018081652689286e-02 2.279870138809887e-02
            -3.909702330917784e-02 1.483323876161738e-01 -4.604492981268949e-01 4.054632101384757e-02 7.015360645668176e-02 2.275976456954841e-02 6.294865038730177e-02 1.055287151938400e-02
538795000.0000000000 8.730068496345422e-02 1.839085242848015e-02 7.381612880811622e-02 2.503886607957501e-02 -4.160014882372708e-01 1.955107499410656e-01 1.659223236871498e-02 1.545219127044496e-01
            7.376530479693570e-02 2.502845098727571e-02 8.729797741647066e-02 1.830116953740733e-02 1.657583075421282e-02 1.546016739737771e-01 -4.160480597338969e-01 1.955205997900718e-01
            -4.159803305796727e-01 1.955638933546065e-01 1.661570122159365e-02 1.545271010543253e-01 7.654721315143466e-02 2.004522060570270e-02 8.550272548181584e-02 2.971098571104046e-02
            1.657839701872228e-02 1.545233900685510e-01 -4.159971270885851e-01 1.955422503165374e-01 8.554807906010213e-02 2.968101373539666e-02 7.650653635775502e-02 2.002240804353304e-02
539627500.0000000000 1.025883262635406e-01 1.413679809576830e-02 9.133468626136054e-02 2.177536733460223e-02 -3.223749176805235e-01 3.244656223535360e-01 7.069823781060876e-02 1.397119625419008e-01
            9.128190737337895e-02 2.178433422219948e-02 1.025331011496830e-01 1.404679343582836e-02 7.072948338838383e-02 1.397189682830991e-01 -3.223739246614842e-01 3.244310203096891e-01
            -3.224188096783556e-01 3.243673681867589e-01 7.069009863706388e-02 1.397422943102007e-01 9.243773773927058e-02 1.789108333664480e-02 1.018801124356601e-01 2.495199045101250e-02
            7.077108330076266e-02 1.397824372457616e-01 -3.223662155649067e-01 3.243691368386976e-01 1.018926877641381e-01 2.490474065562325e-02 9.241824722841899e-02 1.795969674056980e-02
540460000.0000000000 1.110227929070596e-01 8.178119460200859e-04 1.019942226329117e-01 8.136248023932677e-03 -1.918236167939973e-01 4.134103083876681e-01 1.155084873672917e-01 1.069297269750283e-01
            1.021200877444293e-01 8.215556252874207e-03 1.110061830666237e-01 7.964831250426490e-04 1.154793020374845e-01 1.068963502844793e-01 -1.918186676167062e-01 4.133734007353539e-01
            -1.919062135750109e-01 4.134200599374013e-01 1.154344087173126e-01 1.068549036546708e-01 1.025072878599323e-01 5.988256363431054e-03 1.116477436931309e-01 1.098730957162683e-02
            1.154769977630960e-01 1.069235149444856e-01 -1.919372120178514e-01 4.133978781552384e-01 1.116543488006270e-01 1.107039156378577e-02 1.024802527839373e-01 5.995214308192974e-03
541292500.0000000000 1.084717751128469e-01 -1.478639293958709e-02 1.013559086072047e-01 -8.655185729034915e-03 -3.945418678351471e-02 4.535443682158245e-01 1.461137795189104e-01 6.151547399701350e-02
            1.013581593862234e-01 -8.747629384580810e-03 1.085358438668501e-01 -1.487989570093214e-02 1.460722867053648e-01 6.147461365858575e-02 -3.948318323631066e-02 4.535887093237694e-01
            -3.945694576872201e-02 4.535053792767634e-01 1.461545766294008e-01 6.149500587430905e-02 1.020459364243134e-01 -9.507111805949967e-03 1.103967178629449e-01 -5.750908035932743e-03
            1.461056543812690e-01 6.156730577148029e-02 -3.949321664593423e-02 4.534726518473497e-01 1.104437959883624e-01 -5.748619396218970e-03 1.020388492391062e-01 -9.517411553592054e-03
542125000.0000000000 9.590042513385269e-02 -2.521233423446272e-02 8.952040319685291e-02 -2.101457209226676e-02 1.183230417089381e-01 4.399837064620477e-01 1.603182711499298e-01 8.391621686072430e-03
            8.963015246598767e-02 -2.093986020234589e-02 9.595376011362296e-02 -2.528851637747401e-02 1.602510153781362e-01 8.539533302821836e-03 1.182617192102040e-01 4.398971784020450e-01
            1.182872518733784e-01 4.399636575843962e-01 1.602849655589571e-01 8.474017168585023e-03 9.099448891170492e-02 -2.102591409319320e-02 9.912792414519306e-02 -1.776002368203952e-02
            1.602421641022816e-01 8.476244019287947e-03 1.182354503949462e-01 4.399757790449887e-01 9.915831014191695e-02 -1.783602332582353e-02 9.095366891991924e-02 -2.105232531730057e-02
542957500.0000000000 7.911149285909660e-02 -2.493644152378113e-02 7.249962553774911e-02 -2.273078520457901e-02 2.627166501935538e-01 3.726274747529718e-01 1.566265556664342e-01 -4.738163638832163e-02
            7.252431664885205e-02 -2.269937240513514e-02 7.906581939491820e-02 -2.484676301937514e-02 1.565355835990607e-01 -4.738935518516027e-02 2.626422463132313e-01 3.725720675427946e-01
            2.627109627063517e-01 3.725563105950603e-01 1.566267906833458e-01 -4.746858546275753e-02 7.463232622340152e-02 -2.232492796955856e-02 8.306335768334434e-02 -1.955796155533970e-02
            1.566491879784995e-01 -4.733830427269676e-02 2.627571685980007e-01 3.725661179608440e-01 8.302318110948230e-02 -1.947820081545150e-02 7.460056716797096e-02 -2.231704087432923e-02
543790000.0000000000 6.607312191460731e-02 -1.322782467274483e-02 5.800726825557834e-02 -1.260270257164215e-02 3.753334253094631e-01 2.584680776634721e-01 1.335974718919977e-01 -1.006614195294524e-01
            5.810925710674961e-02 -1.259490867986158e-02 6.606496945074446e-02 -1.321626147351497e-02 1.335757544305020e-01 -1.007250457385513e-01 3.752876711243211e-01 2.584151275346606e-01
            3.753865823158263e-01 2.584322038318217e-01 1.336080611501136e-01 -1.007104794592404e-01 6.081332964328288e-02 -1.217954370028656e-02 7.010765228807114e-02 -1.020924069574202e-02
            1.335728256124236e-01 -1.007723924230968e-01 3.753028349718300e-01 2.584455121682196e-01 7.012029619632128e-02 -1.013141365382938e-02 6.085805879133175e-02 -1.212048658422645e-02
544622500.0000000000 6.380892518222800e-02 4.624562327589878e-03 5.353987979404470e-02 4.738083980370927e-03 4.403172133911655e-01 1.118346276996768e-01 9.167152009612761e-02 -1.442758324945888e-01
            5.365192906512389e-02 4.612411312167659e-03 6.389416967222987e-02 4.525882154635454e-03 9.170731022555551e-02 -1.442388527582067e-01 4.403233017303861e-01 1.118315078447231e-01
            4.403759382697169e-01 1.118366434043652e-01 9.164325574495971e-02 -1.443025706582997e-01 5.691139326537655e-02 4.927299942230025e-03 6.722548951148219e-02 5.307100892113937e-03
            9.164969281986216e-02 -1.442728409833814e-01 4.403667212107674e-01 1.118957219678710e-01 6.724828880064908e-02 5.247468388254233e-03 5.689055126158873e-02 4.901461964985555e-03
545455000.0000000000 7.385710535492536e-02 1.981000849203228e-02 6.124296509224231e-02 2.060748511802960e-02 4.494745987822086e-01 -4.714595127953311e-02 3.511544649784625e-02 -1.702039648754903e-01
            6.129851430763204e-02 2.054756834083396e-02 7.393285793205819e-02 1.980596959853477e-02 3.509266381502903e-02 -1.701837470742157e-01 4.495729931105849e-01 -4.710687950662400e-02
            4.494715891790457e-01 -4.701352782941764e-02 3.507083180689735e-02 -1.702297522375910e-01 6.495192499418635e-02 2.063148576146360e-02 7.581406661723648e-02 1.840837047315439e-02
            3.507937098871346e-02 -1.702286962821578e-01 4.494845543294899e-01 -4.699226381880576e-02 7.587898441612587e-02 1.841840297080423e-02 6.497860978001503e-02 2.062148159270416e-02
546287500.0000000000 9.136192062072236e-02 2.496323545694760e-02 7.688861503629116e-02 2.758775909423420e-02 4.034651847589487e-01 -1.973952206208581e-01 -2.788369021729688e-02 -1.732384859228490e-01
            7.689965137759920e-02 2.765911143203116e-02 9.146235634879682e-02 2.492428018766173e-02 -2.781259774617762e-02 -1.733151837779696e-01 4.035249870327914e-01 -1.974761951617247e-01
            4.034762465868589e-01 -1.974124721177759e-01 -2.787005232646358e-02 -1.731743227729063e-01 8.106353678944812e-02 2.742238878764923e-02 9.142110399083692e-02 2.232667745888395e-02
            -2.793069425811763e-02 -1.732861779326901e-01 4.034745056413333e-01 -1.974023621238805e-01 9.140761916934399e-02 2.228518264873789e-02 8.106614392423056e-02 2.742542599255978e-02
547120000.0000000000 1.080769201465832e-01 1.770483868656161e-02 9.272520318080288e-02 2.323045563903822e-02 3.101678308686533e-01 -3.216635012958544e-01 -8.732756766207891e-02 -1.532289601804596e-01
            9.269707476256663e-02 2.315829756672303e-02 1.081419059976986e-01 1.765918927131120e-02 -8.736564547216777e-02 -1.533326783150612e-01 3.101088078990116e-01 -3.217096298076386e-01
            3.102532078084247e-01 -3.216701938226522e-01 -8.735616104043230e-02 -1.532943671746719e-01 9.726836598271668e-02 2.255882179544851e-02 1.058677749044962e-01 1.444998067916150e-02
            -8.740325466100389e-02 -1.533066489997869e-01 3.101899305482732e-01 -3.216982741758089e-01 1.059529680982011e-01 1.451747838532990e-02 9.727816152696001e-02 2.256683288316643e-02
547952500.0000000000 1.163721864978341e-01 1.641371093829654e-03 1.014302189933011e-01 1.022224787544147e-02 1.816138643418374e-01 -4.067754232554006e-01 -1.353863005192249e-01 -1.140884202125518e-01
            1.014873732528978e-01 1.027872721004724e-02 1.162943663504474e-01 1.604048553669393e-03 -1.353890976271028e-01 -1.141420104512800e-01 1.816593676376875e-01 -4.068442424477984e-01
            1.815905176412543e-01 -4.068433002560677e-01 -1.354576236989964e-01 -1.140972563344788e-01 1.062987198439763e-01 8.770920877552709e-03 1.120648516827748e-01 -1.339863946119430e-03
            -1.354261705057051e-01 -1.141371575535044e-01 1.815224411358322e-01 -4.067315176155515e-01 1.120905607627390e-01 -1.343150324560947e-03 1.061989721929309e-01 8.869599207609937e-03
548785000.0000000000 1.125280065763637e-01 -1.595623665803333e-02 9.950634351840365e-02 -4.756068099783303e-03 3.207711494934586e-02 -4.440235217953212e-01 -1.672964936030144e-01 -6.165033590281141e-02
            9.952581972794877e-02 -4.829924501292545e-03 1.124791999336435e-01 -1.610607063605280e-02 -1.673057040396181e-01 -6.165701996310247e-02 3.205806218832211e-02 -4.439597835033857e-01
            3.210516763392392e-02 -4.440379702246053e-01 -1.673113486728391e-01 -6.165351268194114e-02 1.042522274988555e-01 -7.006155543627698e-03 1.065904041993183e-01 -1.793942521016458e-02
            -1.672449974746083e-01 -6.170760482345426e-02 3.210668590441870e-02 -4.440841031759641e-01 1.066336483191060e-01 -1.804727624432048e-02 1.041912738325559e-01 -6.989012339922904e-03
549617500.0000000000 9.837811253123395e-02 -2.726211154367796e-02 8.824589401912780e-02 -1.436209252720088e-02 -1.220652268831877e-01 -4.284280122641536e-01 -1.804557776061572e-01 -1.458322747792658e-03
            8.823180519151856e-02 -1.435424771947944e-02 9.839379759595379e-02 -2.718391177778454e-02 -1.804640793078791e-01 -1.511788132412285e-03 -1.221564502444612e-01 -4.284298427056354e-01
            -1.221234140148049e-01 -4.284237139776182e-01 -1.804581943819572e-01 -1.443454381754534e-03 9.227357766546530e-02 -1.728010144590589e-02 9.150765679595976e-02 -2.787517801418688e-02
            -1.805012648588787e-01 -1.495979690101133e-03 -1.220792560201422e-01 -4.283823212499036e-01 9.138338879422028e-02 -2.786359080461718e-02 9.228420442350681e-02 -1.738138025636939e-02
550450000.0000000000 8.022226239679184e-02 -2.682436431741436e-02 7.331284191732768e-02 -1.356425214167575e-02 -2.625015934172015e-01 -3.601582284105846e-01 -1.731118938552535e-01 6.112931401932682e-02
            7.325099812862844e-02 -1.350685575326037e-02 8.030862277211750e-02 -2.677919279560844e-02 -1.732217323325123e-01 6.115997552967801e-02 -2.625191569676106e-01 -3.601652029585315e-01
            -2.625472213959782e-01 -3.600918376066412e-01 -1.731584884108168e-01 6.116670977150142e-02 7.649552705492342e-02 -1.695874080967567e-02 7.293958973306250e-02 -2.592935904256715e-02
            -1.732350237924279e-01 6.121628603113104e-02 -2.625174717102206e-01 -3.601046000303937e-01 7.296276702031342e-02 -2.597216795506745e-02 7.633055977212082e-02 -1.700488359682126e-02
551282500.0000000000 6.680521065015814e-02 -1.485108212615153e-02 6.266203436700311e-02 -2.362029297554298e-03 -3.706450104599178e-01 -2.464688493699820e-01 -1.444146138727306e-01 1.195396325703723e-01
            6.270010651773986e-02 -2.367648112355726e-03 6.685336179834078e-02 -1.476977239322908e-02 -1.443064792272781e-01 1.196569348303535e-01 -3.705919831181232e-01 -2.464896423802465e-01
            -3.706142340339585e-01 -2.464839905993572e-01 -1.442624633791603e-01 1.196323958506482e-01 6.467190841469130e-02 -5.781872266824532e-03 5.977855797766529e-02 -1.239392034297633e-02
            -1.443700606872522e-01 1.196693779809543e-01 -3.706598760767318e-01 -2.465355992919022e-01 5.991737236552693e-02 -1.238271492566541e-02 6.475543338452984e-02 -5.682630887912462e-03
552115000.0000000000 6.454226313103906e-02 2.970403502469039e-03 6.243170047524389e-02 1.372612746909220e-02 -4.314103478909543e-01 -1.022336950315082e-01 -9.494994718136295e-02 1.656902398042059e-01
            6.245967596924988e-02 1.362913536115725e-02 6.453050299687375e-02 2.936528842322502e-03 -9.489528032098249e-02 1.656156570747662e-01 -4.314464415765483e-01 -1.022240209045470e-01
            -4.314612765459793e-01 -1.021800595879550e-01 -9.494353486316322e-02 1.656359762060290e-01 6.365432376133395e-02 1.096170470046866e-02 5.832611458610442e-02 6.341049665771190e-03
            -9.488976562252625e-02 1.656560567196756e-01 -4.314765399524806e-01 -1.021909506262287e-01 5.826226248041406e-02 6.334567494601249e-03 6.357775299844076e-02 1.089867346940540e-02
552947500.0000000000 7.438948399949728e-02 1.740490732506283e-02 7.335472042493772e-02 2.611961889992633e-02 -4.376312919409310e-01 5.269569166960649e-02 -3.052909139356150e-02 1.910188629073149e-01
            7.334645713437234e-02 2.613754328145709e-02 7.442853350614163e-02 1.738255553329767e-02 -3.057852662912641e-02 1.910889740823492e-01 -4.375413765333277e-01 5.272563423948982e-02
            -4.375912104942651e-01 5.288458901441342e-02 -3.051724039072472e-02 1.910890944062717e-01 7.404137426021566e-02 2.442003626125245e-02 6.910056093573561e-02 2.135994313535105e-02
            -3.051252789282500e-02 1.910220665814306e-01 -4.375211887968637e-01 5.277144661183304e-02 6.911819803297035e-02 2.143396279874001e-02 7.407441453563944e-02 2.443371151559255e-02
553780000.0000000000 9.097032042921206e-02 2.164124083237766e-02 9.009655531557831e-02 2.863261222673597e-02 -3.904799740901577e-01 1.984722753541404e-01 3.914168912785204e-02 1.909707562177300e-01
            9.016068297746176e-02 2.868288209716960e-02 9.097747262770009e-02 2.152404145132783e-02 3.911494778558806e-02 1.910062572437476e-01 -3.904292943980706e-01 1.983860600948555e-01
            -3.904309387424784e-01 1.983761755720795e-01 3.910189889268600e-02 1.909788183835675e-01 9.089105141840498e-02 2.790668970943484e-02 8.675961664872568e-02 2.586299888851269e-02
            3.917690603560873e-02 1.910238099755271e-01 -3.903156501575634e-01 1.983273369286753e-01 8.679673484924791e-02 2.588895358219490e-02 9.094207845225701e-02 2.781062778659908e-02
554612500.0000000000 1.058614007992990e-01 1.388909512117899e-02 1.048069710454508e-01 1.973546558283031e-02 -2.978794852975013e-01 3.179933931075011e-01 1.036681022107272e-01 1.658639454616941e-01
            1.048715189670511e-01 1.974177280284211e-02 1.059171108502116e-01 1.385905392778860e-02 1.035475286924529e-01 1.658752362138290e-01 -2.978025275488798e-01 3.179207187134532e-01
            -2.979072547527192e-01 3.179416955177133e-01 1.036441032186276e-01 1.658065825443931e-01 1.059379049138826e-01 1.970639887442821e-02 1.027486595995541e-01 1.812344476965564e-02
            1.036528510303669e-01 1.658276094475546e-01 -2.977928013896398e-01 3.179389412657919e-01 1.027245104887821e-01 1.809488723398638e-02 1.059648253091881e-01 1.974948032029361e-02
555445000.0000000000 1.120003473245078e-01 -1.775729761250308e-03 1.106544289182770e-01 3.611405215128410e-03 -1.714150259907685e-01 3.991495195102136e-01 1.548603447331006e-01 1.204692024567830e-01
            1.105916878484344e-01 3.576502098354929e-03 1.121057467107639e-01 -1.633542903508558e-03 1.548186181362158e-01 1.205076541962807e-01 -1.714157094633156e-01 3.991681664052606e-01
            -1.713884467325897e-01 3.991568377463807e-01 1.548180041598494e-01 1.204630494953658e-01 1.125151680302526e-01 4.127952346452563e-03 1.099022972914625e-01 2.376029196335935e-03
            1.547821370306794e-01 1.205337694539255e-01 -1.714452865186616e-01 3.991897082223808e-01 1.099148095785666e-01 2.366040404793400e-03 1.125138030207904e-01 4.097138564806153e-03
556277500.0000000000 1.062846123130501e-01 -1.769786713874065e-02 1.049780874022090e-01 -1.250352383657785e-02 -2.499325565735582e-02 4.334925294900731e-01 1.876241015818067e-01 6.113923917696063e-02
            1.050021511729444e-01 -1.254058026853869e-02 1.062908495348233e-01 -1.773421474889210e-02 1.877675847355829e-01 6.119960152605755e-02 -2.500407500558192e-02 4.335405441326063e-01
            -2.506844036958424e-02 4.335548263899638e-01 1.877103850529434e-01 6.120559087605252e-02 1.075243555259577e-01 -1.200789222337403e-02 1.053407186931079e-01 -1.410341282673620e-02
            1.876179861028978e-01 6.124715630416000e-02 -2.509303464914109e-02 4.334541347619692e-01 1.053472403049241e-01 -1.409375867214912e-02 1.075816707670988e-01 -1.197185418671327e-02
557110000.0000000000 9.115111538531036e-02 -2.640762593807557e-02 9.033343803585268e-02 -2.141521754380934e-02 1.252681327231749e-01 4.160758156539149e-01 1.996421759477469e-01 -5.940455155783861e-03
            9.031044064448152e-02 -2.131751263993171e-02 9.118170621162609e-02 -2.641375237461628e-02 1.996347164834673e-01 -6.009679954764237e-03 1.253118604259879e-01 4.160713348541341e-01
            1.253190465758051e-01 4.161621089625515e-01 1.996298925753572e-01 -5.966926320970953e-03 9.365377821826681e-02 -2.100688815480993e-02 9.147365990184660e-02 -2.353110983500785e-02
            1.996328465445908e-01 -5.981796458510702e-03 1.252712768553288e-01 4.161034840752126e-01 9.144361887936371e-02 -2.358042368540518e-02 9.367855748339769e-02 -2.105304685812109e-02
557942500.0000000000 7.342831490813140e-02 -2.310875743260739e-02 7.349074035054917e-02 -1.867896536310684e-02 2.613447012724877e-01 3.472673377906654e-01 1.887130440282497e-01 -7.487828835712541e-02
            7.344571473986711e-02 -1.864288400840821e-02 7.343824280792009e-02 -2.305947989129259e-02 1.886859014642666e-01 -7.481941567328051e-02 2.613753590274761e-01 3.471888164307819e-01
            2.613770146440357e-01 3.472219148585043e-01 1.887141750677664e-01 -7.484266198948709e-02 7.713773270777122e-02 -1.853847261182502e-02 7.483646652236449e-02 -2.159134558481136e-02
            1.886907157611987e-01 -7.481711557254191e-02 2.614371378252061e-01 3.472100590762242e-01 7.485737156229953e-02 -2.149723461764472e-02 7.721472497667221e-02 -1.853253900931572e-02
558775000.0000000000 6.150675308061126e-02 -8.741845317641900e-03 6.252330532070489e-02 -5.408559137354553e-03 3.649601779247443e-01 2.344010603202428e-01 1.540137710750744e-01 -1.379277455500182e-01
            6.252076158370404e-02 -5.334829409671615e-03 6.154299561366762e-02 -8.735171606140070e-03 1.539612548908505e-01 -1.379553695561403e-01 3.649933716642442e-01 2.344727969042125e-01
            3.649635459240215e-01 2.344786842270370e-01 1.540434922743644e-01 -1.379286503461037e-01 6.659234720003233e-02 -5.691726812511504e-03 6.390528075879014e-02 -9.060356027965280e-03
            1.540215074093393e-01 -1.378839077030208e-01 3.649400688995587e-01 2.344134603530915e-01 6.383306565772799e-02 -9.065415231560282e-03 6.651464170274754e-02 -5.674962594176830e-03
559607500.0000000000 6.168454460080190e-02 1.020291894218738e-02 6.316332963275156e-02 1.196422577597476e-02 4.215913303920755e-01 9.287417686353729e-02 9.749470608755607e-02 -1.861251358980069e-01
            6.310666344055084e-02 1.194203127301912e-02 6.160166388354078e-02 1.015469666195907e-02 9.746264761719096e-02 -1.861542396508843e-01 4.216518134539765e-01 9.290324597634156e-02
            4.216376813089083e-01 9.286055440527963e-02 9.750255705193893e-02 -1.861089726446555e-01 6.755255315939916e-02 1.110873982721685e-02 6.424132502831036e-02 7.323367809449936e-03
            9.745746793275213e-02 -1.861319609184161e-01 4.216428857371456e-01 9.288105593002619e-02 6.420054203107518e-02 7.449311634386994e-03 6.751213545945732e-02 1.112044033468601e-02
560440000.0000000000 7.375337661026045e-02 2.466902528308952e-02 7.506271388213578e-02 2.451441282696723e-02 4.250603444549601e-01 -5.798330807430503e-02 2.582163886818371e-02 -2.108235395366123e-01
            7.504596089499592e-02 2.446598158936595e-02 7.371731660383223e-02 2.471003049284556e-02 2.584981463050845e-02 -2.108369520034675e-01 4.249417518905341e-01 -5.794335066907592e-02
            4.250080479500520e-01 -5.789660299647168e-02 2.586633714465246e-02 -2.108447092524844e-01 7.963001523831473e-02 2.301198968320057e-02 7.560645399464068e-02 1.931915696999477e-02
            2.586757660364847e-02 -2.109537039079167e-01 4.250316087572368e-01 -5.789945856557555e-02 7.552194125401816e-02 1.932398215006201e-02 7.954342578575747e-02 2.301073117939311e-02
561272500.0000000000 9.180071374863130e-02 2.802330279435903e-02 9.222362029800066e-02 2.636479664710328e-02 3.769018933780015e-01 -1.986530951792513e-01 -5.024194453722877e-02 -2.076533450885308e-01
            9.225044023465795e-02 2.633824303057927e-02 9.183765460902044e-02 2.812878776200545e-02 -5.023270226546690e-02 -2.076250586542152e-01 3.768697700967127e-01 -1.986326884838694e-01
            3.768710067406807e-01 -1.985731356270124e-01 -5.017341402296226e-02 -2.076776374453419e-01 9.680247047577967e-02 2.401273553302530e-02 9.189748777687208e-02 2.045792250995260e-02
            -5.013837430034476e-02 -2.076960283311438e-01 3.768728679493762e-01 -1.986650904402627e-01 9.181710198966844e-02 2.043257193873284e-02 9.691112397654433e-02 2.404275017327396e-02
562105000.0000000000 1.074024902857183e-01 1.961937082232362e-02 1.065352321277113e-01 1.674122077896242e-02 2.852354786940096e-01 -3.134962208513127e-01 -1.195544586997415e-01 -1.777103896951162e-01
            1.065794604777422e-01 1.666099157147145e-02 1.074286270225648e-01 1.963084982670203e-02 -1.195606222081325e-01 -1.777400466010028e-01 2.851864127071000e-01 -3.135249155330204e-01
            2.852543064846286e-01 -3.135254955253593e-01 -1.195051706391528e-01 -1.777135105936740e-01 1.107153786075646e-01 1.348172925291318e-02 1.049591777520467e-01 1.054240116073932e-02
            -1.194860814986625e-01 -1.777088300055658e-01 2.851944869173937e-01 -3.134782713363776e-01 1.049592885982909e-01 1.062626794167985e-02 1.106927456952955e-01 1.345262884288857e-02
562937500.0000000000 1.138411699331602e-01 3.709509525113557e-03 1.114853577949058e-01 3.729448549503536e-04 1.612281822878147e-01 -3.908520538505968e-01 -1.735825686424552e-01 -1.263684885072634e-01
            1.114874366582845e-01 3.523360487931043e-04 1.138186559185801e-01 3.623683112685147e-03 -1.736101634116614e-01 -1.264009311076649e-01 1.611576263594752e-01 -3.907735628833330e-01
            1.611770616454122e-01 -3.907960929326940e-01 -1.735702950241207e-01 -1.262898125644505e-01 1.146825546170369e-01 -3.883566400655669e-03 1.085846854027987e-01 -5.589146583707775e-03
            -1.736603470337748e-01 -1.264179196060161e-01 1.612386507541256e-01 -3.907766293840443e-01 1.085480325347105e-01 -5.612429097451361e-03 1.147619098837267e-01 -3.738482343325971e-03
563770000.0000000000 1.086972077502509e-01 -1.209056931955467e-02 1.050706836555785e-01 -1.537357933702571e-02 1.816834263420849e-02 -4.222048940018537e-01 -2.074063082768947e-01 -6.040296538209138e-02
            1.050884837603557e-01 -1.530957165880723e-02 1.086012712456315e-01 -1.211044122250701e-02 -2.073504341359969e-01 -6.041293360477682e-02 1.822260320545063e-02 -4.221924021485157e-01
            1.817663094427027e-02 -4.223183317509596e-01 -2.074129451279426e-01 -6.040939649003216e-02 1.068122420344798e-01 -1.998124266794983e-02 1.008168818064582e-01 -2.051340228942209e-02
            -2.074019281838097e-01 -6.039669768242778e-02 1.817246479493814e-02 -4.222250240666964e-01 1.008769414981947e-01 -2.060042401319034e-02 1.068766651497322e-01 -1.999002089190195e-02
564602500.0000000000 9.451069911402823e-02 -2.046133629570572e-02 9.035367559465671e-02 -2.330649797093287e-02 -1.281322488348102e-01 -4.030661576678280e-01 -2.180610806704893e-01 1.341835999434862e-02
            9.026147240299362e-02 -2.337195431642656e-02 9.455159938786913e-02 -2.045741942503755e-02 -2.180009219187282e-01 1.346807109884580e-02 -1.280691659452432e-01 -4.030710984657221e-01
            -1.281331981384812e-01 -4.029877749280026e-01 -2.181253977166747e-01 1.336651276751587e-02 9.026424514681262e-02 -2.771133762307018e-02 8.506070516871571e-02 -2.736813194464500e-02
            -2.180042345503782e-01 1.345724420606127e-02 -1.280712126271371e-01 -4.029897452299724e-01 8.499157115255027e-02 -2.734613340105820e-02 9.020649490732342e-02 -2.768486990650062e-02
565435000.0000000000 7.854167133999403e-02 -1.719529972420165e-02 7.403301678395026e-02 -1.978836327714038e-02 -2.595968574860719e-01 -3.337585880159191e-01 -2.034368559360793e-01 8.834647949453604e-02
            7.406887556977566e-02 -1.980005800523213e-02 7.849643304314106e-02 -1.721458449802411e-02 -2.034417606708469e-01 8.828913783127602e-02 -2.595506765250570e-01 -3.337146199763065e-01
            -2.595671855057044e-01 -3.337850379916381e-01 -2.034856770296353e-01 8.835185379712215e-02 7.230668254720835e-02 -2.296745676820862e-02 6.836906791164346e-02 -2.223045172958429e-02
            -2.035013139232049e-01 8.832085921881014e-02 -2.595034086096212e-01 -3.337212554999460e-01 6.832647818228772e-02 -2.223072947431706e-02 7.238269733044328e-02 -2.302019218250224e-02
566267500.0000000000 6.870398913506107e-02 -3.876079484560336e-03 6.431867027358439e-02 -6.480990083817321e-03 -3.583660646538432e-01 -2.222733929337261e-01 -1.629843057889707e-01 1.557403984965813e-01
            6.417936266728809e-02 -6.543419163443189e-03 6.877104147769668e-02 -3.881654819036890e-03 -1.630456870649766e-01 1.557763278419868e-01 -3.583547618182488e-01 -2.222697481969691e-01
            -3.583624787843894e-01 -2.223260927314339e-01 -1.630461732244196e-01 1.557416298338172e-01 6.158936213709123e-02 -7.790426611570529e-03 5.887020388524210e-02 -7.315190570925871e-03
            -1.630439557031869e-01 1.557573764974937e-01 -3.584753925344665e-01 -2.222139895323585e-01 5.893233142138023e-02 -7.347962795409532e-03 6.153044026902908e-02 -7.782729326085250e-03
567100000.0000000000 7.056860813849918e-02 1.278634690335490e-02 6.582108529187743e-02 9.698663059155448e-03 -4.110129488035249e-01 -8.377272534322500e-02 -9.962212876726453e-02 2.058545180440390e-01
            6.584389723461913e-02 9.717863276450392e-03 7.062804124378524e-02 1.281551889201570e-02 -9.955781746129079e-02 2.058950662905504e-01 -4.110494634572930e-01 -8.371812942019001e-02
            -4.109846144356369e-01 -8.367776177125855e-02 -9.961507018190442e-02 2.058774552765566e-01 6.323687237778543e-02 1.071169670062071e-02 6.166291387586967e-02 9.970917551805488e-03
            -9.963075046180746e-02 2.058692053865085e-01 -4.110358907266415e-01 -8.377856022208131e-02 6.167849607939944e-02 9.987288106318860e-03 6.335877743823430e-02 1.068452037179396e-02
567932500.0000000000 8.306261026292283e-02 2.412672812762107e-02 7.780828398637292e-02 2.045544784838342e-02 -4.117351025475374e-01 6.258555284015374e-02 -2.106691106579451e-02 2.297150086067396e-01
            7.773862634151456e-02 2.044779618018539e-02 8.307910699049485e-02 2.416531490519151e-02 -2.108932125232600e-02 2.298374192266859e-01 -4.117676109101444e-01 6.262125488382032e-02
            -4.117573989877170e-01 6.269508007994591e-02 -2.110923818033736e-02 2.297693888874200e-01 7.651962689173908e-02 2.328203028536718e-02 7.502003067780333e-02 2.101432121933031e-02
            -2.105302932698373e-02 2.298179161418810e-01 -4.117751616301519e-01 6.260656540945879e-02 7.489095302028484e-02 2.106454927689574e-02 7.652046700740987e-02 2.341428651841678e-02
568765000.0000000000 1.000707474515449e-01 2.464790294626175e-02 9.372043356169774e-02 2.058063218632406e-02 -3.629381396724239e-01 1.983843697699441e-01 6.094555716161934e-02 2.237023617839602e-01
            9.364238039219694e-02 2.060421252463515e-02 1.000572482169872e-01 2.462109472674318e-02 6.105427842295930e-02 2.237286997969021e-01 -3.629208195625269e-01 1.984455412758910e-01
            -3.629195605918603e-01 1.984213053515060e-01 6.096115505904120e-02 2.236897709542948e-01 9.422852205343701e-02 2.451199624185505e-02 9.210945330796828e-02 2.048726262294369e-02
            6.103672706127734e-02 2.236924517652617e-01 -3.629435185697250e-01 1.983784797340518e-01 9.217921864168713e-02 2.051991733085127e-02 9.433003775475564e-02 2.448861239453938e-02
569597500.0000000000 1.132921821978309e-01 1.415474029714885e-02 1.056909178247627e-01 1.025609715418189e-02 -2.723453624870623e-01 3.085657232290641e-01 1.349786583342157e-01 1.891189381917853e-01
            1.056529046215603e-01 1.028162243117307e-02 1.133505706123351e-01 1.411295452297565e-02 1.349707756985637e-01 1.891419797675168e-01 -2.722976130216873e-01 3.085131782273707e-01
            -2.724557776388265e-01 3.085097299332482e-01 1.349879102903212e-01 1.891424587481660e-01 1.081150730881978e-01 1.395799810974361e-02 1.046559194833792e-01 9.020444272042407e-03
            1.349350022019776e-01 1.891421108567065e-01 -2.723248566689326e-01 3.085057588205529e-01 1.046216891985553e-01 8.920491574700373e-03 1.081291499552228e-01 1.398237166774757e-02
570430000.0000000000 1.170117930895970e-01 -2.245595758395125e-03 1.081161950840931e-01 -5.267414988821951e-03 -1.506853889239310e-01 3.819087271773141e-01 1.919724527770091e-01 1.319253182661697e-01
            1.081411420620125e-01 -5.412560241908408e-03 1.169864479013025e-01 -2.342027460418137e-03 1.919933444828935e-01 1.319504057845212e-01 -1.507211585610741e-01 3.819218571936226e-01
            -1.507242399080153e-01 3.818874196705673e-01 1.919634068145530e-01 1.320018464423626e-01 1.120345918197040e-01 -2.686270967037365e-03 1.066271578479318e-01 -7.969010390280574e-03
            1.918977438397870e-01 1.319234205138801e-01 -1.507553004359586e-01 3.818969522012736e-01 1.067481664358028e-01 -7.894582879263314e-03 1.119809373412564e-01 -2.767974115722820e-03
571262500.0000000000 1.093974312980946e-01 -1.727212072696474e-02 9.992538584735906e-02 -1.885195149426135e-02 -1.117589405520043e-02 4.103713538772891e-01 2.268073923264633e-01 5.942156973149478e-02
            9.996223959943169e-02 -1.891158454823740e-02 1.093639645929248e-01 -1.718820705632755e-02 2.268173171084671e-01 5.946679442019157e-02 -1.119098275789476e-02 4.102270597523282e-01
            -1.120940270213092e-02 4.102442220976708e-01 2.266849008850012e-01 5.942874251104217e-02 1.042254853803308e-01 -1.783977819765559e-02 9.718866346177699e-02 -2.247493889063090e-02
            2.267556873531023e-01 5.945349612900201e-02 -1.124040256260094e-02 4.102774163818220e-01 9.721891550308810e-02 -2.259189005131634e-02 1.041701593293727e-01 -1.791887001177472e-02
572095000.0000000000 9.408641305013052e-02 -2.376864918575762e-02 8.485084655327138e-02 -2.386052900531973e-02 1.307754551951958e-01 3.891171983877694e-01 2.360614135599633e-01 -2.112585835690648e-02
            8.480737889778849e-02 -2.389845075739826e-02 9.410066004579228e-02 -2.386205806132874e-02 2.360476503781350e-01 -2.115698711904775e-02 1.307054709682811e-01 3.892742899259213e-01
            1.307438127720806e-01 3.891582531619046e-01 2.360884500897875e-01 -2.115771768281574e-02 8.835988919637774e-02 -2.412226511923822e-02 8.036828930638326e-02 -2.772187491823338e-02
            2.360602097318107e-01 -2.105618517220906e-02 1.307139943954321e-01 3.891655860238969e-01 8.029326657284983e-02 -2.772475325415942e-02 8.833113015382439e-02 -2.422040527251217e-02
572927500.0000000000 7.811343755574215e-02 -1.884164390688176e-02 7.013965390233458e-02 -1.774684865841402e-02 2.571819858973133e-01 3.194594156192011e-01 2.176717617469618e-01 -1.020673562347717e-01
            7.008825669930814e-02 -1.775769306492255e-02 7.814217387853582e-02 -1.885129742397703e-02 2.176426649207033e-01 -1.020402846891606e-01 2.572214576398342e-01 3.194530744666623e-01
            2.571457898083519e-01 3.194756115643085e-01 2.176608716049444e-01 -1.020310133809422e-01 7.205353910172206e-02 -1.841511191277646e-02 6.372155740506695e-02 -2.080616919471522e-02
            2.176463852944890e-01 -1.020448199003271e-01 2.572342586209078e-01 3.195009982521849e-01 6.370031010924819e-02 -2.078309421573038e-02 7.207655078041561e-02 -1.841453384482526e-02
573760000.0000000000 6.952573627718250e-02 -4.629341644753982e-03 6.312333304400752e-02 -3.314294311567117e-03 3.509349914421874e-01 2.094209264382660e-01 1.713460571363258e-01 -1.736969359728928e-01
            6.323744136713856e-02 -3.225842514893864e-03 6.963256631476408e-02 -4.595730647893409e-03 1.713022521117249e-01 -1.736860260145880e-01 3.508960227648509e-01 2.095095791684846e-01
            3.508682114753598e-01 2.095526193310310e-01 1.713599346919305e-01 -1.736950597306675e-01 6.371149684262518e-02 -3.077629585117249e-03 5.539316213010666e-02 -4.618740006489796e-03
            1.714033089179649e-01 -1.736422181057348e-01 3.509379387736892e-01 2.095352983176167e-01 5.544079900718484e-02 -4.639505284526192e-03 6.364603640169586e-02 -3.027929552020873e-03
574592500.0000000000 7.259650759200406e-02 1.138899267378952e-02 6.784694275807342e-02 1.213855400446535e-02 3.993149945053239e-01 7.444944879928969e-02 1.009541684099981e-01 -2.252302834008755e-01
            6.788394694030059e-02 1.223150742817349e-02 7.264864320439925e-02 1.150207882959603e-02 1.009215530753985e-01 -2.252500555543551e-01 3.993020251804461e-01 7.437877853431105e-02
            3.992373564111768e-01 7.442695154937000e-02 1.009695995650830e-01 -2.253050933864962e-01 6.758501439928363e-02 1.424563255689538e-02 5.966576154211106e-02 1.307219166737794e-02
            1.009904061523004e-01 -2.252458127544733e-01 3.992805063375859e-01 7.441326099323105e-02 5.967990363206854e-02 1.305903869475413e-02 6.756752191993844e-02 1.423558360940065e-02
575425000.0000000000 8.555535183121400e-02 2.146164986699661e-02 8.178344737302752e-02 2.056153281365341e-02 3.973966003738666e-01 -6.704624532571417e-02 1.563797311242096e-02 -2.481900061320746e-01
            8.185849875374791e-02 2.048234230708229e-02 8.551928696442626e-02 2.143374180460610e-02 1.568991728423343e-02 -2.481697786131600e-01 3.975252027352589e-01 -6.709778027766443e-02
            3.975506433885631e-01 -6.706470185287393e-02 1.561292062270395e-02 -2.481500928128967e-01 8.198782985610584e-02 2.473193671121897e-02 7.401224035838205e-02 2.364475200651873e-02
            1.565884912222773e-02 -2.481951909273014e-01 3.974753321760700e-01 -6.698999119780545e-02 7.396077299893561e-02 2.357144757964764e-02 8.201447146192324e-02 2.477788618326095e-02
576257500.0000000000 1.015905928660777e-01 2.032990401559821e-02 9.800829684536087e-02 1.735048626527019e-02 3.482065247775404e-01 -1.974459146583557e-01 -7.210561912878299e-02 -2.388177337627776e-01
            9.800513991093618e-02 1.733584033714722e-02 1.015920704943180e-01 2.035650953926851e-02 -7.210351006693128e-02 -2.387472813395286e-01 3.482133934244911e-01 -1.974539970998425e-01
            3.480866706308235e-01 -1.974653511055343e-01 -7.210637472416810e-02 -2.387963648485132e-01 9.996180086146220e-02 2.346310399685830e-02 9.131954024186227e-02 2.230805060581896e-02
            -7.209049226845246e-02 -2.388064342821977e-01 3.481589924395996e-01 -1.973944937749134e-01 9.130318497297214e-02 2.224637345177276e-02 9.994229418832455e-02 2.342261247625674e-02
577090000.0000000000 1.130014558035673e-01 9.169708043513655e-03 1.085541578491726e-01 4.205379443827787e-03 2.590004170479717e-01 -3.026027951403035e-01 -1.502394952725546e-01 -1.994811717068473e-01
            1.085306382090010e-01 4.232777152360914e-03 1.129711386883227e-01 9.104051248366090e-03 -1.502935216762952e-01 -1.995187948316385e-01 2.589501643388336e-01 -3.026218452785312e-01
            2.590091966640580e-01 -3.026687387790443e-01 -1.502364361082426e-01 -1.995765462321962e-01 1.129670733847549e-01 1.117745379334317e-02 1.032972528774951e-01 1.045175226628791e-02
            -1.502538820703243e-01 -1.995164759899763e-01 2.590051772293449e-01 -3.026458185396830e-01 1.033331168157617e-01 1.042099665413714e-02 1.129506324523898e-01 1.111106012273810e-02
577922500.0000000000 1.144126458364005e-01 -6.808760224925340e-03 1.081509016055677e-01 -1.291249015627250e-02 1.402838400397537e-01 -3.717984702625686e-01 -2.098069947688291e-01 -1.366308345654697e-01
            1.082259433362890e-01 -1.304821294709909e-02 1.144703393591820e-01 -6.782671589662673e-03 -2.097848068821932e-01 -1.366761655369631e-01 1.403586229906934e-01 -3.718952340023349e-01
            1.402446969551949e-01 -3.718523392198446e-01 -2.098730534133080e-01 -1.366651858367173e-01 1.155239006737311e-01 -6.558866062976169e-03 1.048925131558088e-01 -6.068230153956113e-03
            -2.098827435648619e-01 -1.367144906755540e-01 1.403153533564918e-01 -3.719097982832482e-01 1.048043695783818e-01 -6.025906539690490e-03 1.155471624782563e-01 -6.477217337388301e-03
578755000.0000000000 1.053061072144057e-01 -2.004951623612919e-02 9.689849063142905e-02 -2.667681269894545e-02 4.624174515363321e-03 -3.973612464965500e-01 -2.452428638266379e-01 -5.788369751118420e-02
            9.680646121725403e-02 -2.669300074598945e-02 1.051689202763848e-01 -2.008036568386070e-02 -2.452231543072472e-01 -5.788917427900538e-02 4.609564744283860e-03 -3.973769747634867e-01
            4.622487595351375e-03 -3.973657075966618e-01 -2.452061296067391e-01 -5.787455843591430e-02 1.065261536165072e-01 -2.183478340484565e-02 9.554163565781355e-02 -1.930934087206531e-02
            -2.451720412321264e-01 -5.788966920422994e-02 4.590360472596580e-03 -3.972952422201469e-01 9.551068976874610e-02 -1.944252604747914e-02 1.066159837005625e-01 -2.177085833695486e-02
579587500.0000000000 8.940776455260506e-02 -2.442367157973690e-02 7.903276650075666e-02 -3.052568968756373e-02 -1.325543948969256e-01 -3.745675702900125e-01 -2.529267481608937e-01 2.909338110345264e-02
            7.910485621787079e-02 -3.051298848276191e-02 8.947954823182176e-02 -2.438994694448138e-02 -2.529244652223488e-01 2.902815901353330e-02 -1.325158336095304e-01 -3.746929586001330e-01
            -1.326015633886991e-01 -3.746004771163629e-01 -2.529275915603121e-01 2.906694657941153e-02 9.036341714181940e-02 -2.795153625141180e-02 7.966621005916620e-02 -2.333053421154841e-02
            -2.528808090602581e-01 2.904349811883834e-02 -1.325619697078009e-01 -3.745613808379624e-01 7.967609621671816e-02 -2.332410436167521e-02 9.039967820790748e-02 -2.805414619017177e-02
580420000.0000000000 7.439590357061596e-02 -1.735099243291970e-02 6.253236823280521e-02 -2.223517738937503e-02 -2.539368153857125e-01 -3.050812419476159e-01 -2.308107308146570e-01 1.153627144836239e-01
            6.263494503447289e-02 -2.231749258819390e-02 7.438998024179889e-02 -1.731507639412820e-02 -2.307777656184782e-01 1.153383802928607e-01 -2.539445101030294e-01 -3.049985589305319e-01
            -2.538490448490690e-01 -3.049900221085063e-01 -2.307395295989189e-01 1.153059296044946e-01 7.435067628101420e-02 -2.246965740405658e-02 6.517745279993514e-02 -1.599236146556337e-02
            -2.307756830498459e-01 1.153663641481406e-01 -2.539289478400857e-01 -3.050702662762687e-01 6.522566057953617e-02 -1.599689159888211e-02 7.422878741745720e-02 -2.256116130834826e-02
581252500.0000000000 6.745719057609115e-02 -1.990762545373678e-03 5.492889262360041e-02 -5.533548411933801e-03 -3.427147409490904e-01 -1.969745212341491e-01 -1.789232606213029e-01 1.905054052848940e-01
            5.497238006689826e-02 -5.573562386679748e-03 6.745536428028032e-02 -1.941834937467119e-03 -1.789526970288919e-01 1.905425116054206e-01 -3.426631706248739e-01 -1.969344073992054e-01
            -3.426639828634027e-01 -1.969483506882240e-01 -1.789450380110595e-01 1.906771797541267e-01 6.612568036176891e-02 -8.305487826978519e-03 5.933486751928895e-02 -6.977434991522452e-04
            -1.788837909063637e-01 1.905723284482823e-01 -3.427205810950193e-01 -1.969164878720216e-01 5.947029389801382e-02 -7.365354048458168e-04 6.614709924500815e-02 -8.330608563561045e-03
582085000.0000000000 7.214204951115857e-02 1.414384554100217e-02 5.956260389356387e-02 1.169858328380133e-02 -3.872023457118026e-01 -6.547740663873973e-02 -1.022080032904810e-01 2.435295915367678e-01
            5.962621813318868e-02 1.169505727526534e-02 7.221280650822366e-02 1.418420440870412e-02 -1.022366151339414e-01 2.436659090486653e-01 -3.871941827175120e-01 -6.557422019098542e-02
            -3.871763489871750e-01 -6.556906006511376e-02 -1.022544226999036e-01 2.435057182757832e-01 6.950372311405782e-02 6.966500732484344e-03 6.538212498775235e-02 1.427682185742191e-02
            -1.022803234720405e-01 2.436002714579851e-01 -3.871498222253196e-01 -6.561493649393638e-02 6.540936198763087e-02 1.424852901983046e-02 6.953141761074877e-02 6.964973061327690e-03
582917500.0000000000 8.600112711556836e-02 2.314308362985208e-02 7.363556956591497e-02 2.168838644162839e-02 -3.831390876804324e-01 7.117851319234023e-02 -1.066689656735176e-02 2.656768212441766e-01
            7.363552932768534e-02 2.160076450113504e-02 8.607194064260117e-02 2.321950698347828e-02 -1.061651994173394e-02 2.656223110569188e-01 -3.831408134528198e-01 7.112026389444349e-02
            -3.830783036896822e-01 7.112250536963421e-02 -1.063957243215033e-02 2.656844480532871e-01 8.199888580586835e-02 1.525520387885665e-02 7.987968865356854e-02 2.119995145413743e-02
            -1.074179655300606e-02 2.656329079487012e-01 -3.830645159676590e-01 7.106292711094381e-02 7.987594830266483e-02 2.120391009598427e-02 8.194096036704868e-02 1.536441172507351e-02
583750000.0000000000 1.019846582343088e-01 2.130220662723270e-02 8.995282793552545e-02 2.014325945920583e-02 -3.333813597339944e-01 1.963357551537816e-01 8.264941091836295e-02 2.535561400331324e-01
            8.992005681447596e-02 2.022492929188303e-02 1.020821132384115e-01 2.129763780267716e-02 8.258913814630503e-02 2.536429907139120e-01 -3.334103585328880e-01 1.964127974051247e-01
            -3.334738419393875e-01 1.963757548607216e-01 8.263571740040881e-02 2.536362317350886e-01 9.657414097469168e-02 1.279593326672091e-02 9.520280492391474e-02 1.674392705539300e-02
            8.255693322787017e-02 2.536277335704654e-01 -3.334216743582442e-01 1.964605084064923e-01 9.524156254771100e-02 1.667216417695664e-02 9.657129432508534e-02 1.274330169540282e-02
584582500.0000000000 1.127940285818628e-01 9.895226108881622e-03 1.007545446896583e-01 8.952852707875861e-03 -2.454669131422131e-01 2.968079445168572e-01 1.651885985401767e-01 2.100847749360248e-01
            1.008006382270589e-01 8.940973123870790e-03 1.127993292993975e-01 1.002270695082763e-02 1.652218750725299e-01 2.100074844182340e-01 -2.453998921477796e-01 2.968175497802955e-01
            -2.454030543429418e-01 2.968158276459087e-01 1.652295156481706e-01 2.100588310630796e-01 1.053981718762436e-01 8.792688978927313e-04 1.036710382608476e-01 2.847618961893516e-03
            1.652052063949671e-01 2.100115364574512e-01 -2.453816041928218e-01 2.967763664922817e-01 1.037809839226842e-01 2.800476207759973e-03 1.053903492987022e-01 9.489925369424729e-04
585415000.0000000000 1.137915751137485e-01 -5.123514673089509e-03 1.015004480226721e-01 -5.942108799672492e-03 -1.291463282123257e-01 3.618501395925134e-01 2.277564020066762e-01 1.415845232353780e-01
            1.015025016687966e-01 -5.910471624384097e-03 1.137588415872996e-01 -5.055901731392499e-03 2.276933225041584e-01 1.415586302864918e-01 -1.292105127200039e-01 3.619109752808787e-01
            -1.292304452611941e-01 3.618098832385732e-01 2.277595613704318e-01 1.416495711597761e-01 1.041092210100610e-01 -1.436018268976830e-02 1.010833102306829e-01 -1.360206592517454e-02
            2.277446499301493e-01 1.416236428085735e-01 -1.291952704401355e-01 3.619015035561771e-01 1.010815033795863e-01 -1.357996184814422e-02 1.040292962903387e-01 -1.430754726998758e-02
586247500.0000000000 1.049068014963701e-01 -1.686205728242542e-02 9.240943005707218e-02 -1.732774169495188e-02 2.781043184110652e-03 3.838820773534899e-01 2.640084012636122e-01 5.620854669487596e-02
            9.230200078488447e-02 -1.732609571604653e-02 1.049214919513854e-01 -1.681056887382713e-02 2.639572635068000e-01 5.615979269784051e-02 2.677204097745823e-03 3.839150658598730e-01
            2.730298599761335e-03 3.838966533623944e-01 2.640365013686977e-01 5.620562309278686e-02 9.246950228739166e-02 -2.548522917168201e-02 8.789032540438523e-02 -2.477326011186874e-02
            2.639912838311268e-01 5.617596479783336e-02 2.763130980314242e-03 3.839766920985272e-01 8.800085706533853e-02 -2.473595695901007e-02 9.244518856784846e-02 -2.552320462778103e-02
587080000.0000000000 9.085460348115798e-02 -1.958714172954982e-02 7.804089070453080e-02 -1.960817718212697e-02 1.350480081980412e-01 3.590595337574568e-01 2.700801415889048e-01 -3.750439226575753e-02
            7.808820378945969e-02 -1.959890631522850e-02 9.088507987426477e-02 -1.968630037911958e-02 2.701057819829516e-01 -3.747365492801481e-02 1.350185459230641e-01 3.590115413328346e-01
            1.351589893650915e-01 3.589981716638612e-01 2.700751302659352e-01 -3.750612179673635e-02 7.543938764704469e-02 -2.670866452372456e-02 6.992059439167643e-02 -2.503261144905497e-02
            2.700999380432900e-01 -3.751638830688283e-02 1.350432581492591e-01 3.590077029413387e-01 6.998129441391009e-02 -2.504170605620141e-02 7.549852653258303e-02 -2.676819654413229e-02
587912500.0000000000 7.882989368108616e-02 -1.229935846189641e-02 6.598999459948070e-02 -1.160952186257532e-02 2.505980776059150e-01 2.889550360669704e-01 2.436455432179855e-01 -1.295553589588725e-01
            6.596247025305955e-02 -1.156274640421500e-02 7.886007553025773e-02 -1.223176222948925e-02 2.436533053397930e-01 -1.295434815484287e-01 2.505460148437045e-01 2.890651132379922e-01
            2.506143610521583e-01 2.890628312095339e-01 2.436152548147516e-01 -1.296025922161558e-01 6.113838287878002e-02 -1.658473521301800e-02 5.543068226972987e-02 -1.331408175390455e-02
            2.436107409507716e-01 -1.295209434904629e-01 2.506201207405744e-01 2.890032065661503e-01 5.542079966440120e-02 -1.326165061897068e-02 6.106935716028530e-02 -1.652457956409962e-02
588745000.0000000000 7.532467084510139e-02 1.281061775215306e-03 6.246610536078357e-02 2.560518941601384e-03 3.335444685535212e-01 1.829884423047311e-01 1.855583851919628e-01 -2.083740273030427e-01
            6.250216263620301e-02 2.616146676542085e-03 7.530991936414504e-02 1.361884239074403e-03 1.856813271090580e-01 -2.083669822634178e-01 3.334502872556555e-01 1.830273293794077e-01
            3.335316005339640e-01 1.830213932140937e-01 1.855077963307180e-01 -2.083905209007095e-01 5.630703624082244e-02 8.892922392397379e-04 5.156796750884180e-02 5.238301458781220e-03
            1.857167963696955e-01 -2.083364356171065e-01 3.334267392881202e-01 1.830228209760446e-01 5.163587501608997e-02 5.238030569483165e-03 5.622662574445439e-02 8.486146322726225e-04
589577500.0000000000 8.211185674499433e-02 1.373924674808785e-02 6.950381343787534e-02 1.530352001395744e-02 3.733099071381064e-01 5.601756587662353e-02 1.018937280922002e-01 -2.621207796246395e-01
            6.954759565263703e-02 1.545352141031947e-02 8.213077826755835e-02 1.372841400896378e-02 1.019832703028158e-01 -2.621787773411369e-01 3.733719695933738e-01 5.600742648316530e-02
            3.732744267811747e-01 5.595510572320626e-02 1.019584747968287e-01 -2.621622286555436e-01 6.333332632505935e-02 1.725094669263191e-02 6.041000686098658e-02 2.203286956649754e-02
            1.019816316009027e-01 -2.621325694940084e-01 3.732745582950857e-01 5.592442784514370e-02 6.043363917092713e-02 2.203637436306834e-02 6.335894479581894e-02 1.738154177449946e-02
590410000.0000000000 9.576615876354995e-02 1.814704766036639e-02 8.337730494152720e-02 2.010685838275481e-02 3.667917080870050e-01 -7.487302205022048e-02 4.167355906616763e-03 -2.825283764930220e-01
            8.340110688483741e-02 2.012817211898647e-02 9.588106871788725e-02 1.820708839696661e-02 4.128418756870054e-03 -2.825135117398692e-01 3.667704580140909e-01 -7.498114862892345e-02
            3.667643320568627e-01 -7.492321484652890e-02 4.148781005901087e-03 -2.825803995244580e-01 7.891198122899858e-02 2.527274425346616e-02 7.750443442882680e-02 2.917744876539866e-02
            4.189011569114486e-03 -2.824523904378450e-01 3.668095803245413e-01 -7.492427636807485e-02 7.742213207121099e-02 2.923543133436835e-02 7.889431774591799e-02 2.524469581903207e-02
591242500.0000000000 1.093167983141669e-01 1.223048936753392e-02 9.679101265030204e-02 1.435475497511038e-02 3.170787073567324e-01 -1.941705594264366e-01 -9.413685754679600e-02 -2.669558274450555e-01
            9.692514766704950e-02 1.438525718543719e-02 1.092559624176464e-01 1.225796859969817e-02 -9.415463991725719e-02 -2.669488842948587e-01 3.169841232662289e-01 -1.942191589581009e-01
            3.171183107795341e-01 -1.941985237319083e-01 -9.411428197983437e-02 -2.668764538988904e-01 9.525577004394388e-02 2.168712711721886e-02 9.467742673175808e-02 2.402926096818947e-02
            -9.414186106013171e-02 -2.670018037640948e-01 3.170868401457319e-01 -1.941880869201196e-01 9.463414851661672e-02 2.398709353432056e-02 9.517149620331768e-02 2.172873562974731e-02
592075000.0000000000 1.158322139637698e-01 -1.396009872635179e-03 1.031521763753263e-01 1.023609953911629e-03 2.310349720681504e-01 -2.892773520734556e-01 -1.802931970725864e-01 -2.188182300624221e-01
            1.032665560876845e-01 1.098244336115622e-03 1.158411270986956e-01 -1.509766945096168e-03 -1.802621846934470e-01 -2.187697328666112e-01 2.310523265367022e-01 -2.893812210722242e-01
            2.310340597323170e-01 -2.892179253550848e-01 -1.802619770560223e-01 -2.187815716810703e-01 1.048796169791858e-01 9.129416481587042e-03 1.042255643743220e-01 9.561585853970095e-03
            -1.803296194918933e-01 -2.187349329164314e-01 2.310557115519585e-01 -2.892445770824624e-01 1.041622148572757e-01 9.449058875123924e-03 1.049079414338099e-01 9.170699678035186e-03
592907500.0000000000 1.120675801606894e-01 -1.641486933996973e-02 9.919470701643461e-02 -1.345153018696742e-02 1.181727950920264e-01 -3.501227607529236e-01 -2.447768049268598e-01 -1.449197081944963e-01
            9.912573245328320e-02 -1.338498278051109e-02 1.121640671926259e-01 -1.636920114510247e-02 -2.447990565409246e-01 -1.448629751033486e-01 1.181863364512757e-01 -3.501035819751002e-01
            1.182010086833516e-01 -3.500567094570030e-01 -2.448990007211516e-01 -1.449089331240108e-01 1.040564319438520e-01 -6.060972532608932e-03 1.019791784365875e-01 -7.285213870584337e-03
            -2.449379792473175e-01 -1.448767100845776e-01 1.182260062407464e-01 -3.501453121745637e-01 1.020412284756635e-01 -7.331982563661252e-03 1.041216096032097e-01 -5.974723077789928e-03
593740000.0000000000 9.954034028622168e-02 -2.604358808895189e-02 8.638106841381873e-02 -2.194977574863551e-02 -9.267496274201578e-03 -3.690763144031088e-01 -2.814666776517913e-01 -5.339077877421045e-02
            8.635699024773888e-02 -2.194653639835192e-02 9.948015838701497e-02 -2.592526421629718e-02 -2.814723820294717e-01 -5.342678378596576e-02 -9.264784812689412e-03 -3.690330604979343e-01
            -9.289862622395301e-03 -3.690345711064638e-01 -2.814266847552935e-01 -5.343031411026843e-02 9.368019032353815e-02 -1.667815738087504e-02 8.951427176344245e-02 -1.847111571573303e-02
            -2.814284831080548e-01 -5.336564995905089e-02 -9.288364299269918e-03 -3.690849952171779e-01 8.946143826546113e-02 -1.850512294264808e-02 9.360653523990912e-02 -1.667538577668272e-02
594572500.0000000000 8.344388194089886e-02 -2.527860085279793e-02 7.047808094736159e-02 -2.004287592181059e-02 -1.362143997521255e-01 -3.425888096844950e-01 -2.856697119455409e-01 4.635178996714517e-02
            7.052264718914808e-02 -2.000028378400221e-02 8.336346214970985e-02 -2.532387593556050e-02 -2.855998053328527e-01 4.634440767566513e-02 -1.362299267951332e-01 -3.425150482521400e-01
            -1.362842193638922e-01 -3.425269894566608e-01 -2.856617359034784e-01 4.626639154107856e-02 7.891818981215847e-02 -1.733375581716948e-02 7.253577512563072e-02 -1.847835162272644e-02
            -2.856333875257326e-01 4.634372408538513e-02 -1.362561416056646e-01 -3.425328763514240e-01 7.261051468992454e-02 -1.849458667961948e-02 7.886009222064302e-02 -1.727849571734707e-02
595405000.0000000000 7.147791179678757e-02 -1.439311307939941e-02 5.946166500727293e-02 -7.770784982488160e-03 -2.458490084815238e-01 -2.727540496021420e-01 -2.550517096631901e-01 1.433282257524472e-01
            5.940874505514556e-02 -7.828932572678627e-03 7.147879528124576e-02 -1.441935021002063e-02 -2.550633431796714e-01 1.433957464772340e-01 -2.458192487042271e-01 -2.727972720103005e-01
            -2.458737349837956e-01 -2.727348122269951e-01 -2.550466683049976e-01 1.433922207549819e-01 6.748711492251629e-02 -7.624678903991303e-03 5.967160330791718e-02 -7.244176803039669e-03
            -2.549737699290071e-01 1.434473913282416e-01 -2.458455914286108e-01 -2.727691167278074e-01 5.961000463811503e-02 -7.269426417282939e-03 6.747224807687699e-02 -7.589952231531118e-03
596237500.0000000000 6.949360479236942e-02 1.484565373287767e-03 5.878719812232238e-02 9.193468365779259e-03 -3.231357593343472e-01 -1.692366925816690e-01 -1.910352533285168e-01 2.252742739706532e-01
            5.887160491447753e-02 9.247876533405417e-03 6.945607624618955e-02 1.423143420521266e-03 -1.910928688473560e-01 2.252556445185014e-01 -3.230895197369687e-01 -1.692056576842118e-01
            -3.230821242153822e-01 -1.692577272342107e-01 -1.910779842644586e-01 2.252434576773557e-01 6.576261883350404e-02 7.617995288085345e-03 5.730793073894455e-02 1.004216721644051e-02
            -1.910879981123993e-01 2.252532025935099e-01 -3.231252685543074e-01 -1.691919814907131e-01 5.723907439493407e-02 1.004194649141013e-02 6.573936425391821e-02 7.569055646700212e-03
597070000.0000000000 7.832535520776045e-02 1.435963298110321e-02 6.960981090345600e-02 2.266141141338636e-02 -3.584005123953646e-01 -4.691997906519101e-02 -1.011052190070370e-01 2.795948746994985e-01
            6.958100051822061e-02 2.274388088709096e-02 7.837586601882100e-02 1.432807557529920e-02 -1.011244841011703e-01 2.795798880590259e-01 -3.585722972843295e-01 -4.689430616708996e-02
            -3.585973902186465e-01 -4.702836707819054e-02 -1.010418103686977e-01 2.795342098791053e-01 7.494401003120113e-02 2.017761354750488e-02 6.681151380266058e-02 2.470941907237912e-02
            -1.010922940015563e-01 2.795882680952672e-01 -3.585019039056838e-01 -4.691285541395752e-02 6.680792788958449e-02 2.473553260142623e-02 7.493921214136962e-02 2.029308382867070e-02
597902500.0000000000 9.311110066829058e-02 1.806837344624074e-02 8.654978458463986e-02 2.599247282739635e-02 -3.498817790382350e-01 7.799751326876973e-02 2.524330840728116e-03 2.981952813513249e-01
            8.651016377629718e-02 2.607320317456763e-02 9.308564609585566e-02 1.799405572478804e-02 2.512236017079918e-03 2.981700245805961e-01 -3.498808032150956e-01 7.791220965364336e-02
            -3.498741788497615e-01 7.798789126244017e-02 2.511100631666671e-03 2.982318692111270e-01 9.034840779890209e-02 2.364108908542992e-02 8.325430779490181e-02 2.979942310464754e-02
            2.557433323192521e-03 2.981541341532697e-01 -3.498722790766730e-01 7.801537838949765e-02 8.334342156317077e-02 2.979627197019611e-02 9.037546903327476e-02 2.370304050668398e-02
598735000.0000000000 1.063591020775415e-01 1.122022659329083e-02 1.017303234133385e-01 1.799058926347069e-02 -3.002434182613463e-01 1.912076944597769e-01 1.055277682396456e-01 2.791789497226815e-01
            1.016596985459051e-01 1.802393219151796e-02 1.063172249597803e-01 1.120012609427927e-02 1.054233528177982e-01 2.791542858636605e-01 -3.003342871061113e-01 1.911834577926940e-01
            -3.003639056930403e-01 1.911140458773438e-01 1.054256965487883e-01 2.791567665360090e-01 1.045382181629377e-01 1.613641092099962e-02 9.880555475209828e-02 2.336040462391432e-02
            1.054298257821894e-01 2.792044100721549e-01 -3.003670527374081e-01 1.911649363588331e-01 9.881063074033428e-02 2.336984971591950e-02 1.045491629079547e-01 1.608283026269914e-02
599567500.0000000000 1.115852208833578e-01 -2.626495904182911e-03 1.083600735394503e-01 2.476594469045738e-03 -2.164790279178028e-01 2.808546869507281e-01 1.949198247998312e-01 2.264628205402220e-01
            1.083720916586986e-01 2.305307455504252e-03 1.115636252836958e-01 -2.649305684217582e-03 1.948933254612920e-01 2.265300275784036e-01 -2.165310841622284e-01 2.808595059941084e-01
            -2.164744526899236e-01 2.808136483201047e-01 1.949047219674839e-01 2.265558296929082e-01 1.106784476848579e-01 1.027033402691987e-03 1.063389509291957e-01 8.863414914085883e-03
            1.948867577306882e-01 2.265096452092256e-01 -2.166036815496782e-01 2.807742301702588e-01 1.062885911470736e-01 8.879798366874249e-03 1.106562077782576e-01 9.911235858711721e-04
600400000.0000000000 1.063329574064372e-01 -1.663823271226589e-02 1.037520259282970e-01 -1.378838783035411e-02 -1.073344004268885e-01 3.373472604987686e-01 2.612565140378329e-01 1.472817959438210e-01
            1.038179979185801e-01 -1.375327184777065e-02 1.063336149444826e-01 -1.657320199467230e-02 2.612317103352723e-01 1.472703843798775e-01 -1.074519727123532e-01 3.373368576355807e-01
            -1.073899617215997e-01 3.373466146113924e-01 2.612014782319456e-01 1.472917053280562e-01 1.059477357678767e-01 -1.481664338474317e-02 1.026978287783969e-01 -6.452043982560138e-03
            2.612587519562665e-01 1.473395903659388e-01 -1.074124740878450e-01 3.372641844475843e-01 1.027707110136730e-01 -6.505824244820773e-03 1.058933607863824e-01 -1.484487317149207e-02
601232500.0000000000 9.286201514029775e-02 -2.386957693359378e-02 9.013242921733605e-02 -2.329649151290398e-02 1.523558984519327e-02 3.534133749114116e-01 2.977776315746943e-01 5.014093881348075e-02
            9.011072068020695e-02 -2.334733911639359e-02 9.288748566012489e-02 -2.378491890994673e-02 2.976999880083712e-01 5.013466035574756e-02 1.522335314394865e-02 3.534078509125919e-01
            1.531745816775601e-02 3.534470676441205e-01 2.977513858364733e-01 5.005350683832297e-02 9.211099386882879e-02 -2.421016662951744e-02 9.000750427063343e-02 -1.542784133043174e-02
            2.978211000325887e-01 5.008251424782349e-02 1.524004068034389e-02 3.533955058561458e-01 9.000625032978209e-02 -1.543033406976760e-02 9.202878569266632e-02 -2.424012114347000e-02
602065000.0000000000 7.747271896120575e-02 -2.028013291746491e-02 7.370457586220426e-02 -2.177819244482956e-02 1.365796162690914e-01 3.254531393451288e-01 2.999045260979665e-01 -5.515616877026032e-02
            7.370069292870522e-02 -2.179695671385051e-02 7.751425256533187e-02 -2.020144641104691e-02 2.998251512454218e-01 -5.514042158393270e-02 1.364996747162893e-01 3.254827462579596e-01
            1.366030778531081e-01 3.255783739349952e-01 2.999424596657055e-01 -5.512611823069720e-02 7.511359676113828e-02 -2.272641625389084e-02 7.467087883008196e-02 -1.343912466660983e-02
            2.998973160594250e-01 -5.515371725225687e-02 1.365927716512483e-01 3.255091254987680e-01 7.465985922725438e-02 -1.338794843875959e-02 7.505385725706518e-02 -2.275946861125081e-02
602897500.0000000000 6.794218662208415e-02 -6.975175712633850e-03 6.233055488657022e-02 -1.015665805423141e-02 2.401427134165361e-01 2.563747649358202e-01 2.650985936666184e-01 -1.568148331635378e-01
            6.230058290240055e-02 -1.009673927971953e-02 6.792848013545505e-02 -6.982386731145461e-03 2.651199277525700e-01 -1.567663363932417e-01 2.401128946818503e-01 2.564278146443616e-01
            2.401887358198848e-01 2.564514783635368e-01 2.651921418900634e-01 -1.567799587841648e-01 6.287649840173960e-02 -1.077647204556293e-02 6.451369820001887e-02 -1.199130569849821e-03
            2.651670505804143e-01 -1.567838113218317e-01 2.401440676256308e-01 2.563806561943532e-01 6.457360795054944e-02 -1.199436794701677e-03 6.298539417884848e-02 -1.074843133357975e-02
603730000.0000000000 6.943713363167447e-02 9.655901056349725e-03 6.163268215171785e-02 5.808458061360123e-03 3.118659503915325e-01 1.558551958658504e-01 1.957417345282393e-01 -2.412043812682528e-01
            6.163754625018662e-02 5.748333240453232e-03 6.939801380117670e-02 9.722067794537159e-03 1.957229571776194e-01 -2.411863282533195e-01 3.118646966645634e-01 1.558471465019951e-01
            3.118261857392257e-01 1.558609351505975e-01 1.957155322949883e-01 -2.412494209700223e-01 6.137815979604652e-02 6.007231984645335e-03 6.553820775461244e-02 1.517869932311431e-02
            1.957460272337962e-01 -2.412506648618194e-01 3.118380811270807e-01 1.558026953277964e-01 6.555740832758464e-02 1.520365040052126e-02 6.140199730006637e-02 5.948771838262582e-03
604562500.0000000000 8.170526443433559e-02 2.165291347260771e-02 7.138587371269151e-02 1.774556142167203e-02 3.432061429443021e-01 3.840722331267345e-02 9.987141123110810e-02 -2.959353349651730e-01
            7.129943264564749e-02 1.775220321925258e-02 8.164742093118245e-02 2.163784339727924e-02 9.990311612038912e-02 -2.958473231218091e-01 3.431256183653266e-01 3.846276167435630e-02
            3.432662314829165e-01 3.836076475934905e-02 9.987807923414399e-02 -2.957728563914436e-01 7.080245011337258e-02 1.936426016178322e-02 7.762667810782405e-02 2.715077592483793e-02
            9.989959214635928e-02 -2.958294899009980e-01 3.431837642745353e-01 3.848421347136929e-02 7.762148076175759e-02 2.724652456435003e-02 7.079221686907372e-02 1.927967731705852e-02
605395000.0000000000 9.879215390842297e-02 2.273529283463442e-02 8.624644644388836e-02 2.001714314906480e-02 3.326333689361181e-01 -8.061410727690418e-02 -9.105523341527382e-03 -3.127359928928579e-01
            8.626871868762062e-02 2.001906340159996e-02 9.882380657680065e-02 2.283580925006813e-02 -9.109210990529814e-03 -3.128232345397561e-01 3.325682852797728e-01 -8.053836502711598e-02
            3.326331217127446e-01 -8.057286719427878e-02 -9.163373945285849e-03 -3.127720164899026e-01 8.592340243038413e-02 2.314431907398154e-02 9.496597511610537e-02 2.854263300895264e-02
            -9.071731333823517e-03 -3.127245018524540e-01 3.326152086521621e-01 -8.049417274530679e-02 9.500404226311381e-02 2.851120697723891e-02 8.595441486449382e-02 2.307855956460773e-02
606227500.0000000000 1.128073414477770e-01 1.282525277388303e-02 9.858307457356533e-02 1.199204160120429e-02 2.834735805611535e-01 -1.876088920906843e-01 -1.163681633729171e-01 -2.906524873771326e-01
            9.863673469277491e-02 1.201441173325763e-02 1.128802625381841e-01 1.284938758980306e-02 -1.163894635265951e-01 -2.906008356139538e-01 2.834646283776571e-01 -1.875334166351028e-01
            2.835341486518514e-01 -1.876153331823621e-01 -1.163844148737508e-01 -2.905666784358295e-01 9.932945247799679e-02 1.627327057209070e-02 1.095389829554621e-01 1.850568781344277e-02
            -1.164284674546507e-01 -2.905675720874625e-01 2.834450259567947e-01 -1.875999701720103e-01 1.094446027723693e-01 1.857215642722917e-02 9.923704761526628e-02 1.629574752967214e-02
607060000.0000000000 1.174509530365515e-01 -3.745507939380584e-03 1.024033317393460e-01 -2.125658273622302e-03 2.019422700886671e-01 -2.718086801293259e-01 -2.089293339617089e-01 -2.336612331510377e-01
            1.023475179654721e-01 -2.118806843229687e-03 1.174875761882565e-01 -3.666435373032698e-03 -2.088618298767536e-01 -2.336231168704409e-01 2.019441868917942e-01 -2.718132645229001e-01
            2.020062498683324e-01 -2.718430024235165e-01 -2.088862016259051e-01 -2.335913151457245e-01 1.044655570543660e-01 2.879016069184778e-03 1.147199346686985e-01 1.542179682601826e-03
            -2.089121515025161e-01 -2.336650512680009e-01 2.019175686324474e-01 -2.717911172487739e-01 1.147974020026776e-01 1.584769356252972e-03 1.045378023217388e-01 2.810298572033920e-03
607892500.0000000000 1.106622017219279e-01 -1.941132594768234e-02 9.578624535564764e-02 -1.525815482024869e-02 9.665596771777589e-02 -3.240545651912548e-01 -2.768776389304414e-01 -1.493763818842270e-01
            9.584729186901474e-02 -1.532442122117992e-02 1.105934605391878e-01 -1.953314475984200e-02 -2.769221886038092e-01 -1.493186474358511e-01 9.665426386491616e-02 -3.240315888202839e-01
            9.670885844239842e-02 -3.240280304667472e-01 -2.770125024988421e-01 -1.493116255899959e-01 9.940971046759309e-02 -1.047989247982481e-02 1.084371287179794e-01 -1.491644255794455e-02
            -2.769519395491287e-01 -1.492628045186377e-01 9.666921713600332e-02 -3.239758399085513e-01 1.084570425695188e-01 -1.493524930662993e-02 9.939121462921265e-02 -1.047778743873625e-02
608725000.0000000000 9.527151775896200e-02 -2.739797600781572e-02 8.186979272131444e-02 -2.096723117396132e-02 -2.106931183564038e-02 -3.370100283696583e-01 -3.133541063481024e-01 -4.660254097527414e-02
            8.182632718438522e-02 -2.105067636311968e-02 9.527486368948543e-02 -2.746852430853965e-02 -3.133849349672632e-01 -4.662180822309892e-02 -2.099726940932588e-02 -3.370259643470068e-01
            -2.103888346265408e-02 -3.370371057632688e-01 -3.133335038717039e-01 -4.656637352524817e-02 8.642998069092327e-02 -1.701977236274640e-02 9.334507043320345e-02 -2.364565225221983e-02
            -3.134126643591105e-01 -4.651519269436684e-02 -2.093685151100428e-02 -3.369888148910251e-01 9.331927274228051e-02 -2.365347125815161e-02 8.653870152176600e-02 -1.711454557766361e-02
609557500.0000000000 7.840612994113663e-02 -2.367862539935918e-02 6.709186980587679e-02 -1.585628365626774e-02 -1.363761108231862e-01 -3.078819231022978e-01 -3.132468659185564e-01 6.409769609361808e-02
            6.713919047740981e-02 -1.589399946977275e-02 7.843511212499699e-02 -2.377339611541877e-02 -3.133004125858924e-01 6.413703530698964e-02 -1.363756481067853e-01 -3.078439554419036e-01
            -1.363431155624366e-01 -3.078445279775764e-01 -3.133253271189962e-01 6.413388732722403e-02 7.215837911254551e-02 -1.300615975612138e-02 7.655905024945256e-02 -2.073908769332143e-02
            -3.132595310411392e-01 6.407523452418477e-02 -1.364288755025820e-01 -3.078496780407426e-01 7.652911993302537e-02 -2.070716361618413e-02 7.217162513496879e-02 -1.292134713036082e-02
610390000.0000000000 6.799229496279702e-02 -1.002879312977513e-02 5.919042181488736e-02 -1.875103065537108e-03 -2.336359720564507e-01 -2.397433926211479e-01 -2.744014912365901e-01 1.699010338950795e-01
            5.921301075756518e-02 -1.937082730483114e-03 6.800644971224235e-02 -1.007656916752216e-02 -2.743851930828963e-01 1.699226956714016e-01 -2.337066052114566e-01 -2.397237168173110e-01
            -2.337396656011574e-01 -2.397243064060139e-01 -2.744309411614500e-01 1.699500396763618e-01 6.371474166197932e-02 1.036346957213229e-04 6.611100248552183e-02 -7.753172246643986e-03
            -2.744322502295092e-01 1.699890928994758e-01 -2.336841487126964e-01 -2.396657588154278e-01 6.607076116141460e-02 -7.730318717699385e-03 6.384398361417769e-02 1.347735158592153e-04
611222500.0000000000 6.905491069829728e-02 6.923457290248707e-03 6.247967983344138e-02 1.418021323381407e-02 -2.996545174567959e-01 -1.424317145706372e-01 -1.996580125848749e-01 2.565456991487892e-01
            6.255551618743387e-02 1.425545174063077e-02 6.909682535125702e-02 6.926320843385446e-03 -1.996534790288478e-01 2.566618964877085e-01 -2.996435848701314e-01 -1.424147290966997e-01
            -2.996876501277332e-01 -1.423932241441888e-01 -1.996792162439285e-01 2.566510273308272e-01 6.630008851093096e-02 1.580569681744864e-02 6.697428035163615e-02 8.523917598833140e-03
            -1.996422444135690e-01 2.566440624632997e-01 -2.996329666882203e-01 -1.424602671956094e-01 6.698630092025476e-02 8.556980733205429e-03 6.636279062167030e-02 1.584799669109380e-02
612055000.0000000000 8.075101577274076e-02 1.882229463020128e-02 7.570210861068545e-02 2.444489056513345e-02 -3.270261167589673e-01 -3.023628143536429e-02 -9.809888871395127e-02 3.113723929182777e-01
            7.566921247635680e-02 2.434807020413669e-02 8.074845353891641e-02 1.873682622461482e-02 -9.807838579596340e-02 3.113021982027643e-01 -3.271104411233433e-01 -3.027492551375780e-02
            -3.271120956574190e-01 -3.024203715136901e-02 -9.816762202927000e-02 3.112890071367726e-01 7.853045230308996e-02 2.650313151818011e-02 7.850119108161972e-02 1.971681045602163e-02
            -9.808516300857549e-02 3.112945731139667e-01 -3.270656821582535e-01 -3.026261719452897e-02 7.846958067536272e-02 1.973302354692994e-02 7.863407509102421e-02 2.647760366341161e-02
612887500.0000000000 9.688354327268132e-02 2.000930241291583e-02 9.229081609782999e-02 2.369351949065247e-02 -3.148221184703043e-01 8.242696968407949e-02 1.599076551842682e-02 3.264306529607929e-01
            9.227121259522011e-02 2.369138438483514e-02 9.699225098591467e-02 2.005547800313565e-02 1.589806172053693e-02 3.263865723614225e-01 -3.148313490485001e-01 8.246970404723150e-02
            -3.147825990249171e-01 8.244421537355909e-02 1.586397397351696e-02 3.263596054639920e-01 9.487004062556109e-02 2.664802838828288e-02 9.441205850197627e-02 2.019432992742349e-02
            1.585649962808738e-02 3.264032737553131e-01 -3.148068438354870e-01 8.247826532123433e-02 9.448174491401200e-02 2.015392752827458e-02 9.495593726324382e-02 2.674552123032260e-02
613720000.0000000000 1.097608694431277e-01 1.064609306312391e-02 1.044154063450464e-01 1.243143287986553e-02 -2.662337047526780e-01 1.833521029254958e-01 1.271798628747231e-01 3.011392185160684e-01
            1.045251575406433e-01 1.254629587532694e-02 1.097565734849464e-01 1.069024009255277e-02 1.271704656153576e-01 3.010402922408821e-01 -2.661749606976748e-01 1.833987296810420e-01
            -2.662268612381318e-01 1.833489505522518e-01 1.272309515685244e-01 3.010859064249714e-01 1.074582370593178e-01 1.668559619575515e-02 1.068593324310143e-01 1.005441991005492e-02
            1.271686588226451e-01 3.010584392333052e-01 -2.662479179853889e-01 1.834033605873515e-01 1.068255791276222e-01 1.006333654115663e-02 1.074814966516044e-01 1.671894314275073e-02
614552500.0000000000 1.133915519545633e-01 -4.615670189140527e-03 1.068369190741022e-01 -3.738180877835957e-03 -1.873189368219873e-01 2.621000568307886e-01 2.225439661040537e-01 2.399218169787705e-01
            1.068517035204292e-01 -3.780041126487247e-03 1.134020290324157e-01 -4.613415558858890e-03 2.225695795170225e-01 2.398895308676434e-01 -1.872376205046323e-01 2.621094585530405e-01
            -1.873503987533606e-01 2.620222085301969e-01 2.225663833180091e-01 2.399667695740610e-01 1.108929008420004e-01 1.149516498580993e-03 1.096410080570707e-01 -5.906890287585624e-03
            2.225879154067154e-01 2.398450186104981e-01 -1.873145757867858e-01 2.621084665762119e-01 1.096846176041503e-01 -5.956767657271707e-03 1.109014316794262e-01 1.221750216599834e-03
615385000.0000000000 1.062697966989716e-01 -1.850851882742912e-02 9.833157924006553e-02 -1.776004011764682e-02 -8.597437196110572e-02 3.098374736397477e-01 2.920216983620376e-01 1.505203801685056e-01
            9.830258573936575e-02 -1.773508616341558e-02 1.062731396123481e-01 -1.851087929133960e-02 2.919318105855816e-01 1.506773046460800e-01 -8.601431197892674e-02 3.098350878444940e-01
            -8.597804339667851e-02 3.099722130562123e-01 2.919497047411936e-01 1.506187259878100e-01 1.037334940154944e-01 -1.273192633989960e-02 1.015537502122462e-01 -2.012722702020670e-02
            2.919827218366730e-01 1.506289753731816e-01 -8.603114141755271e-02 3.099123478558051e-01 1.014893896385498e-01 -2.009764000376515e-02 1.036429026399998e-01 -1.272414084533227e-02
616217500.0000000000 9.171799048124220e-02 -2.450185130356645e-02 8.266008375308904e-02 -2.299386302624494e-02 2.637375556590232e-02 3.200809000592451e-01 3.280212910867370e-01 4.249453914533267e-02
            8.264823736224280e-02 -2.299305615024588e-02 9.172311856909322e-02 -2.451206448743220e-02 3.280875208232862e-01 4.255201445415772e-02 2.640717772939772e-02 3.200913601562633e-01
            2.627182070336542e-02 3.201400574391507e-01 3.280769447740727e-01 4.255762874798220e-02 8.919673618665948e-02 -1.860090455961532e-02 8.589574355048514e-02 -2.586974549651682e-02
            3.281183201300437e-01 4.256470293223327e-02 2.631060407118608e-02 3.200196338889046e-01 8.591250019792375e-02 -2.587415889654426e-02 8.922639782684882e-02 -1.853378018140203e-02
617050000.0000000000 7.661642951789731e-02 -1.936944017549269e-02 6.734433823856797e-02 -1.669886362207894e-02 1.355743256856083e-01 2.898617405911935e-01 3.256144861280106e-01 -7.309394663108737e-02
            6.732944505907619e-02 -1.668477518803361e-02 7.654803001291481e-02 -1.934977895763018e-02 3.256372332880634e-01 -7.308278133542416e-02 1.355917490537306e-01 2.897498695008661e-01
            1.355647955108835e-01 2.898283408308646e-01 3.256058093524479e-01 -7.298627542658824e-02 7.458128616221985e-02 -1.349030424283515e-02 7.010328081711983e-02 -2.029818705951494e-02
            3.256398116563411e-01 -7.317077890578262e-02 1.356030829188845e-01 2.898088684439376e-01 7.017801735077324e-02 -2.023192313998902e-02 7.461572465770391e-02 -1.349776826038206e-02
617882500.0000000000 6.870892471570708e-02 -5.520123860644004e-03 5.989272114609260e-02 -1.889063740859865e-03 2.264893206776132e-01 2.228809269603798e-01 2.826641755804034e-01 -1.826591316991592e-01
            5.982736836223544e-02 -1.859544253678659e-03 6.866076830984676e-02 -5.628861091348785e-03 2.826075404203201e-01 -1.827900590986484e-01 2.264901828550584e-01 2.228802785769425e-01
            2.264759297716716e-01 2.228562086846249e-01 2.825900590359807e-01 -1.826890524004608e-01 6.693431064781760e-02 2.046797831728370e-04 6.177043067164732e-02 -5.570882034363771e-03
            2.826039104413515e-01 -1.827238328166806e-01 2.265013706938473e-01 2.227923291428313e-01 6.181669802842289e-02 -5.648347516401255e-03 6.687729998267843e-02 2.300915872750438e-04
618715000.0000000000 7.181966476409117e-02 1.016034291281845e-02 6.406323088770365e-02 1.421070472166490e-02 2.868379088253546e-01 1.291448074050639e-01 2.027154333087772e-01 -2.711893171832189e-01
            6.407459702997349e-02 1.425243085801777e-02 7.187417419238215e-02 1.013957873514803e-02 2.026705103105269e-01 -2.712833963080021e-01 2.869367159252663e-01 1.291439046286947e-01
            2.869391134599850e-01 1.291561694706415e-01 2.026753633263216e-01 -2.712685450906104e-01 7.038155806299300e-02 1.570169532707712e-02 6.526745456690045e-02 1.081973217168657e-02
            2.026896489810769e-01 -2.712573447801875e-01 2.868096765373347e-01 1.291083109231335e-01 6.533862499062294e-02 1.088310034347012e-02 7.046450050642863e-02 1.572386840832299e-02
619547500.0000000000 8.454324639505163e-02 1.976804949342605e-02 7.792409928128549e-02 2.344766340475808e-02 3.103976862981979e-01 2.247664784420391e-02 9.596012442678926e-02 -3.257543142210130e-01
            7.792461865757644e-02 2.351156408795398e-02 8.459764297645529e-02 1.976609339896445e-02 9.596035884403012e-02 -3.257636170240221e-01 3.104071214415821e-01 2.236686972373089e-02
            3.103370059005282e-01 2.244076029877810e-02 9.596667503540537e-02 -3.258238422653338e-01 8.324358585581822e-02 2.489646351538881e-02 7.865595004120701e-02 2.079572328654786e-02
            9.596894024581097e-02 -3.258345123463281e-01 3.104158205207537e-01 2.230417073602874e-02 7.863494413188270e-02 2.074753699044918e-02 8.327739742147114e-02 2.492638208874071e-02
620380000.0000000000 1.003374606039988e-01 1.872785273029585e-02 9.431254409707143e-02 2.141502064484926e-02 2.966656514493405e-01 -8.393086952178208e-02 -2.265916294422522e-02 -3.390253185314118e-01
            9.432306420645944e-02 2.147343141063327e-02 1.003550057946704e-01 1.869822345802255e-02 -2.268672032631941e-02 -3.390978763889726e-01 2.967009263042527e-01 -8.397396231991192e-02
            2.965646882442463e-01 -8.399621651791483e-02 -2.279328296151167e-02 -3.390118487040173e-01 9.912695802105159e-02 2.366660803626432e-02 9.509491227851979e-02 1.952600301925906e-02
            -2.274992977597609e-02 -3.390043761796946e-01 2.966079509141646e-01 -8.390408814842898e-02 9.510630230433798e-02 1.955554353581044e-02 9.906173288231747e-02 2.371404169778348e-02
621212500.0000000000 1.116027102065647e-01 7.700293826653046e-03 1.055118537242447e-01 9.262874851678135e-03 2.488330470275136e-01 -1.785315642551834e-01 -1.376576902483935e-01 -3.105737986866303e-01
            1.055186576346756e-01 9.356974627010510e-03 1.116555125438367e-01 7.705304895644259e-03 -1.376824076641023e-01 -3.106347614416594e-01 2.488294793191646e-01 -1.785985507447962e-01
            2.487759205395214e-01 -1.785310301356155e-01 -1.376439075289246e-01 -3.106377647852970e-01 1.103158381055346e-01 1.255874006392386e-02 1.067674646449841e-01 7.961754500399714e-03
            -1.376239902755544e-01 -3.105789835415724e-01 2.488708491067548e-01 -1.785160451096726e-01 1.067765560352946e-01 7.992707461314046e-03 1.103523369288629e-01 1.259711422377387e-02
622045000.0000000000 1.132559468767117e-01 -7.945062592946478e-03 1.063183424984115e-01 -7.184086878815469e-03 1.725801386863132e-01 -2.517925692476267e-01 -2.355635538865345e-01 -2.453767100063247e-01
            1.062427555670399e-01 -7.085516227654169e-03 1.132247704742826e-01 -7.855057854370412e-03 -2.355184551469344e-01 -2.454417462929520e-01 1.725928190496793e-01 -2.517820066506160e-01
            1.725186868967390e-01 -2.517085964086097e-01 -2.356037782178552e-01 -2.453561869897398e-01 1.120246877155549e-01 -3.068795497126110e-03 1.083446598133564e-01 -8.472699965829939e-03
            -2.355606636316035e-01 -2.454255283364191e-01 1.725596889270941e-01 -2.517932509920906e-01 1.082773409257475e-01 -8.595723099289776e-03 1.120202343840455e-01 -2.967222096278217e-03
622877500.0000000000 1.045131795102053e-01 -2.111359188516216e-02 9.641588448723704e-02 -2.041083572291458e-02 7.550059515959152e-02 -2.952310008327989e-01 -3.061161551390155e-01 -1.513272778241794e-01
            9.635964384174073e-02 -2.043456375795186e-02 1.045153401255924e-01 -2.114340702430075e-02 -3.061806963569533e-01 -1.514044439929017e-01 7.552529584833076e-02 -2.952711588816843e-01
            7.554291052112394e-02 -2.953035661069793e-01 -3.062796624455522e-01 -1.513648994963787e-01 1.034262093344046e-01 -1.599677833574365e-02 9.901909659058424e-02 -2.221117364932258e-02
            -3.061200643022130e-01 -1.513709495423461e-01 7.561554433016954e-02 -2.952452417205502e-01 9.908832612841061e-02 -2.224125340550242e-02 1.034261265937587e-01 -1.602096653882034e-02
623710000.0000000000 8.928058797789377e-02 -2.564195487387423e-02 8.002608509785675e-02 -2.430320580693194e-02 -3.132492969055567e-02 -3.025905758931662e-01 -3.418402322917461e-01 -3.824913623362140e-02
            7.998549496658248e-02 -2.430889844708978e-02 8.922039096191933e-02 -2.572360966899297e-02 -3.417428325778047e-01 -3.827810411786284e-02 -3.137017362838018e-02 -3.025617854562893e-01
            -3.137600369573532e-02 -3.025987446727353e-01 -3.416629711428093e-01 -3.832699886862074e-02 8.855753092456628e-02 -2.042698941131890e-02 8.313068418854754e-02 -2.697973296041082e-02
            -3.417343222566202e-01 -3.825882822679297e-02 -3.125895541822226e-02 -3.025034743004013e-01 8.320401417651306e-02 -2.700440933141992e-02 8.857083156814320e-02 -2.040199430725092e-02
624542500.0000000000 7.442551658862145e-02 -1.933952714216874e-02 6.476560183560653e-02 -1.684075326081146e-02 -1.341548744756980e-01 -2.714880895556238e-01 -3.369342787176191e-01 8.193624340270185e-02
            6.482697343507460e-02 -1.683527732909316e-02 7.436354791325636e-02 -1.936690027005458e-02 -3.369290663324819e-01 8.189329922248445e-02 -1.341900472868642e-01 -2.714830292948944e-01
            -1.341863888948419e-01 -2.715190134712643e-01 -3.368889483289432e-01 8.192208910351136e-02 7.447803730043887e-02 -1.406744885983120e-02 6.781177569592783e-02 -2.034057296556308e-02
            -3.369355951337861e-01 8.194814141692298e-02 -1.341396674327578e-01 -2.715128383038437e-01 6.777545017769973e-02 -2.044036782701174e-02 7.441854372709665e-02 -1.411743923431160e-02
625375000.0000000000 6.732301302719412e-02 -4.988176677634901e-03 5.820430210043759e-02 -1.312759568541070e-03 -2.187702488220513e-01 -2.059877800945260e-01 -2.900634104333495e-01 1.949089780421528e-01
            5.818871371955638e-02 -1.203006483600739e-03 6.730324621342146e-02 -4.989451295118568e-03 -2.901084847927206e-01 1.949142568735774e-01 -2.187423064019130e-01 -2.060643167572212e-01
            -2.188238581016742e-01 -2.060428883672143e-01 -2.900690137659222e-01 1.948540123081789e-01 6.809659055878323e-02 -1.378722098640173e-04 6.057776471825898e-02 -5.545246845296868e-03
            -2.900481354899380e-01 1.948794950296060e-01 -2.187908920488254e-01 -2.060293349599808e-01 6.066113121159035e-02 -5.604178349285446e-03 6.806159345826034e-02 -4.864950974132523e-05
626207500.0000000000 7.117003792350420e-02 1.022275690560809e-02 6.320298027805037e-02 1.468800934700846e-02 -2.736979403980778e-01 -1.161756393683615e-01 -2.054301161657217e-01 2.850732591586977e-01
            6.326805443082405e-02 1.461397179556761e-02 7.121725145717027e-02 1.019386608229781e-02 -2.053434364072342e-01 2.850491702900225e-01 -2.737151685726382e-01 -1.161645580783946e-01
            -2.736840982560523e-01 -1.161151287987792e-01 -2.054090223017404e-01 2.850652121168071e-01 7.259005208560707e-02 1.446033704733822e-02 6.477838558515042e-02 9.832700459373619e-03
            -2.053700134552332e-01 2.850424101524851e-01 -2.737298441174376e-01 -1.161604350810686e-01 6.484807478710405e-02 9.918410425430882e-03 7.256117973274630e-02 1.454424720514873e-02
627040000.0000000000 8.377530942088054e-02 1.878271274663014e-02 7.726278534527373e-02 2.319368485779848e-02 -2.936849339352811e-01 -1.478472012726035e-02 -9.389697261866403e-02 3.394891958925061e-01
            7.722944136080039e-02 2.316386383451945e-02 8.372538902698351e-02 1.882914063340579e-02 -9.376779679106376e-02 3.395460676597968e-01 -2.936760329804401e-01 -1.475798177984739e-02
            -2.936366390763334e-01 -1.480258954147868e-02 -9.389636720152875e-02 3.395968098646704e-01 8.549052091822379e-02 2.217028340523868e-02 7.788182978625395e-02 1.838228424435734e-02
            -9.388260468953846e-02 3.394707146978452e-01 -2.937481193357341e-01 -1.476028729369967e-02 7.780050246876054e-02 1.842379469749653e-02 8.543654866147046e-02 2.225539344649305e-02
627872500.0000000000 9.824562424676905e-02 1.701147039854076e-02 9.292892784247037e-02 2.047871098041849e-02 -2.783843917193150e-01 8.546094109378362e-02 2.925515127238528e-02 3.511326758601875e-01
            9.292638284696604e-02 2.044233184745469e-02 9.829782679863004e-02 1.699509941263615e-02 2.917972198255714e-02 3.511717888086761e-01 -2.783203044930722e-01 8.541031003991727e-02
            -2.783653095861611e-01 8.549431187647651e-02 2.921935846696253e-02 3.511646158852293e-01 9.992527256572374e-02 1.955799535577568e-02 9.279991666637523e-02 1.609945709858287e-02
            2.919210390139201e-02 3.512141266841897e-01 -2.783830924508557e-01 8.548455683953909e-02 9.275397027977128e-02 1.612193799647135e-02 1.000059911341266e-01 1.955841541865408e-02
628705000.0000000000 1.075895883770120e-01 6.423645182382641e-03 1.027309006867637e-01 8.304350989567177e-03 -2.311477077467924e-01 1.739651928611463e-01 1.479481043871622e-01 3.199864203105946e-01
            1.027122825210604e-01 8.316630965468428e-03 1.075535484744690e-01 6.400074826282750e-03 1.479022536446162e-01 3.199848167714516e-01 -2.311727791068774e-01 1.738922460931882e-01
            -2.312014413778529e-01 1.739755223643728e-01 1.479395267876914e-01 3.199706132387941e-01 1.091384833280672e-01 8.124635509259622e-03 1.021700315243250e-01 4.538255340516949e-03
            1.480142665277529e-01 3.199614021064551e-01 -2.311610950105237e-01 1.739821307518943e-01 1.021731937576997e-01 4.558773672611031e-03 1.091055014758028e-01 8.177032598595139e-03
629537500.0000000000 1.074167878693002e-01 -7.452787433487039e-03 1.020483049012592e-01 -7.106376510166723e-03 -1.572088700676478e-01 2.415893617750529e-01 2.486901003146203e-01 2.507426423259113e-01
            1.020658657595724e-01 -7.035432565959769e-03 1.074090794436998e-01 -7.557046818331484e-03 2.486858444745038e-01 2.507635519562830e-01 -1.572526507065960e-01 2.415245974796231e-01
            -1.571761808318143e-01 2.415323758858706e-01 2.486462097613597e-01 2.508533215916283e-01 1.086551261144957e-01 -6.240315099255046e-03 1.015409427811599e-01 -1.023994712106704e-02
            2.486375706455860e-01 2.508296529691068e-01 -1.571376033154772e-01 2.415095570962155e-01 1.014876435176031e-01 -1.027705711353843e-02 1.086053899690535e-01 -6.240934735273995e-03
630370000.0000000000 9.794829302877717e-02 -1.778036085664368e-02 9.136687997941538e-02 -1.822876053405284e-02 -6.419184048386976e-02 2.802014032044681e-01 3.206755162370926e-01 1.517456325170229e-01
            9.139243070873816e-02 -1.824914551912069e-02 9.791670718416935e-02 -1.772664226473873e-02 3.206181720169580e-01 1.517335414517146e-01 -6.423723480694521e-02 2.801566518868743e-01
            -6.428519634209488e-02 2.802070075137312e-01 3.206257345319152e-01 1.517776456379038e-01 9.878030706518835e-02 -1.677033064203987e-02 9.107749167619363e-02 -2.104551445291683e-02
            3.206885022195626e-01 1.518322360581942e-01 -6.421393521648096e-02 2.800830981948128e-01 9.100721681169563e-02 -2.104686550219262e-02 9.878892212141427e-02 -1.675723214141729e-02
631202500.0000000000 8.363467416161718e-02 -1.896743207905933e-02 7.557717896978744e-02 -1.951590703424017e-02 3.692050531129968e-02 2.840014036864068e-01 3.556069963455309e-01 3.327016940907194e-02
            7.562314152980169e-02 -1.959934568833667e-02 8.356077363994402e-02 -1.895101821777276e-02 3.555105700296119e-01 3.324579303065983e-02 3.691683303734709e-02 2.840137943842130e-01
            3.692820823081989e-02 2.840246998105824e-01 3.556156571429221e-01 3.327172622818994e-02 8.433535773687445e-02 -1.818113965406236e-02 7.566825363043667e-02 -2.223105866709939e-02
            3.555952187892569e-01 3.326633490778585e-02 3.687539944476390e-02 2.840247837935345e-01 7.573721137090314e-02 -2.228295790508419e-02 8.413685392467515e-02 -1.818467308201035e-02
632035000.0000000000 7.156463969188533e-02 -1.002099139294954e-02 6.244799936686782e-02 -9.916542081467696e-03 1.328232780307211e-01 2.516069917046521e-01 3.478294695325942e-01 -9.187015037919251e-02
            6.241034396632836e-02 -9.831460280159398e-03 7.164869729059918e-02 -1.001432141725382e-02 3.478504791197098e-01 -9.192513476815733e-02 1.328854217631569e-01 2.515848505384298e-01
            1.328494351260647e-01 2.515246599912015e-01 3.478285261294859e-01 -9.194498804584374e-02 7.251802521067909e-02 -9.323270006962748e-03 6.301140695529807e-02 -1.273140979569359e-02
            3.478578672451868e-01 -9.195887969050946e-02 1.327954884125883e-01 2.516226947852900e-01 6.299191227421307e-02 -1.277124236070300e-02 7.242055257927539e-02 -9.371742570485954e-03
632867500.0000000000 6.841528393630458e-02 5.268075519942308e-03 5.886676589461299e-02 6.576914855030021e-03 2.100032444226558e-01 1.876605584690794e-01 2.961869037966451e-01 -2.080715867444655e-01
            5.879550646690618e-02 6.615722602044745e-03 6.853258993605779e-02 5.276036951952743e-03 2.962104256189937e-01 -2.080521333094479e-01 2.100278935367172e-01 1.876471377766507e-01
            2.100378535950602e-01 1.876894600435461e-01 2.962977581603309e-01 -2.080683747538661e-01 6.963659804790880e-02 5.443691015434047e-03 5.979406964819471e-02 3.088733478731289e-03
            2.962504757636715e-01 -2.081436675731934e-01 2.100488245758133e-01 1.876318995414935e-01 5.979148185726794e-02 3.128053985126951e-03 6.966092838651745e-02 5.375858529665021e-03
633700000.0000000000 7.626565482478320e-02 1.921499971096923e-02 6.688702933024124e-02 2.168961227298388e-02 2.586729311884395e-01 1.022039944346677e-01 2.060890497041666e-01 -2.991273674075657e-01
            6.694243496608097e-02 2.174172714536124e-02 7.623175197922676e-02 1.916476453166241e-02 2.061172775604310e-01 -2.991760507526821e-01 2.586740883004860e-01 1.022081135774064e-01
            2.587736842979200e-01 1.023134623650412e-01 2.061754406720851e-01 -2.990366284567015e-01 7.762011019123932e-02 1.847616435641002e-02 6.793719428111770e-02 1.733769148639363e-02
            2.060743767746786e-01 -2.990446435098366e-01 2.587182580037315e-01 1.022224094515863e-01 6.795175814722808e-02 1.736588606648007e-02 7.761995998574600e-02 1.849319206639232e-02
634532500.0000000000 9.135499223544201e-02 2.502059728830702e-02 8.285661843622191e-02 2.817379582834391e-02 2.746888823410193e-01 7.406843560843830e-03 8.965024534672443e-02 -3.522635970887398e-01
            8.284805078478859e-02 2.828580498654029e-02 9.130119309907163e-02 2.512629193155358e-02 8.959861689897586e-02 -3.523164871356675e-01 2.746801317556415e-01 7.481257844976113e-03
            2.747206441384809e-01 7.495116881242599e-03 8.969070439025977e-02 -3.522031007272792e-01 9.252295891771446e-02 2.302931632515184e-02 8.353984947682545e-02 2.270262187433319e-02
            8.968315643009062e-02 -3.523014575041654e-01 2.747253822433493e-01 7.526291807714977e-03 8.355401215733066e-02 2.275345720402920e-02 9.250273990953803e-02 2.301389789702047e-02
635365000.0000000000 1.065498474003794e-01 2.024699265202663e-02 9.928607221600527e-02 2.323461632827421e-02 2.583576106489912e-01 -8.546817956959643e-02 -3.709335895391722e-02 -3.612472112861752e-01
            9.917298881768793e-02 2.310920725863943e-02 1.065659554313388e-01 2.024962167857645e-02 -3.718385954043387e-02 -3.613372044277509e-01 2.584127322350379e-01 -8.545125752592303e-02
            2.583970897403292e-01 -8.551333354535584e-02 -3.719390445664876e-02 -3.613698237416864e-01 1.069872381128881e-01 1.678791322884249e-02 9.900821552582785e-02 1.665663342971361e-02
            -3.714003998637909e-02 -3.613009418802328e-01 2.584378371933279e-01 -8.551000116870230e-02 9.899223478830969e-02 1.671689529554379e-02 1.069088525168500e-01 1.670327610934754e-02
636197500.0000000000 1.153787504443427e-01 7.066475526785570e-03 1.086009715302031e-01 9.223926015411712e-03 2.128556237274094e-01 -1.671717287144320e-01 -1.584469209577350e-01 -3.267096662340181e-01
            1.086827639941050e-01 9.283720345345747e-03 1.154139916365712e-01 7.034056464747133e-03 -1.583154291342622e-01 -3.267650158337966e-01 2.128482597125293e-01 -1.671277806102175e-01
            2.127842196325563e-01 -1.671416025824518e-01 -1.583728685099220e-01 -3.267714607112297e-01 1.142777752108604e-01 2.495204782680157e-03 1.069915831624401e-01 2.066780595221209e-03
            -1.583128070493003e-01 -3.267071645042300e-01 2.128793653279991e-01 -1.671162662841834e-01 1.070019610096128e-01 2.062056955819160e-03 1.142185004401054e-01 2.490392742350266e-03
637030000.0000000000 1.140166317768432e-01 -8.288346453386986e-03 1.072528429604345e-01 -7.188846578831736e-03 1.425907946851443e-01 -2.289928438321674e-01 -2.604783106932171e-01 -2.538425835492744e-01
            1.072107938092212e-01 -7.201533917382832e-03 1.140732983472969e-01 -8.348087510426195e-03 -2.604596259673144e-01 -2.538120917935449e-01 1.425526166491873e-01 -2.290498730072749e-01
            1.425728526781417e-01 -2.290689744745207e-01 -2.605270003440484e-01 -2.538254798572056e-01 1.108829552502547e-01 -1.336422399731381e-02 1.038140761289906e-01 -1.457696035769625e-02
            -2.603861079346967e-01 -2.538265939249553e-01 1.425148593130892e-01 -2.290592984283918e-01 1.038167469755457e-01 -1.461018878526809e-02 1.107903380993873e-01 -1.342026032210764e-02
637862500.0000000000 1.035876699093857e-01 -1.929939455883791e-02 9.595970333765697e-02 -1.865297183418520e-02 5.468094355277871e-02 -2.636125377887732e-01 -3.327242794740325e-01 -1.508580640545734e-01
            9.597027691526079e-02 -1.872262576946414e-02 1.035997081068386e-01 -1.911552130203940e-02 -3.327728875449960e-01 -1.508380227251895e-01 5.472267747911937e-02 -2.636615461725117e-01
            5.476990114687008e-02 -2.636136502287212e-01 -3.328004657079291e-01 -1.507505132992301e-01 9.810024149321157e-02 -2.376614001828801e-02 9.060920250434193e-02 -2.568138333150035e-02
            -3.327950384457471e-01 -1.507464378261343e-01 5.472789866717605e-02 -2.636864757177432e-01 9.065365688003185e-02 -2.571343876992114e-02 9.809403329394070e-02 -2.378570542922103e-02
638695000.0000000000 8.881805383436783e-02 -2.057471461579447e-02 8.003148216207100e-02 -2.021926707545785e-02 -4.037134928972821e-02 -2.652396987761805e-01 -3.667541020032256e-01 -2.817426145637206e-02
            8.010911432410781e-02 -2.027607754359101e-02 8.878815453554563e-02 -2.067036566370944e-02 -3.666557098470454e-01 -2.822152316167762e-02 -4.047117982938900e-02 -2.652963484174693e-01
            -4.037226572217602e-02 -2.652584301460592e-01 -3.666956076664459e-01 -2.818452322290186e-02 8.146809174389290e-02 -2.377918417399987e-02 7.306445327103063e-02 -2.596801690288199e-02
            -3.667282604200430e-01 -2.827765113729294e-02 -4.033590596809256e-02 -2.652659127345813e-01 7.306624680824979e-02 -2.598082908776022e-02 8.148799214893987e-02 -2.379817236138012e-02
639527500.0000000000 7.714715193832662e-02 -1.217972885157230e-02 6.724673039092824e-02 -1.106700248445911e-02 -1.297155694259028e-01 -2.327990237245793e-01 -3.565932984513331e-01 1.003903151470805e-01
            6.733831683367153e-02 -1.089479443275470e-02 7.719552045037827e-02 -1.221011634000505e-02 -3.564948740819380e-01 1.003967978071951e-01 -1.297654059703469e-01 -2.327705073049328e-01
            -1.297293427291411e-01 -2.328220845229074e-01 -3.566319104053647e-01 1.003565076190066e-01 6.877862378584862e-02 -1.298454763484793e-02 5.917329182724212e-02 -1.485017251193557e-02
            -3.566162449935796e-01 1.004501408952703e-01 -1.297257728491798e-01 -2.328303091868549e-01 5.921524621899320e-02 -1.493271510181823e-02 6.879126362641498e-02 -1.304428568681169e-02
640360000.0000000000 7.428449319363109e-02 1.740647797046449e-03 6.408612487105822e-02 4.193501535557078e-03 -2.006916329955163e-01 -1.710131384851733e-01 -3.014900632346366e-01 2.189720527567234e-01
            6.407640358894191e-02 4.271673580404186e-03 7.440322210351684e-02 1.780541871302016e-03 -3.014753741908182e-01 2.190000076836318e-01 -2.006627697302319e-01 -1.709593107461518e-01
            -2.006781140593726e-01 -1.710215103267988e-01 -3.014948340887654e-01 2.189282454772013e-01 6.596178994941601e-02 3.232589074749416e-03 5.554851938042796e-02 2.382318734866305e-03
            -3.014114464549341e-01 2.190349935685138e-01 -2.006928847091510e-01 -1.710607087273219e-01 5.552212530922297e-02 2.505185284309065e-03 6.604904056274484e-02 3.208543266037010e-03
641192500.0000000000 8.166219611880925e-02 1.371102086872946e-02 7.180621216816802e-02 1.759435181228830e-02 -2.442397809126453e-01 -8.982673651851263e-02 -2.073043714292812e-01 3.110345441817827e-01
            7.175024543716313e-02 1.770399997955930e-02 8.174584327688722e-02 1.364449683768942e-02 -2.073556366826153e-01 3.111130339881640e-01 -2.442303172495562e-01 -8.975469632012117e-02
            -2.441760414027781e-01 -8.977132597612622e-02 -2.073691452297592e-01 3.111005617720778e-01 7.449978976409546e-02 1.704713631983747e-02 6.383981400689233e-02 1.781922682430990e-02
            -2.073174787983158e-01 3.110067759633979e-01 -2.441597391618126e-01 -8.981965910319327e-02 6.380492372928614e-02 1.782592601746217e-02 7.450119109759781e-02 1.700899867919967e-02
642025000.0000000000 9.509728144854616e-02 1.729457041531857e-02 8.627197076763624e-02 2.241872748443757e-02 -2.569580149545223e-01 -7.525072610232629e-04 -8.673370708943887e-02 3.639046950963882e-01
            8.632710530939608e-02 2.237633289487178e-02 9.519115459293893e-02 1.732845801931028e-02 -8.678838568761081e-02 3.638589283725318e-01 -2.569645120722770e-01 -7.483331005327164e-04
            -2.569364428714397e-01 -7.616925304386162e-04 -8.683440091036015e-02 3.637894953189749e-01 8.969759012018359e-02 2.177995800467045e-02 7.953810135670121e-02 2.388114839927864e-02
            -8.681795147926834e-02 3.638992959442800e-01 -2.569380064301754e-01 -6.706263768333910e-04 7.949168133654574e-02 2.390255757881234e-02 8.973653530277877e-02 2.174079247018981e-02
642857500.0000000000 1.075001950635166e-01 1.095925558961816e-02 1.003101877657723e-01 1.653076787031154e-02 -2.394511692928359e-01 8.588382511626233e-02 4.377031543174918e-02 3.713560661309364e-01
            1.003318811463045e-01 1.655210696323653e-02 1.075206050174520e-01 1.096601229965628e-02 4.377112091334114e-02 3.713762989486155e-01 -2.394031735694529e-01 8.583605643031320e-02
            -2.394379569382048e-01 8.586265093525965e-02 4.373284250086235e-02 3.713653539847277e-01 1.039919909971007e-01 1.544657361707092e-02 9.480022802705731e-02 1.862359493195790e-02
            4.372768890553883e-02 3.713764609895727e-01 -2.395161817516256e-01 8.581573126190077e-02 9.481137833792509e-02 1.865595733621023e-02 1.039354612154147e-01 1.550258520145900e-02
643690000.0000000000 1.126328555703744e-01 -2.155207541085704e-03 1.071166250775035e-01 3.187763324664843e-03 -1.947255939679316e-01 1.612068485018113e-01 1.680212233379363e-01 3.340579629971167e-01
            1.071564024429194e-01 3.128753213741561e-03 1.126176897339535e-01 -2.207266470404038e-03 1.680165059606808e-01 3.340776043854577e-01 -1.946816361669743e-01 1.611418132480314e-01
            -1.946825136317387e-01 1.612144558149161e-01 1.679878815966916e-01 3.340792631950475e-01 1.105402829457211e-01 1.594402051298297e-03 1.027030315648806e-01 5.164484144543269e-03
            1.680615332175305e-01 3.341066051427085e-01 -1.947781902827902e-01 1.611806185634323e-01 1.026546532633598e-01 5.146999293271393e-03 1.106072433378238e-01 1.517604316467355e-03
644522500.0000000000 1.079168210701899e-01 -1.577502136814823e-02 1.035708463984640e-01 -1.139669724131212e-02 -1.272039600820868e-01 2.173327067082509e-01 2.723310265000139e-01 2.574260081988754e-01
            1.036309316028462e-01 -1.148686998779651e-02 1.078986165699828e-01 -1.579220106643847e-02 2.723493054316539e-01 2.574403626937697e-01 -1.272766103904038e-01 2.173457268470339e-01
            -1.272018894420352e-01 2.174321203529072e-01 2.723446794493970e-01 2.574544775078180e-01 1.064506269316304e-01 -1.339634827321612e-02 9.973861121377191e-02 -9.780477087187997e-03
            2.723712871205113e-01 2.575090587753692e-01 -1.272653716684626e-01 2.174195370315178e-01 9.973619266445383e-02 -9.784234132119084e-03 1.064613985973114e-01 -1.339532344794259e-02
645355000.0000000000 9.513813680639414e-02 -2.337683219524685e-02 9.151031064722027e-02 -2.017285514136367e-02 -4.397307572037742e-02 2.471627432016818e-01 3.453761540144235e-01 1.499487578575932e-01
            9.148638347477141e-02 -2.012160082852921e-02 9.504968511742604e-02 -2.334169318027197e-02 3.454026313668754e-01 1.497963490560097e-01 -4.399797397093187e-02 2.472258086536100e-01
            -4.399081152265881e-02 2.471495994489665e-01 3.454201631875165e-01 1.499700246549047e-01 9.361361723693132e-02 -2.207975724698633e-02 8.776616738919960e-02 -1.884428753024757e-02
            3.453942415206687e-01 1.499066357056860e-01 -4.400533549365906e-02 2.471699711951271e-01 8.774521420702505e-02 -1.879454798294775e-02 9.357222025328356e-02 -2.208963831272110e-02
646187500.0000000000 7.992189637879818e-02 -2.075940885338813e-02 7.657712868449754e-02 -1.873342637209800e-02 4.480862839549689e-02 2.457047214669641e-01 3.782637294608263e-01 2.252853939970991e-02
            7.663283347962355e-02 -1.872297637564017e-02 7.988812261680250e-02 -2.072129203418139e-02 3.782200607960134e-01 2.268013352506839e-02 4.480187565331521e-02 2.457762147505014e-01
            4.480439241125295e-02 2.457220999432296e-01 3.782021243849987e-01 2.258346568354543e-02 7.776567531911412e-02 -2.021130644265175e-02 7.263089905775477e-02 -1.749410266832213e-02
            3.782235767368810e-01 2.263480340507191e-02 4.480611187046966e-02 2.457211234375249e-01 7.257290591100952e-02 -1.744924835964769e-02 7.780834470088646e-02 -2.027465622727991e-02
647020000.0000000000 6.976582353022201e-02 -8.675564178897551e-03 6.650623086187649e-02 -7.626300343519405e-03 1.268522004421581e-01 2.125635657124146e-01 3.650704975646026e-01 -1.099690596140760e-01
            6.639748262692122e-02 -7.611428642685564e-03 6.974720753163177e-02 -8.644651168346172e-03 3.651235630994334e-01 -1.099677568950106e-01 1.268523195499727e-01 2.125143193995401e-01
            1.268540978095121e-01 2.124781282834071e-01 3.650963608579482e-01 -1.099105092308453e-01 6.687927480620239e-02 -8.326394797696986e-03 6.208870505697958e-02 -5.982221150607570e-03
            3.650694719213993e-01 -1.099732511909288e-01 1.268492360812105e-01 2.124763980483767e-01 6.205330416374907e-02 -5.984167949125689e-03 6.694067988873574e-02 -8.408898338564518e-03
647852500.0000000000 6.980616892771517e-02 7.270600275287987e-03 6.650236724605789e-02 7.587086448162131e-03 1.905047759440914e-01 1.530781690705768e-01 3.056685410865475e-01 -2.308267270956615e-01
            6.651522138665199e-02 7.566307447526242e-03 6.981120791118577e-02 7.328370757525346e-03 3.055959701563112e-01 -2.307691825691494e-01 1.905318821166290e-01 1.529583059152861e-01
            1.904872936012422e-01 1.529409979877511e-01 3.056316006987096e-01 -2.308137158488767e-01 6.654067261963140e-02 7.851567684539231e-03 6.207922285171173e-02 9.894268957497950e-03
            3.056640509114238e-01 -2.308421687588554e-01 1.904211024866767e-01 1.530006626509759e-01 6.208850456953953e-02 9.924258060900866e-03 6.643003418495071e-02 7.960098437831995e-03
648685000.0000000000 8.004133405575663e-02 1.941389840651176e-02 7.686466588940417e-02 1.900936027341221e-02 2.281975957991079e-01 7.673095949989449e-02 2.068981796557555e-01 -3.231272580612632e-01
            7.685333401336640e-02 1.892715577331065e-02 8.011136835851197e-02 1.939122915272494e-02 2.068712329240650e-01 -3.231216402904605e-01 2.282635954217878e-01 7.679836730457992e-02
            2.282976828006972e-01 7.675838280831802e-02 2.068482987447747e-01 -3.231316521049424e-01 7.676385908302745e-02 2.052843477000428e-02 7.279452854557952e-02 2.192454187256474e-02
            2.068898499413905e-01 -3.231689373885310e-01 2.282180029625913e-01 7.679954239847997e-02 7.279344261398202e-02 2.193779549420424e-02 7.671096112829771e-02 2.056038627350236e-02
649517500.0000000000 9.547686903083479e-02 2.210657676365643e-02 9.242180361795678e-02 2.074394074035072e-02 2.374499761616066e-01 -5.615947237635372e-03 8.233281812273362e-02 -3.745450252997526e-01
            9.239539264992397e-02 2.068502074481874e-02 9.553522720698956e-02 2.205469869073041e-02 8.228002085758918e-02 -3.745549642608044e-01 2.375093610121542e-01 -5.646335597313522e-03
            2.374723152463479e-01 -5.653814853762658e-03 8.237700581049773e-02 -3.745490154150761e-01 9.255826418880900e-02 2.356206566821697e-02 8.900895062571648e-02 2.405374337975430e-02
            8.229013629011253e-02 -3.745910807343612e-01 2.375536939214476e-01 -5.684740300125697e-03 8.891136631084832e-02 2.400267482932261e-02 9.252608162190755e-02 2.355496996107929e-02
650350000.0000000000 1.086918932761785e-01 1.448194286692584e-02 1.055503214726403e-01 1.173227586289681e-02 2.194098193226838e-01 -8.510720076299319e-02 -5.117144473927215e-02 -3.796240098716546e-01
            1.055487538249242e-01 1.178360228652829e-02 1.086995351852601e-01 1.450698001116452e-02 -5.122407925654578e-02 -3.796434681943225e-01 2.193324752094951e-01 -8.507717614097748e-02
            2.192877631277539e-01 -8.507176547086165e-02 -5.120848718062185e-02 -3.795755588844876e-01 1.064603192840501e-01 1.586907890541847e-02 1.028634619541225e-01 1.513791950677763e-02
            -5.128025025091062e-02 -3.796284828296995e-01 2.193144639352631e-01 -8.508240945471532e-02 1.028848233481097e-01 1.517177361509138e-02 1.064875040316304e-01 1.581866972595770e-02
651182500.0000000000 1.137994870263075e-01 6.417956258220216e-04 1.101661979065237e-01 -3.824096825405733e-03 1.763210452363620e-01 -1.536600506565607e-01 -1.776831359751236e-01 -3.393234995086009e-01
            1.102566497719244e-01 -3.802740473688834e-03 1.137811927496733e-01 5.556087638801390e-04 -1.776887144470413e-01 -3.392845843401394e-01 1.763141392469075e-01 -1.536666480247572e-01
            1.763627698063655e-01 -1.536554343194529e-01 -1.776232298780960e-01 -3.394053410796647e-01 1.122610687482158e-01 1.360276323154937e-03 1.079037043267361e-01 -7.366081333755041e-04
            -1.776585410968878e-01 -3.393611584732278e-01 1.763057533991852e-01 -1.536866302243368e-01 1.078689426550569e-01 -6.822562282494120e-04 1.122758507585947e-01 1.380400397641208e-03
652015000.0000000000 1.087702362228564e-01 -1.307590394067061e-02 1.040531898693402e-01 -1.912190302962528e-02 1.124741458351636e-01 -2.041942805820095e-01 -2.831597880026441e-01 -2.592291572449216e-01
            1.040156992741965e-01 -1.913297585534365e-02 1.087412360779252e-01 -1.313819456647783e-02 -2.831385115699822e-01 -2.591341601246504e-01 1.125630893711883e-01 -2.041412253934888e-01
            1.125140922523838e-01 -2.042732163915190e-01 -2.831183337605546e-01 -2.592626865252368e-01 1.074696260975751e-01 -1.334450318996470e-02 1.016735974268174e-01 -1.609093592396011e-02
            -2.831054618621178e-01 -2.592098770509907e-01 1.124685598460262e-01 -2.041526272252548e-01 1.017623178753539e-01 -1.622656735152479e-02 1.075287656686309e-01 -1.326353296830240e-02
652847500.0000000000 9.610460327546504e-02 -1.991084852302310e-02 8.956976259787075e-02 -2.730078222115014e-02 3.451655840030080e-02 -2.297911353876033e-01 -3.561325247228849e-01 -1.480022961544349e-01
            8.957806526270082e-02 -2.724830767100182e-02 9.604431559419312e-02 -2.000780386972761e-02 -3.561819055223981e-01 -1.479581992173981e-01 3.459535539137014e-02 -2.297757305087017e-01
            3.457813062490407e-02 -2.298007072957717e-01 -3.561436964895880e-01 -1.479269262252139e-01 9.462154118392235e-02 -2.126292497573474e-02 8.681190033000884e-02 -2.435653162738485e-02
            -3.562252290462732e-01 -1.480029054570040e-01 3.455720219394342e-02 -2.299184524597361e-01 8.685253747140283e-02 -2.430886631686583e-02 9.469719785940132e-02 -2.132805739126629e-02
653680000.0000000000 8.201000631501443e-02 -1.666818933559328e-02 7.303701664739914e-02 -2.447310060945490e-02 -4.780783863099339e-02 -2.260541195666015e-01 -3.877181817503523e-01 -1.704938454163774e-02
            7.293815438084048e-02 -2.465498183827584e-02 8.190233465866630e-02 -1.671165629015018e-02 -3.877156854380171e-01 -1.706260138031486e-02 -4.791185716773678e-02 -2.260506207538751e-01
            -4.790515282782296e-02 -2.259593156855275e-01 -3.877515118713407e-01 -1.709788583196912e-02 7.989203568725523e-02 -1.906040661587119e-02 7.011163699756506e-02 -2.105828637910979e-02
            -3.876505217133758e-01 -1.709006181415489e-02 -4.786165943920898e-02 -2.259809777383674e-01 7.011663223523597e-02 -2.101103751956956e-02 7.990525637006946e-02 -1.903046117036374e-02
654512500.0000000000 7.357442841887560e-02 -4.478651733321031e-03 6.223049682089077e-02 -1.207306338340616e-02 -1.229447762984812e-01 -1.928014015225445e-01 -3.719472812547837e-01 1.186068782235025e-01
            6.215466413007585e-02 -1.213149599684590e-02 7.349547647033015e-02 -4.495325590199723e-03 -3.718722905619349e-01 1.184719509290857e-01 -1.228636002895079e-01 -1.928645481410576e-01
            -1.228624329842329e-01 -1.928463950036849e-01 -3.719750272261271e-01 1.184730720183618e-01 7.055261510476417e-02 -7.577058137201585e-03 5.943848614902292e-02 -7.559917876927602e-03
            -3.719874427776294e-01 1.185268937641137e-01 -1.229266071544978e-01 -1.927898291659197e-01 5.935025987001674e-02 -7.593233789156982e-03 7.052757689449188e-02 -7.610239825625055e-03
655345000.0000000000 7.549149529114321e-02 1.049306656710177e-02 6.199838385375844e-02 4.113567497983843e-03 -1.798548510320505e-01 -1.359167639986705e-01 -3.089399730358379e-01 2.411056591583221e-01
            6.197530319960173e-02 4.034234917479027e-03 7.552726292879716e-02 1.050919384689124e-02 -3.089881798345192e-01 2.411038918501095e-01 -1.799488190816141e-01 -1.358997771140357e-01
            -1.798623201174855e-01 -1.359396670126667e-01 -3.089746342928134e-01 2.410756046458896e-01 7.141648215941275e-02 6.923136771281237e-03 5.991880104349420e-02 9.606964273957600e-03
            -3.089540782247459e-01 2.411053227494947e-01 -1.798793681566920e-01 -1.358211977256389e-01 5.989689248399727e-02 9.659315571953922e-03 7.144218133100544e-02 6.948996055493603e-03
656177500.0000000000 8.708231425431120e-02 2.067306318144519e-02 7.209812930412554e-02 1.594500565057516e-02 -2.123548906538710e-01 -6.439688533807034e-02 -2.064811983756034e-01 3.338559122153593e-01
            7.216325410827423e-02 1.588858164986980e-02 8.705657543324082e-02 2.064292193669731e-02 -2.064721790706051e-01 3.337089419866428e-01 -2.122507199220739e-01 -6.438471306625057e-02
            -2.123218571842398e-01 -6.443947606857671e-02 -2.063637838189377e-01 3.337893444802988e-01 8.184526674223408e-02 1.688939565260095e-02 7.143741125827854e-02 2.231801713431968e-02
            -2.065489552701352e-01 3.337508731168701e-01 -2.123172643677697e-01 -6.448797478172769e-02 7.149748646068088e-02 2.226104994229494e-02 8.180237226838302e-02 1.693841873231880e-02
657010000.0000000000 1.027317083265468e-01 2.079300702977358e-02 8.699960230084636e-02 1.804820005360337e-02 -2.184938729925043e-01 1.167296944885102e-02 -7.845458597421286e-02 3.842666875778761e-01
            8.695017421033918e-02 1.805318926010678e-02 1.027139163582230e-01 2.081374646301800e-02 -7.846267197139990e-02 3.843293708738734e-01 -2.184162983311632e-01 1.175461548603469e-02
            -2.185666723751497e-01 1.176722374262565e-02 -7.843074542644572e-02 3.842989594321014e-01 9.618950986630541e-02 1.717413734075170e-02 8.821629338021895e-02 2.434139350162212e-02
            -7.838873963942199e-02 3.843326480122077e-01 -2.184394968043110e-01 1.173780726430217e-02 8.820085924994558e-02 2.435131319059316e-02 9.620054409777935e-02 1.708793295405096e-02
657842500.0000000000 1.148340981688691e-01 1.097536707491910e-02 9.909469413542407e-02 9.909937896912326e-03 -1.994609376724459e-01 8.430329012492781e-02 5.805166124033721e-02 3.874517371182999e-01
            9.909550998535310e-02 9.956423944372048e-03 1.148878988152097e-01 1.096151424807663e-02 5.812476645150123e-02 3.874169285268085e-01 -1.995507959590076e-01 8.431884154887970e-02
            -1.995000819071781e-01 8.432604907420851e-02 5.804175013778672e-02 3.874339502603978e-01 1.070336026831370e-01 7.580063301610799e-03 1.020998325198141e-01 1.540646032273917e-02
            5.808834028027141e-02 3.874284593158592e-01 -1.994546150936012e-01 8.433340754793058e-02 1.019949908707809e-01 1.537080070393596e-02 1.071088119911565e-01 7.715483520427720e-03
658675000.0000000000 1.181953983864768e-01 -4.213548936034687e-03 1.028543680827108e-01 -3.866011826760112e-03 -1.578186490399020e-01 1.462546274365281e-01 1.867290717948704e-01 3.444108242370927e-01
            1.029391808575178e-01 -3.727014175399327e-03 1.182617115648677e-01 -4.157816162678086e-03 1.867963940718632e-01 3.444754278031301e-01 -1.578367358491163e-01 1.463321768887998e-01
            -1.578555384940462e-01 1.463772960266995e-01 1.867155016657226e-01 3.445043633519907e-01 1.091178055377636e-01 -6.902514792313701e-03 1.068240008709745e-01 -1.947956886303010e-04
            1.868211049176094e-01 3.444734681708055e-01 -1.578713917566462e-01 1.463324588113864e-01 1.068383231577597e-01 -2.567165437321523e-04 1.091381555211777e-01 -7.021918924081122e-03
659507500.0000000000 1.113851796279736e-01 -1.810240143536260e-02 9.665613745520095e-02 -1.654445986325015e-02 -9.746530669478211e-02 1.909885953295693e-01 2.935896914017437e-01 2.608979133897044e-01
            9.662093079584466e-02 -1.661450023509837e-02 1.113465255502850e-01 -1.807236657143116e-02 2.936794360389676e-01 2.609055432677934e-01 -9.747324643860007e-02 1.909702422501244e-01
            -9.749088017787978e-02 1.910036994830069e-01 2.936007428658272e-01 2.609847269966256e-01 1.010527247282330e-01 -1.982151382993736e-02 1.006419332583498e-01 -1.513081818179898e-02
            2.936164467098676e-01 2.609871174092077e-01 -9.749647182186785e-02 1.909808123829409e-01 1.007301418759451e-01 -1.508903889923371e-02 1.010634515202923e-01 -1.984738246754848e-02
660340000.0000000000 9.742573602656480e-02 -2.425724342938661e-02 8.330591460999033e-02 -2.214567485320424e-02 -2.481254661659462e-02 2.121335577915043e-01 3.667460051451731e-01 1.457570027143648e-01
            8.334778923785968e-02 -2.226138011842273e-02 9.738621907180210e-02 -2.434577667358878e-02 3.667334718251979e-01 1.457402033801827e-01 -2.482231210950770e-02 2.121215568453065e-01
            -2.480149900534272e-02 2.120884697016600e-01 3.667578819088239e-01 1.458056798555613e-01 8.602777077367182e-02 -2.467875072322422e-02 8.634982238080852e-02 -2.239213163491887e-02
            3.667648837227157e-01 1.458492507901412e-01 -2.473425164896923e-02 2.121676222504495e-01 8.633508282352557e-02 -2.241406564091784e-02 8.603309797551363e-02 -2.467267364142980e-02
661172500.0000000000 8.291208509024960e-02 -2.025705660389695e-02 6.937242273886790e-02 -1.750994847468301e-02 5.093548423881906e-02 2.057935073667306e-01 3.968265033264573e-01 1.104524089088063e-02
            6.940659505949628e-02 -1.735575977197975e-02 8.289936887929872e-02 -2.021148511612510e-02 3.968269191544764e-01 1.099965575480038e-02 5.095257972386752e-02 2.057888800471817e-01
            5.083242909235058e-02 2.056888464406857e-01 3.967633209365289e-01 1.107643110430923e-02 7.095690788357087e-02 -1.876557309064470e-02 7.070146992633662e-02 -1.860539691137356e-02
            3.967208445497595e-01 1.111917591840863e-02 5.091486782181643e-02 2.057564543614428e-01 7.070289141650073e-02 -1.853396014609003e-02 7.107680353811670e-02 -1.871792671994897e-02
662005000.0000000000 7.493656425159001e-02 -7.720092543663753e-03 6.195933318567919e-02 -4.582304086791663e-03 1.185284942156327e-01 1.725737879119935e-01 3.781432279213628e-01 -1.273715256004949e-01
            6.207522805498730e-02 -4.645894749192355e-03 7.482899118710815e-02 -7.727587841862611e-03 3.780761066885977e-01 -1.273109154421563e-01 1.185579631393060e-01 1.725359181009879e-01
            1.185201335524568e-01 1.725551615798301e-01 3.780729330260765e-01 -1.273646257677546e-01 6.315232468351888e-02 -4.196757688734489e-03 6.151755245337411e-02 -5.381279662513656e-03
            3.780850909647485e-01 -1.273291490183910e-01 1.185572660426788e-01 1.725992613891620e-01 6.150106597923868e-02 -5.292256448939183e-03 6.307750463529044e-02 -4.286407382277579e-03
662837500.0000000000 7.724756969836231e-02 6.542298207894472e-03 6.517521835318223e-02 1.002094155166361e-02 1.685571432068416e-01 1.183982534324182e-01 3.113423644528873e-01 -2.513451830164288e-01
            6.516748319701811e-02 1.009671456157836e-02 7.724986874805315e-02 6.534623133999455e-03 3.113713336382308e-01 -2.513694512403149e-01 1.685139360612435e-01 1.184720835065999e-01
            1.685963697068714e-01 1.184084961511258e-01 3.113942488103893e-01 -2.513162573040488e-01 6.633638324172121e-02 1.196436634056320e-02 6.334454020628690e-02 1.057504242424087e-02
            3.113683278542918e-01 -2.513197407050390e-01 1.685970862984026e-01 1.184407392175204e-01 6.337909493753285e-02 1.065034619765811e-02 6.635624758760937e-02 1.204828272750868e-02
663670000.0000000000 8.851673440322747e-02 1.546736385581513e-02 7.735223425913590e-02 1.899863769247587e-02 1.956967397055128e-01 5.221195312705573e-02 2.051166880022519e-01 -3.438267229402955e-01
            7.727600926329065e-02 1.900270322928822e-02 8.852393516297277e-02 1.542105935975274e-02 2.051054652095708e-01 -3.439099011471358e-01 1.956827651661722e-01 5.220582687702875e-02
            1.956488220033822e-01 5.216657529286736e-02 2.051593613946296e-01 -3.438550325878549e-01 7.895738651302955e-02 2.238141158165612e-02 7.519762632892030e-02 2.129564989981384e-02
            2.050372774306808e-01 -3.439412693728144e-01 1.957052109046227e-01 5.222376801904076e-02 7.524005165523723e-02 2.123794222349242e-02 7.895674303897644e-02 2.224892702113365e-02
664502500.0000000000 1.025641023518686e-01 1.445165978484563e-02 9.229307179272962e-02 1.768290865602551e-02 1.988406502590722e-01 -1.734254686822819e-02 7.389908286817859e-02 -3.930969211534778e-01
            9.224077756826543e-02 1.770483735675357e-02 1.025761034367231e-01 1.447583560033868e-02 7.390399745807415e-02 -3.931822691616041e-01 1.988338715377166e-01 -1.743784635663447e-02
            1.988799974741304e-01 -1.738347656937527e-02 7.388533986675053e-02 -3.930517114886963e-01 9.491140085465020e-02 2.202056848411827e-02 9.090286247789334e-02 2.145244686544635e-02
            7.377230561938858e-02 -3.931243857503617e-01 1.987523809512257e-01 -1.745562143562675e-02 9.099455462295357e-02 2.148925529915684e-02 9.485392824507723e-02 2.199605194208928e-02
665335000.0000000000 1.125600123119438e-01 4.539255987371044e-03 1.027498818718994e-01 7.007207341288538e-03 1.792630224078246e-01 -8.297534169768019e-02 -6.520975359595654e-02 -3.942224585362585e-01
            1.027886226828368e-01 6.946651197089416e-03 1.124720434888145e-01 4.588712484935678e-03 -6.521053733493561e-02 -3.942064648800030e-01 1.792156189277797e-01 -8.306807004932240e-02
            1.791616370589000e-01 -8.297910306714455e-02 -6.520965485595333e-02 -3.941855815865737e-01 1.064763409877829e-01 1.194242835776201e-02 1.029524248222086e-01 1.155987314926108e-02
            -6.527479733416122e-02 -3.942634375679395e-01 1.792143197694971e-01 -8.293345297607804e-02 1.029475575348053e-01 1.148128867574815e-02 1.065319631505372e-01 1.193975741241933e-02
666167500.0000000000 1.133808226305968e-01 -9.585308070880599e-03 1.038771947845671e-01 -8.239907679837549e-03 1.392712705285425e-01 -1.383348829898685e-01 -1.958419599518749e-01 -3.485281752093518e-01
            1.038331939307651e-01 -8.216738608458838e-03 1.134458407674801e-01 -9.551920560557503e-03 -1.958493775148817e-01 -3.484830167268795e-01 1.392608154014758e-01 -1.382932803925713e-01
            1.392480796209818e-01 -1.383440672604490e-01 -1.957403722578311e-01 -3.484465970350468e-01 1.088115646196147e-01 -2.790887893503778e-03 1.056656914825497e-01 -3.754734372121097e-03
            -1.957467168862150e-01 -3.485176359183700e-01 1.392907449690112e-01 -1.383655976387840e-01 1.057334928281871e-01 -3.807027171136235e-03 1.088004806621609e-01 -2.706011920139298e-03
667000000.0000000000 1.049430526251208e-01 -2.107237820908759e-02 9.485782176810384e-02 -2.067102065601620e-02 8.252355594347623e-02 -1.771680060486549e-01 -3.035696007007671e-01 -2.616389720288350e-01
            9.486078568479056e-02 -2.062413703742638e-02 1.049481780274928e-01 -2.102876904433254e-02 -3.035057284668701e-01 -2.616782156884933e-01 8.255687030189035e-02 -1.772246757443522e-01
            8.258144852424056e-02 -1.771649271460724e-01 -3.034531528559318e-01 -2.616611256027655e-01 1.010326037427993e-01 -1.514711948056326e-02 9.793181767624885e-02 -1.715994160751933e-02
            -3.036454511349430e-01 -2.616697916438614e-01 8.247601535708397e-02 -1.771558969661751e-01 9.801453736292161e-02 -1.711920222227509e-02 1.011138872690297e-01 -1.512340193335611e-02
667832500.0000000000 9.067218287012532e-02 -2.432045737466624e-02 7.955029550993944e-02 -2.463102126950562e-02 1.529769321892593e-02 -1.937706795029574e-01 -3.763619198867022e-01 -1.428190063728910e-01
            7.960415719154969e-02 -2.462228355995539e-02 9.060406056025050e-02 -2.429019994804960e-02 -3.765426439121020e-01 -1.427666288897710e-01 1.530382251726999e-02 -1.938006176242937e-01
            1.520433891289988e-02 -1.938389242642144e-01 -3.764225639079796e-01 -1.428609320210443e-01 8.726633670916308e-02 -1.924585213234456e-02 8.335674083284648e-02 -2.251196904062317e-02
            -3.763960385893024e-01 -1.427518764721233e-01 1.523488995973174e-02 -1.937214124703424e-01 8.333825779294685e-02 -2.244162048616212e-02 8.723550301986038e-02 -1.921977162400343e-02
668665000.0000000000 7.757323269856287e-02 -1.739006884957929e-02 6.509434641020313e-02 -1.767464601042326e-02 -5.356275384581665e-02 -1.849482403142856e-01 -4.047204776962329e-01 -4.695942924441193e-03
            6.512668824699393e-02 -1.774150508362198e-02 7.759452902880670e-02 -1.740591653009147e-02 -4.047144962556615e-01 -4.691167221909934e-03 -5.347348098626550e-02 -1.849217721413651e-01
            -5.353503270782665e-02 -1.849300044542364e-01 -4.047558034249175e-01 -4.692049467024881e-03 7.427148360574669e-02 -1.286233979914503e-02 6.884393322781761e-02 -1.685995584959872e-02
            -4.047846076850339e-01 -4.762252443292104e-03 -5.346445162253079e-02 -1.848707101448492e-01 6.879368903259699e-02 -1.684282734101926e-02 7.421275813140037e-02 -1.295276013377532e-02
669497500.0000000000 7.216371734406177e-02 -3.202056885418551e-03 5.848301575195464e-02 -2.883706646478025e-03 -1.135353006116511e-01 -1.519613982754519e-01 -3.829503070737944e-01 1.361686258625716e-01
            5.842701619738535e-02 -2.843294725189609e-03 7.227640591935656e-02 -3.249751289222069e-03 -3.828940080101543e-01 1.361346526493733e-01 -1.135274535152837e-01 -1.520122085516199e-01
            -1.135439922707515e-01 -1.519801293449943e-01 -3.829752975835145e-01 1.362091150510886e-01 6.880528745204992e-02 7.176894913001895e-04 6.152159243879283e-02 -3.008421890270882e-03
            -3.829516859991097e-01 1.362324518360806e-01 -1.134752368396463e-01 -1.520252080311908e-01 6.144938342270411e-02 -3.065259047519575e-03 6.883230630869651e-02 6.951387952225061e-04
670330000.0000000000 7.756919998764043e-02 1.107934910544103e-02 6.298573872744614e-02 1.261459325040032e-02 -1.565382997555549e-01 -1.009500569771903e-01 -3.125338448478600e-01 2.610903722931424e-01
            6.303703657681083e-02 1.262412869639360e-02 7.754409826912893e-02 1.107166479125363e-02 -3.125782050474213e-01 2.610636742515122e-01 -1.564558229891596e-01 -1.010401126744787e-01
            -1.564466642608150e-01 -1.010307271922341e-01 -3.126249483629143e-01 2.610478398774859e-01 7.416022184316969e-02 1.468750958357901e-02 6.521989534930638e-02 1.209968965806741e-02
            -3.126498680390036e-01 2.611037228682223e-01 -1.565172197617566e-01 -1.010275594096248e-01 6.516715044834942e-02 1.213886615745381e-02 7.409594923734041e-02 1.463220467635351e-02
671162500.0000000000 9.091528106582551e-02 1.838740793029430e-02 7.631407365336650e-02 2.141430151174814e-02 -1.783340353526904e-01 -4.029163209483630e-02 -2.028415763894058e-01 3.530567867383011e-01
            7.628227309998444e-02 2.133890408086597e-02 9.093360505001784e-02 1.835368826075918e-02 -2.028380461439324e-01 3.530252679050925e-01 -1.783254787012643e-01 -4.020932603509115e-02
            -1.783280126450861e-01 -4.025966106817001e-02 -2.028870376983727e-01 3.530916382452504e-01 8.755759917009058e-02 2.157452153975147e-02 7.783167320346804e-02 2.083731518313116e-02
            -2.028486523914773e-01 3.530102688438368e-01 -1.782996650141385e-01 -4.023308120847689e-02 7.784906565446058e-02 2.095352844188591e-02 8.753954548359986e-02 2.161970420241888e-02
671995000.0000000000 1.057682419351267e-01 1.525358356767296e-02 9.180288951104600e-02 1.955378163192894e-02 -1.785530202697808e-01 2.245636629905057e-02 -6.884776999413666e-02 4.006779317546719e-01
            9.188719308246109e-02 1.950577593506557e-02 1.057616492319034e-01 1.526307909175895e-02 -6.883527040773227e-02 4.007473483011326e-01 -1.785260566580363e-01 2.244466825244491e-02
            -1.786037681888460e-01 2.246013901608249e-02 -6.886808019281847e-02 4.007085772506124e-01 1.024651980277603e-01 1.803316774902069e-02 9.298710269134224e-02 1.923807437797369e-02
            -6.881702117873252e-02 4.006854159831271e-01 -1.785630103243971e-01 2.251520400702645e-02 9.299178668477835e-02 1.925337013673312e-02 1.025206965948143e-01 1.808902533428267e-02
672827500.0000000000 1.151925000631915e-01 3.422912867066444e-03 1.021912433911857e-01 8.392240783122902e-03 -1.587756987917477e-01 8.091912032737768e-02 7.229712543920284e-02 3.995040185905487e-01
            1.021425490301762e-01 8.366829915493663e-03 1.152022870382873e-01 3.399700150768221e-03 7.235100469242052e-02 3.996062363774451e-01 -1.587112621734464e-01 8.086020980732940e-02
            -1.587334211587531e-01 8.089087379441409e-02 7.235524559142698e-02 3.996164864459245e-01 1.116306839576822e-01 5.633675379304563e-03 1.033855039758812e-01 8.163576486679258e-03
            7.222663810908196e-02 3.995730048485640e-01 -1.587146683892066e-01 8.089667349620422e-02 1.033876009030744e-01 8.234044446771590e-03 1.116997190536716e-01 5.633294738927307e-03
673660000.0000000000 1.148424220206047e-01 -1.162261700031996e-02 1.030089281854427e-01 -6.506576452560194e-03 -1.206568634247168e-01 1.294999427858459e-01 2.043113348828753e-01 3.512791654855428e-01
            1.030269106658021e-01 -6.625283585524382e-03 1.148155324222145e-01 -1.163236516770566e-02 2.041547317690477e-01 3.512161335322390e-01 -1.206991952091459e-01 1.295240258666038e-01
            -1.207392452044919e-01 1.295770118512264e-01 2.042418248889223e-01 3.511993034136984e-01 1.109569226630898e-01 -1.004246796786425e-02 1.041899016930276e-01 -6.935373809190864e-03
            2.042052503025572e-01 3.512424445137432e-01 -1.207469363208935e-01 1.295473016476248e-01 1.041281592876432e-01 -6.962087479857536e-03 1.109877498665345e-01 -1.002856880595778e-02
674492500.0000000000 1.050048138975706e-01 -2.314015062264452e-02 9.398045667667491e-02 -1.851003921934706e-02 -6.803805881771897e-02 1.625557690126079e-01 3.124741916768470e-01 2.613883090779797e-01
            9.399560271604633e-02 -1.841344501205366e-02 1.050083437537243e-01 -2.304869001220970e-02 3.125250100250840e-01 2.612940862631377e-01 -6.799463832287971e-02 1.626352090413504e-01
            -6.803216431165397e-02 1.625819181107792e-01 3.125373996240207e-01 2.613448608587617e-01 1.004773342058830e-01 -2.176787443760610e-02 9.500094655474019e-02 -1.903174763763993e-02
            3.124536975483616e-01 2.614145683408942e-01 -6.808479273063271e-02 1.626374954263499e-01 9.499708759777169e-02 -1.906252941191804e-02 1.003751069319527e-01 -2.176567582199807e-02
675325000.0000000000 9.023015646587366e-02 -2.550536040178403e-02 7.943285931207177e-02 -2.160190455850505e-02 -6.537707133627838e-03 1.751267031934368e-01 3.848203955812121e-01 1.393694683807074e-01
            7.943799306187117e-02 -2.164255280219340e-02 9.022976109290197e-02 -2.550936341894300e-02 3.848084244956424e-01 1.394036901147380e-01 -6.563021932462818e-03 1.749790563774162e-01
            -6.548187268048657e-03 1.750369684454126e-01 3.848410379493493e-01 1.394089793051466e-01 8.480948432420957e-02 -2.419602655215590e-02 8.000472404232511e-02 -2.242576095600038e-02
            3.847929412252421e-01 1.393400345331479e-01 -6.497541645081245e-03 1.750135706749396e-01 8.005888636312140e-02 -2.241645486839034e-02 8.479186902583306e-02 -2.415313268371053e-02
676157500.0000000000 7.733608078034550e-02 -1.760665122950215e-02 6.639241633468754e-02 -1.442295890109464e-02 5.530717710805685e-02 1.641502470368493e-01 4.113284430278746e-01 -1.622674188372476e-03
            6.628104350730203e-02 -1.435599831037316e-02 7.734989496548779e-02 -1.754493577931166e-02 4.113061768477211e-01 -1.597365554871708e-03 5.523033400529129e-02 1.641526796324769e-01
            5.532567297394546e-02 1.640992953415431e-01 4.112872761607369e-01 -1.564052209121809e-03 7.131618058242208e-02 -1.595662847775530e-02 6.624390925254235e-02 -1.511634454466984e-02
            4.112713014788955e-01 -1.534594348007338e-03 5.519020668380687e-02 1.641272042143706e-01 6.632038393326757e-02 -1.514802265363365e-02 7.130623722471602e-02 -1.597691385467458e-02
676990000.0000000000 7.290987768471176e-02 -3.136508991755719e-03 6.133884794757111e-02 -2.958382074023384e-04 1.078625291148098e-01 1.317928453242515e-01 3.867389183709763e-01 -1.443887138667182e-01
            6.123887912786705e-02 -3.066635351434563e-04 7.288583254817990e-02 -3.199186164147187e-03 3.867627285849706e-01 -1.443702073637730e-01 1.078830855973917e-01 1.318558262083213e-01
            1.078584896586553e-01 1.317736776574165e-01 3.867332474208822e-01 -1.443723454126002e-01 6.649126286846078e-02 -1.001906508088144e-03 6.076532386066445e-02 -5.535336932523225e-04
            3.867360362031577e-01 -1.443357646267259e-01 1.078640113257563e-01 1.318752778208318e-01 6.077085415063507e-02 -5.718019732791218e-04 6.655864519839330e-02 -9.641713847426379e-04
677822500.0000000000 7.904125120389915e-02 1.048018127888865e-02 6.686881519446469e-02 1.355233284335547e-02 1.441308940626127e-01 8.410033213504955e-02 3.131868981872097e-01 -2.698967340995801e-01
            6.687293896784306e-02 1.351823956730776e-02 7.912172417072624e-02 1.053864789606162e-02 3.132098092614816e-01 -2.698454574815351e-01 1.441401722835832e-01 8.409650142102233e-02
            1.441397991827693e-01 8.409326322878223e-02 3.131902514323737e-01 -2.697512380100438e-01 7.274638118089416e-02 1.321046301583175e-02 6.618147969672195e-02 1.396066542079214e-02
            3.131184329159356e-01 -2.698426156340869e-01 1.441147548092845e-01 8.408489062809245e-02 6.617309053106586e-02 1.395539261296481e-02 7.273963641117565e-02 1.314938349151086e-02
678655000.0000000000 9.262237028767968e-02 1.670292532982710e-02 8.007335606792919e-02 2.022517305669841e-02 1.609870242313242e-01 2.882586819013582e-02 2.004700815786752e-01 -3.612118444017348e-01
            8.000781318017949e-02 2.023053004058354e-02 9.267779233222706e-02 1.659291634283145e-02 2.003168983816743e-01 -3.612631262774356e-01 1.609851232369423e-01 2.876230682768349e-02
            1.609923926278626e-01 2.878802715199383e-02 2.004140240244517e-01 -3.613002005137682e-01 8.655779789347615e-02 1.944208016715980e-02 7.968008437609503e-02 2.138650790404510e-02
            2.004156265218136e-01 -3.612492807206133e-01 1.609908903679512e-01 2.877594092630678e-02 7.970464672369389e-02 2.133247256196687e-02 8.657846272700291e-02 1.935505057917470e-02
679487500.0000000000 1.069367660677695e-01 1.249557788327761e-02 9.420753027102818e-02 1.672146353948393e-02 1.585406414568789e-01 -2.728494521585026e-02 6.384671629086218e-02 -4.074768119679072e-01
            9.424205588815776e-02 1.669188113202122e-02 1.069242125913413e-01 1.254311944115358e-02 6.380017743286261e-02 -4.074086221827579e-01 1.585463101854548e-01 -2.727524562250453e-02
            1.585599464654905e-01 -2.720220099577997e-02 6.379805917865143e-02 -4.074731357398133e-01 1.009465749534166e-01 1.501230264437387e-02 9.456037878560526e-02 1.809176914792803e-02
            6.378886000007444e-02 -4.073914235996717e-01 1.585324669321845e-01 -2.731542168911881e-02 9.463388114190227e-02 1.806164433078697e-02 1.010312495918404e-01 1.504663906195730e-02
680320000.0000000000 1.151857865401313e-01 2.359033248829274e-04 1.025628590701903e-01 4.882981179596376e-03 1.382666722409341e-01 -7.867474293584285e-02 -7.923209207214019e-02 -4.042758165150475e-01
            1.025448292768925e-01 4.883625793172130e-03 1.151832085662798e-01 2.633755794539581e-04 -7.920541206164630e-02 -4.042681295107677e-01 1.383440595336329e-01 -7.869598133935429e-02
            1.381724010695785e-01 -7.867318097184882e-02 -7.916367685190154e-02 -4.043551670159256e-01 1.087924222932859e-01 2.244462859122578e-03 1.037845759975999e-01 6.056083140347211e-03
            -7.920899274928968e-02 -4.042682512152190e-01 1.382665297739660e-01 -7.855383085221557e-02 1.038366879972613e-01 6.026678168676025e-03 1.088801957042360e-01 2.170565992866630e-03
681152500.0000000000 1.137747032622595e-01 -1.438311074075264e-02 1.013664711836892e-01 -9.432420901247948e-03 1.022792819129530e-01 -1.206119395943078e-01 -2.123636758747875e-01 -3.533535640456566e-01
            1.013718442927500e-01 -9.346752649563639e-03 1.136661702474814e-01 -1.444785809754122e-02 -2.123730917847996e-01 -3.534165734432647e-01 1.021918647330454e-01 -1.205528556385108e-01
            1.021885044567827e-01 -1.205917266304826e-01 -2.122784866607685e-01 -3.533804312016565e-01 1.065399133303254e-01 -1.277864254549222e-02 1.031451961452707e-01 -8.975219850488400e-03
            -2.122569732260205e-01 -3.534064095928957e-01 1.022215128758864e-01 -1.206270857161237e-01 1.030251776349231e-01 -9.064394186238793e-03 1.064921475596346e-01 -1.279376531996230e-02
681985000.0000000000 1.033851835113681e-01 -2.476646409656126e-02 9.113407066559988e-02 -1.954818479467680e-02 5.337589792178619e-02 -1.478224743914979e-01 -3.210440658523427e-01 -2.605844484485862e-01
            9.112619119836872e-02 -1.945899453724293e-02 1.034425104035039e-01 -2.475341068798181e-02 -3.210340015670139e-01 -2.605486146166036e-01 5.345432363786612e-02 -1.478080151249227e-01
            5.348115083799841e-02 -1.477900949007241e-01 -3.210181509576337e-01 -2.605639015585105e-01 9.478530088987376e-02 -2.294855421629868e-02 9.278676119420159e-02 -2.023696969610293e-02
            -3.210259402394321e-01 -2.605377604015143e-01 5.344815095820626e-02 -1.478346449981757e-01 9.283630566788145e-02 -2.024777750248519e-02 9.477015081837820e-02 -2.295656167794052e-02
682817500.0000000000 8.891938851172679e-02 -2.595383335466288e-02 7.677918194151996e-02 -2.059431742436495e-02 -2.178855791142715e-03 -1.558770251549262e-01 -3.925524282135470e-01 -1.354935321431975e-01
            7.675208318285622e-02 -2.056540598814714e-02 8.894445478637684e-02 -2.597804068945644e-02 -3.925021236000848e-01 -1.354513964700317e-01 -2.234087617493155e-03 -1.559142878949939e-01
            -2.192204649849265e-03 -1.559161349624873e-01 -3.925125573000472e-01 -1.354787192764427e-01 7.879277386847111e-02 -2.320902736759295e-02 7.771638565875170e-02 -2.224180405668828e-02
            -3.924910225757053e-01 -1.354531299036616e-01 -2.191662725442856e-03 -1.559398983220423e-01 7.776104723740682e-02 -2.219940080823954e-02 7.883832636337988e-02 -2.317879781091875e-02
683650000.0000000000 7.743914027610657e-02 -1.751287203069777e-02 6.517568954725994e-02 -1.178328476499838e-02 -5.677523719487281e-02 -1.429800635095727e-01 -4.170494582909382e-01 8.143147054144588e-03
            6.517865049144682e-02 -1.186099331238896e-02 7.741893395598853e-02 -1.749094044599828e-02 -4.169982134425488e-01 8.183232135024339e-03 -5.675076309385028e-02 -1.429374753464837e-01
            -5.677588019881016e-02 -1.430170215417544e-01 -4.170438476944544e-01 8.198663343152749e-03 6.632808723889486e-02 -1.298158111286748e-02 6.482579348170400e-02 -1.383910773706171e-02
            -4.170316155115030e-01 8.123983574346868e-03 -5.684401790607430e-02 -1.428817447392457e-01 6.484885307889494e-02 -1.382602019414938e-02 6.625473002766256e-02 -1.292560678326589e-02
684482500.0000000000 7.439790193679593e-02 -3.765854106298881e-03 6.220821068333930e-02 2.452478208702154e-03 -1.017216529593914e-01 -1.114327996074071e-01 -3.895115284414529e-01 1.524563641836449e-01
            6.221984593383387e-02 2.489240222826282e-03 7.453978267691709e-02 -3.769100572664081e-03 -3.895836065936986e-01 1.524138824717403e-01 -1.017488621957120e-01 -1.113710536042951e-01
            -1.017399058838061e-01 -1.113759341494936e-01 -3.895107067882012e-01 1.524829344041857e-01 6.326275807216825e-02 3.222909149042249e-03 6.066861675186069e-02 8.521017516469038e-04
            -3.894663214702168e-01 1.524491011551374e-01 -1.017859020275168e-01 -1.113648090181954e-01 6.059405849097271e-02 8.276953774081110e-04 6.329155626180728e-02 3.199764816648020e-03
685315000.0000000000 8.156078969765346e-02 8.114465350916453e-03 6.963143799751115e-02 1.514918452815332e-02 -1.311533052686583e-01 -6.721294759452892e-02 -3.127960993746206e-01 2.781174619383612e-01
            6.957140254764757e-02 1.512611704639657e-02 8.153639086534935e-02 8.110084383089996e-03 -3.128260882800936e-01 2.781664878077923e-01 -1.312461670596704e-01 -6.726271622678089e-02
            -1.311513239908019e-01 -6.715780683817726e-02 -3.127565807443111e-01 2.781185366582521e-01 7.150045809654870e-02 1.738789703635274e-02 6.710072817624425e-02 1.451213985608120e-02
            -3.128618837020097e-01 2.782201526615259e-01 -1.312717257743801e-01 -6.715520507354751e-02 6.711246200257526e-02 1.455895530280756e-02 7.133421109106121e-02 1.747382775031791e-02
686147500.0000000000 9.464162278811036e-02 1.205691809733385e-02 8.349551229706832e-02 1.970932269611771e-02 -1.431324530341118e-01 -1.754525085445209e-02 -1.972046945902512e-01 3.685764202214165e-01
            8.345486523018943e-02 1.971914603671747e-02 9.460893531773085e-02 1.206883077686277e-02 -1.972457339158178e-01 3.687726146635780e-01 -1.431573100931321e-01 -1.759471920391518e-02
            -1.430342242927086e-01 -1.761459224504784e-02 -1.973018133974369e-01 3.686725025898887e-01 8.650935545976784e-02 2.298574486945199e-02 8.072255598289273e-02 2.048977339727215e-02
            -1.972965222628805e-01 3.685837536689341e-01 -1.431062717741855e-01 -1.753187830618474e-02 8.074085079747434e-02 2.040374664762183e-02 8.655675456504408e-02 2.302918998143866e-02
686980000.0000000000 1.070417585021073e-01 6.143074421974709e-03 9.702901784253214e-02 1.413421731128143e-02 -1.380826645194856e-01 3.164909780359852e-02 -5.853883609560388e-02 4.131432046549246e-01
            9.697117908594947e-02 1.411485776391770e-02 1.070015319154035e-01 6.130931896739757e-03 -5.858681632632449e-02 4.132211864203689e-01 -1.380547638700516e-01 3.161432696626854e-02
            -1.381676335799601e-01 3.163411720606191e-02 -5.860204689195612e-02 4.132346695593266e-01 1.013883540170487e-01 1.772137529514289e-02 9.461918304344474e-02 1.599458718863004e-02
            -5.854052256754076e-02 4.131855556419667e-01 -1.381167581644882e-01 3.164266888843849e-02 9.470128490107602e-02 1.595009130990977e-02 1.014341224920329e-01 1.768673446111655e-02
687812500.0000000000 1.125180504803332e-01 -6.645386539941848e-03 1.037486829490930e-01 1.101287894448543e-03 -1.176827482830646e-01 7.595788990264303e-02 8.602453230720715e-02 4.079825763243039e-01
            1.037614450738646e-01 1.139025229191315e-03 1.125044591622411e-01 -6.616154339332160e-03 8.598314180246749e-02 4.079614996725771e-01 -1.177746304241152e-01 7.591689860353594e-02
            -1.176505219910206e-01 7.584790790116995e-02 8.596942427776695e-02 4.079357627928955e-01 1.092974461326483e-01 4.300899330634123e-03 1.022363328018991e-01 3.630919511720103e-03
            8.600900524656130e-02 4.079765778961980e-01 -1.176048945234949e-01 7.602751712429680e-02 1.021775107924635e-01 3.718481409521094e-03 1.092589452361027e-01 4.441435620289156e-03
688645000.0000000000 1.082885538168204e-01 -2.025176886517504e-02 1.006155748920685e-01 -1.335898082718190e-02 -8.369499558789877e-02 1.110334385661194e-01 2.200361769170157e-01 3.545950434911402e-01
            1.005903873228473e-01 -1.339403039240074e-02 1.082691682579282e-01 -2.019056365582238e-02 2.200758092672432e-01 3.545609819074373e-01 -8.373098131556292e-02 1.110632314647437e-01
            -8.359921808522330e-02 1.110765917417410e-01 2.200374804477600e-01 3.545722082508801e-01 1.067128151387585e-01 -1.065347747844705e-02 1.000328354443697e-01 -1.062223648374322e-02
            2.200727132575983e-01 3.545988375034269e-01 -8.369381705215266e-02 1.111198182843940e-01 1.000220994655980e-01 -1.078976638763570e-02 1.067246485610889e-01 -1.074049186373640e-02
689477500.0000000000 9.612881830117707e-02 -2.822365930382745e-02 8.900848642174991e-02 -2.262468360029447e-02 -3.917510896653631e-02 1.325223824464994e-01 3.288262078114055e-01 2.589818916031441e-01
            8.891183153049059e-02 -2.269454256684758e-02 9.616913225630339e-02 -2.832530503892125e-02 3.288589335745922e-01 2.589243436113778e-01 -3.916309348727116e-02 1.325924249543024e-01
            -3.916865058528812e-02 1.325996842771456e-01 3.287616566377590e-01 2.590097338307396e-01 9.529955983195727e-02 -2.052060496901509e-02 8.897498209816550e-02 -2.024469726820931e-02
            3.287656439610875e-01 2.589973679292745e-01 -3.919302240416520e-02 1.325309446665951e-01 8.887821176854446e-02 -2.033710863589770e-02 9.524557895971716e-02 -2.047634550266244e-02
690310000.0000000000 8.140330703873977e-02 -2.665798145338004e-02 7.391450757424924e-02 -2.237676727771881e-02 1.056151231487234e-02 1.364601077223207e-01 3.993391944267437e-01 1.310743215960410e-01
            7.394632407366092e-02 -2.238788327098778e-02 8.135564854485647e-02 -2.664887016682369e-02 3.993588705978374e-01 1.310864719907923e-01 1.055726277057779e-02 1.364930456154815e-01
            1.052919314800527e-02 1.365142572719500e-01 3.993889544368130e-01 1.311006024141075e-01 8.028513596266468e-02 -2.054981484325427e-02 7.405514514063101e-02 -2.055430162653378e-02
            3.993638664644137e-01 1.310443681509073e-01 1.052578363257000e-02 1.364739107089939e-01 7.407823240095991e-02 -2.056414820739289e-02 8.024794433285300e-02 -2.053874838694648e-02
691142500.0000000000 7.096629530224904e-02 -1.588364516826631e-02 6.258833377131164e-02 -1.282883396145748e-02 5.774881242439731e-02 1.216480084060654e-01 4.216453066752587e-01 -1.471283214638220e-02
            6.264376342138800e-02 -1.264740814323150e-02 7.088295756891440e-02 -1.593624341358317e-02 4.216157169029093e-01 -1.469569710056646e-02 5.778620253758426e-02 1.215955895826220e-01
            5.769728996811452e-02 1.217436030726557e-01 4.216738993825556e-01 -1.469233362035900e-02 6.907953691256175e-02 -1.079429065794285e-02 6.241973301853163e-02 -1.114387783711967e-02
            4.218099990146558e-01 -1.467014266050452e-02 5.777289030573514e-02 1.216793447779394e-01 6.243573757765211e-02 -1.118442275497899e-02 6.904822038241887e-02 -1.079299341546304e-02
691975000.0000000000 6.987349006494270e-02 -1.146251596810890e-03 6.032416120405244e-02 1.800748614297710e-03 9.518709179532245e-02 9.111070192399395e-02 3.914391735810737e-01 -1.601970511213778e-01
            6.038101734998114e-02 1.732859831596678e-03 6.981745500812768e-02 -9.857843974186199e-04 3.914082642006843e-01 -1.602120241270620e-01 9.522205847095024e-02 9.109702724344712e-02
            9.521176892889474e-02 9.109982639807120e-02 3.914019842626206e-01 -1.602322998230185e-01 6.709513366256661e-02 3.799506360145754e-03 5.962087021980259e-02 3.494631198878034e-03
            3.914104574289746e-01 -1.601619570416076e-01 9.522150799635426e-02 9.106376266754908e-02 5.972487576686281e-02 3.536790361449306e-03 6.704288858371960e-02 3.822739323788131e-03
692807500.0000000000 7.856681821084643e-02 1.067722248166853e-02 6.780745122313556e-02 1.370514270169535e-02 1.181333759308547e-01 5.049417523629969e-02 3.118233734623756e-01 -2.858300677157822e-01
            6.779599293632237e-02 1.366996815655786e-02 7.860033769246534e-02 1.068595814956716e-02 3.118591213894408e-01 -2.858922864396171e-01 1.181359707430222e-01 5.042945505109555e-02
            1.180679919246737e-01 5.058754097293741e-02 3.118338977456191e-01 -2.859129481446473e-01 7.508408517028688e-02 1.579898423557639e-02 6.699115352426338e-02 1.611356672189221e-02
            3.118019030058207e-01 -2.858610420709487e-01 1.181208346995642e-01 5.049214641448713e-02 6.685805800302425e-02 1.611883391428859e-02 7.514468406953184e-02 1.578253992686927e-02
693640000.0000000000 9.235428905152095e-02 1.358338846254951e-02 8.079236459154600e-02 1.751149452176226e-02 1.253054696696163e-01 6.382607478192135e-03 1.937514758773829e-01 -3.754043656553779e-01
            8.078997826536993e-02 1.747377389005108e-02 9.237693056118802e-02 1.361409924638292e-02 1.938058818248656e-01 -3.753790693668163e-01 1.252280232140277e-01 6.419140916339607e-03
            1.252229023862031e-01 6.458251186989300e-03 1.939082520639210e-01 -3.753638469553535e-01 8.891690834557892e-02 1.924393779814511e-02 8.010756004532077e-02 2.080952510279497e-02
            1.937818670876806e-01 -3.754385445975412e-01 1.252509723034495e-01 6.465066800382990e-03 8.012835912504133e-02 2.075233383141501e-02 8.889428070103408e-02 1.928230801089739e-02
694472500.0000000000 1.042587254716142e-01 6.938677351601218e-03 9.244169786207154e-02 1.180053555591839e-02 1.175694256492011e-01 -3.617471952677576e-02 5.309248860452154e-02 -4.185018600247030e-01
            9.248338584494910e-02 1.177412533917726e-02 1.043450962118166e-01 6.875385874715700e-03 5.320865990428718e-02 -4.184682406516172e-01 1.175781208170084e-01 -3.616867775532322e-02
            1.176458877718366e-01 -3.608246910233701e-02 5.316257138838416e-02 -4.184383207693007e-01 1.012176416394981e-01 1.279925638935398e-02 9.254656515856186e-02 1.589003958762333e-02
            5.314541175838881e-02 -4.184384607230435e-01 1.175754512649087e-01 -3.620104607913392e-02 9.258885271568223e-02 1.584006898659112e-02 1.011490172013131e-01 1.280906279645703e-02
695305000.0000000000 1.086160408758176e-01 -5.863552375419101e-03 9.710679873985795e-02 -3.928680611720807e-05 9.677552924988424e-02 -7.334840584592510e-02 -9.298999009969981e-02 -4.111888323774383e-01
            9.704757833715608e-02 -3.025749630171606e-06 1.086791556209012e-01 -5.771975058269451e-03 -9.298657389722489e-02 -4.112586393136151e-01 9.674192207270885e-02 -7.336421797791816e-02
            9.678915318418962e-02 -7.343301855612522e-02 -9.298993611548249e-02 -4.112085895892756e-01 1.059350930006270e-01 5.172342495799454e-06 9.838420072296619e-02 4.367749280444911e-03
            -9.297620301800352e-02 -4.112097661340328e-01 9.679971786026545e-02 -7.336291443593226e-02 9.828649779062956e-02 4.331298447130915e-03 1.059715438235007e-01 6.463288844117637e-05
696137500.0000000000 1.034009579363505e-01 -1.811310652057331e-02 9.239748289162628e-02 -1.184693476364765e-02 6.461017773574806e-02 -1.015983500040807e-01 -2.280806683348996e-01 -3.551965494916484e-01
            9.232158364595672e-02 -1.183084637206728e-02 1.033382697750618e-01 -1.802915328955213e-02 -2.281583125891780e-01 -3.552212627126134e-01 6.452080828809170e-02 -1.015016576984630e-01
            6.457195715567392e-02 -1.015363874747256e-01 -2.280856527251912e-01 -3.551748857242533e-01 1.010151513640093e-01 -1.281149524970762e-02 9.483309383561565e-02 -7.791013732605929e-03
            -2.281157615943719e-01 -3.551594501586949e-01 6.451663461490377e-02 -1.015452000211339e-01 9.488423475857942e-02 -7.785690269015642e-03 1.010448240015576e-01 -1.281022206165895e-02
696970000.0000000000 9.094256504720792e-02 -2.380885277923800e-02 8.067461954588528e-02 -1.753828795557529e-02 2.404235324520573e-02 -1.166794674021307e-01 -3.367650622537223e-01 -2.565142871778753e-01
            8.058923349870840e-02 -1.746227976564788e-02 9.097145702981123e-02 -2.382743511377206e-02 -3.368759371831775e-01 -2.564194942617497e-01 2.411533705888179e-02 -1.167018557872661e-01
            2.411929665295982e-02 -1.166986130667793e-01 -3.368099640101023e-01 -2.564768759828617e-01 8.860115716185796e-02 -1.907649439189919e-02 8.390350046333919e-02 -1.433911977320099e-02
            -3.368353466817422e-01 -2.564631785317746e-01 2.406349602457313e-02 -1.167060210278575e-01 8.389767912042143e-02 -1.435185614543091e-02 8.860888573493128e-02 -1.914317243400754e-02
697802500.0000000000 7.762052674995609e-02 -1.968166681412635e-02 6.762463043989654e-02 -1.368408853631468e-02 -1.922897286750837e-02 -1.158168311063518e-01 -4.059269957613437e-01 -1.253817732189682e-01
            6.764084977216898e-02 -1.363918018508481e-02 7.756465564022490e-02 -1.970651915590281e-02 -4.059129238327053e-01 -1.252943938371902e-01 -1.924254463248540e-02 -1.157758468878368e-01
            -1.922345785442666e-02 -1.158138623851832e-01 -4.059832580345598e-01 -1.254427797584976e-01 7.475052399389619e-02 -1.542903510433900e-02 7.112015632187962e-02 -1.161663759292172e-02
            -4.058742923535292e-01 -1.253149002549117e-01 -1.916342241518706e-02 -1.157717367570959e-01 7.118075975283891e-02 -1.161755066747420e-02 7.479851981594070e-02 -1.541404632309327e-02
698635000.0000000000 7.002040013316477e-02 -7.153018498337447e-03 6.010213147653134e-02 -1.519421785700324e-03 -5.836536883339274e-02 -9.895204621976146e-02 -4.253192938272530e-01 2.272330697704852e-02
            6.010068030888475e-02 -1.615161193831971e-03 6.998132650913079e-02 -7.153748776970552e-03 -4.253549734797094e-01 2.273680828169118e-02 -5.827625275071158e-02 -9.895308576444044e-02
            -5.830538263181718e-02 -9.897839676330998e-02 -4.253353133060752e-01 2.274358338713678e-02 6.672198509029303e-02 -3.067374902800108e-03 6.326427469846320e-02 -3.409298619202913e-04
            -4.253930780639662e-01 2.275477485769574e-02 -5.834268236256808e-02 -9.891917807387232e-02 6.323935420454220e-02 -3.285786011482585e-04 6.662379506263902e-02 -3.084732426727052e-03
699467500.0000000000 7.264554184365564e-02 7.645633472355080e-03 6.241902580452394e-02 1.300164329572962e-02 -8.721240851520917e-02 -6.957815170020284e-02 -3.912558741943650e-01 1.688662336724686e-01
            6.236902205218071e-02 1.294863486236195e-02 7.263569723950283e-02 7.650486638354893e-03 -3.913023635455699e-01 1.688185599762328e-01 -8.730173140454474e-02 -6.962681194982433e-02
            -8.727272035241378e-02 -6.958100038783795e-02 -3.913364122265837e-01 1.687869079239715e-01 6.876643324433972e-02 1.187958373381351e-02 6.496149396845294e-02 1.379806093470346e-02
            -3.914496769668365e-01 1.687726140712429e-01 -8.724485851282600e-02 -6.959931616762140e-02 6.495025515690635e-02 1.384872151654390e-02 6.880139606031169e-02 1.192521479218223e-02
700300000.0000000000 8.454523971010112e-02 1.736042714801886e-02 7.386055659527344e-02 2.270997090493506e-02 -1.029231509201628e-01 -3.364983258202028e-02 -3.084466301102782e-01 2.933306363312840e-01
            7.377688024645454e-02 2.280731231523337e-02 8.454264819686759e-02 1.740554016304509e-02 -3.083987112838110e-01 2.932922029086159e-01 -1.028915305300457e-01 -3.367276199779821e-02
            -1.030315732540542e-01 -3.364305560923839e-02 -3.084556932615060e-01 2.932707540217426e-01 8.043289175309408e-02 2.204389954860580e-02 7.571628991146727e-02 2.388729760333666e-02
            -3.083859224681494e-01 2.932967407783612e-01 -1.028997344763115e-01 -3.369024440691631e-02 7.579291152243935e-02 2.383159082244439e-02 8.042943387095527e-02 2.210362268678188e-02
701132500.0000000000 1.001027367563402e-01 1.739057116536173e-02 8.894870411590035e-02 2.303570174821236e-02 -1.053686235623864e-01 3.573223100328919e-03 -1.881267090205912e-01 3.806024856170576e-01
            8.894507488336349e-02 2.301109964097144e-02 1.001345237589905e-01 1.726571075542748e-02 -1.881455540520604e-01 3.805278747927580e-01 -1.053841270862724e-01 3.628994090469794e-03
            -1.053423083438137e-01 3.633147367560142e-03 -1.880655546987191e-01 3.804738306486917e-01 9.614486440324993e-02 2.243347663288832e-02 9.073566094040758e-02 2.466112043273073e-02
            -1.881826694189959e-01 3.804651429658817e-01 -1.053511993008446e-01 3.683167379350134e-03 9.077975350708069e-02 2.468402884492884e-02 9.608891330694222e-02 2.236252809722034e-02
701965000.0000000000 1.122248846020755e-01 7.488416795292839e-03 1.007348513821695e-01 1.369259864418690e-02 -9.598527252081619e-02 3.838328645416882e-02 -4.661950498199891e-02 4.209997617067013e-01
            1.007396709489280e-01 1.370690248300617e-02 1.122645624140385e-01 7.396140726004858e-03 -4.656192845765622e-02 4.210183272101542e-01 -9.599554321858736e-02 3.851493406184470e-02
            -9.595262544827118e-02 3.846538781154541e-02 -4.641099789560271e-02 4.209582099897606e-01 1.084445276680661e-01 1.254833962910435e-02 1.030695600899183e-01 1.605880379584076e-02
            -4.649791444627292e-02 4.209815843571569e-01 -9.597351551479162e-02 3.842777212810004e-02 1.031448734847922e-01 1.594952529169087e-02 1.084645373205239e-01 1.260368441172535e-02
702797500.0000000000 1.156360269465625e-01 -7.853117029981347e-03 1.041208602844129e-01 -8.870332940578000e-04 -7.612196226213702e-02 6.818423210995270e-02 9.955170956293516e-02 4.113578893249918e-01
            1.039733456090198e-01 -9.168689489255121e-04 1.156479941803491e-01 -7.826906870164419e-03 9.959349977024760e-02 4.113706710889184e-01 -7.609384967227004e-02 6.834118659714090e-02
            -7.607653360197233e-02 6.824577898133960e-02 9.962513068337758e-02 4.114067927887786e-01 1.119238126625520e-01 -2.886038441739965e-03 1.073265411637349e-01 1.650491599502645e-03
            9.961505957545345e-02 4.114077762873559e-01 -7.610731655185821e-02 6.825234830297944e-02 1.073121029910680e-01 1.603637139547241e-03 1.118731513778652e-01 -2.829286206361361e-03
703630000.0000000000 1.087918041913887e-01 -2.174868450311477e-02 9.742084756740804e-02 -1.424895585821604e-02 -4.705219808934522e-02 9.000639803882497e-02 2.342008195637411e-01 3.534017461610359e-01
            9.741199309995356e-02 -1.428910063603661e-02 1.087605017844073e-01 -2.177586974490719e-02 2.341133477611270e-01 3.533058298406050e-01 -4.707207176151602e-02 8.995706278947770e-02
            -4.712363052891131e-02 9.001055923638915e-02 2.340776764304125e-01 3.533846824682720e-01 1.048615655348400e-01 -1.700327219286730e-02 1.017604218465990e-01 -1.199888045698055e-02
            2.341352529618630e-01 3.533340862137520e-01 -4.709905685512129e-02 9.002504525611228e-02 1.017844940589810e-01 -1.205022761314112e-02 1.048525880082915e-01 -1.701654092629422e-02
704462500.0000000000 9.486750209097139e-02 -2.822495021553989e-02 8.372913316790664e-02 -2.026626518594172e-02 -1.155702844067718e-02 1.001507007710389e-01 3.418194368921995e-01 2.528776949643050e-01
            8.359222603845802e-02 -2.030339477004709e-02 9.482208876815232e-02 -2.828566229805647e-02 3.418639845069663e-01 2.528349940830234e-01 -1.156865063502816e-02 1.001207325192038e-01
            -1.160627755117509e-02 1.001502935097848e-01 3.418911440947102e-01 2.528600583835080e-01 9.045902966494571e-02 -2.362312726869688e-02 8.904458075234062e-02 -1.905938866169188e-02
            3.418412764083027e-01 2.528881538537710e-01 -1.155827888490625e-02 1.001760328010274e-01 8.893612058512877e-02 -1.903134597786247e-02 9.044168999423179e-02 -2.368824591997901e-02
705295000.0000000000 8.021374403818365e-02 -2.439084780491662e-02 6.933385170288099e-02 -1.593794352652592e-02 2.541902005754733e-02 9.622847713035000e-02 4.094681831451122e-01 1.203995437374127e-01
            6.931789696219474e-02 -1.599023194443706e-02 8.018994322613755e-02 -2.438825993769333e-02 4.095073488177307e-01 1.204379491723614e-01 2.543322469266927e-02 9.615094616847630e-02
            2.547371294042023e-02 9.613154764920420e-02 4.095574278175226e-01 1.203991698039825e-01 7.513708826220993e-02 -1.946704642211908e-02 7.495688979635722e-02 -1.608294576695584e-02
            4.095048418837102e-01 1.203985433169242e-01 2.550268319684020e-02 9.618212856591031e-02 7.498458187058844e-02 -1.609507423269242e-02 7.505116297111061e-02 -1.943462758813280e-02
706127500.0000000000 7.189909260677051e-02 -1.212446139668333e-02 6.113195670330661e-02 -3.245289358421618e-03 5.759289338955958e-02 7.826484050659416e-02 4.271276576554586e-01 -2.862335374576479e-02
            6.116838108666161e-02 -3.255910051900098e-03 7.192194614365817e-02 -1.215723347590067e-02 4.270098890855519e-01 -2.865791357953786e-02 5.759503951912114e-02 7.824181465589727e-02
            5.758836814542470e-02 7.825858205869418e-02 4.270980802849825e-01 -2.855966065317530e-02 6.622357803155114e-02 -6.442656140284149e-03 6.664152589526291e-02 -4.760483870198149e-03
            4.270724857577829e-01 -2.856450718901331e-02 5.764416895497693e-02 7.833141936365964e-02 6.661189138694859e-02 -4.864615134358480e-03 6.627468639773856e-02 -6.459662662585303e-03
706960000.0000000000 7.375193349033786e-02 2.254228713015679e-03 6.327525367611296e-02 1.170028018755763e-02 7.956654861557666e-02 5.046664181296407e-02 3.910157108875530e-01 -1.749067268923127e-01
            6.337851496799055e-02 1.160004044275635e-02 7.369524121960973e-02 2.168573927622922e-03 3.909481651072463e-01 -1.748954555461102e-01 7.963942892068950e-02 5.044785973775145e-02
            7.959957335851023e-02 5.053956636763189e-02 3.909512269664148e-01 -1.749024669496312e-01 6.812357077333647e-02 9.041039985481161e-03 6.788384209908306e-02 8.932057887504773e-03
            3.909864776025320e-01 -1.749460473773442e-01 7.967913548478550e-02 5.047172626776757e-02 6.794555833359282e-02 8.905965669526429e-03 6.808755804820454e-02 9.041865930136150e-03
707792500.0000000000 8.471419098307496e-02 1.130134061980535e-02 7.454425312708851e-02 2.135805680484014e-02 8.928003878007812e-02 1.828277558224824e-02 3.060733400029837e-01 -2.988940644599062e-01
            7.450976104739433e-02 2.139884258493474e-02 8.462555637384922e-02 1.132349176358443e-02 3.061024022190479e-01 -2.989531086539396e-01 8.926468555756852e-02 1.826348518149510e-02
            8.919756571524967e-02 1.820166075871823e-02 3.060111047460602e-01 -2.989156245827531e-01 7.954549102046185e-02 1.927043773932192e-02 7.800682709648613e-02 1.808837671178652e-02
            3.060221417498222e-01 -2.989412090349505e-01 8.923358624046052e-02 1.819302611729557e-02 7.808406140732128e-02 1.807811534839185e-02 7.950278885331424e-02 1.926074430379496e-02
708625000.0000000000 9.864287879475146e-02 1.075390947763987e-02 8.912390363492413e-02 2.149617717814571e-02 8.735200299644863e-02 -1.348618355987598e-02 1.840656590275648e-01 -3.849840994059140e-01
            8.917547210749899e-02 2.155373056461448e-02 9.857693333726875e-02 1.079173511657157e-02 1.841156506213900e-01 -3.849836660193800e-01 8.726105824244090e-02 -1.354481591313679e-02
            8.721652187833198e-02 -1.348203378820354e-02 1.839633789661726e-01 -3.850041156769490e-01 9.455461492436135e-02 1.955397076846382e-02 9.157882436645644e-02 1.826812848328365e-02
            1.840233254309662e-01 -3.850862028552440e-01 8.727208147857689e-02 -1.355313214253782e-02 9.164048117737372e-02 1.827085838012297e-02 9.459029634160628e-02 1.949620696699530e-02
709457500.0000000000 1.087407593420745e-01 1.129072476474571e-03 1.001328267492749e-01 1.229416506836536e-02 7.555648459496235e-02 -4.175875856671160e-02 4.109918789259600e-02 -4.239709695677877e-01
            1.001444116135815e-01 1.231863932416856e-02 1.087585119618515e-01 1.054940219978499e-03 4.108357270336111e-02 -4.239319752457820e-01 7.559207600561235e-02 -4.175591428738792e-02
            7.560345046176822e-02 -4.175308958315925e-02 4.111698545455868e-02 -4.239222968420166e-01 1.060483338770219e-01 9.881186273274056e-03 1.018600154090279e-01 9.427122881403842e-03
            4.106224409754853e-02 -4.239053682742442e-01 7.555197024275384e-02 -4.173318812784475e-02 1.018482730360659e-01 9.402168151512591e-03 1.060039289508433e-01 9.880127341840909e-03
710290000.0000000000 1.099948075068565e-01 -1.306834555364166e-02 1.024341413172897e-01 -1.513615523221777e-03 5.555707788556606e-02 -6.446908173251965e-02 -1.058974234675881e-01 -4.123808787769219e-01
            1.023998774063435e-01 -1.511479741623827e-03 1.099896413543450e-01 -1.312487286141740e-02 -1.059000387766037e-01 -4.123635534393085e-01 5.561962174298284e-02 -6.453999405646753e-02
            5.564627271189106e-02 -6.447989708630204e-02 -1.058829154053054e-01 -4.123460265049868e-01 1.085092139018490e-01 -4.787214062746516e-03 1.038314340536784e-01 -3.955828358044929e-03
            -1.059390852457726e-01 -4.123040527753607e-01 5.565826608464546e-02 -6.451853139186672e-02 1.037672839307022e-01 -3.900716914097038e-03 1.086399504583502e-01 -4.765749918160659e-03
711122500.0000000000 1.017248147309777e-01 -2.494816638544865e-02 9.540019670913623e-02 -1.337910750993862e-02 2.881607343427042e-02 -7.937597046863672e-02 -2.406128101458567e-01 -3.520756559775812e-01
            9.531477853126820e-02 -1.340791870768608e-02 1.018164715370462e-01 -2.500134984876750e-02 -2.405615874319277e-01 -3.520268127008931e-01 2.886001539587521e-02 -7.939563995731215e-02
            2.888756486527296e-02 -7.949716719112715e-02 -2.405997727338925e-01 -3.519913901808460e-01 1.010398214047273e-01 -1.764278387235992e-02 9.668723083751626e-02 -1.536623345492692e-02
            -2.405788147498301e-01 -3.520368026501521e-01 2.878125522116639e-02 -7.944027830136111e-02 9.672203755726221e-02 -1.549753167084338e-02 1.010616639979653e-01 -1.764599563190053e-02
711955000.0000000000 8.740756604697328e-02 -2.898445968950066e-02 8.215885443825680e-02 -1.754591651722107e-02 -2.036224226185430e-03 -8.368455758116396e-02 -3.476347969610557e-01 -2.490842954160420e-01
            8.217630186440540e-02 -1.763132683850473e-02 8.743480572260455e-02 -2.903987936629809e-02 -3.476126223367317e-01 -2.491235440000261e-01 -2.030278458167049e-03 -8.375028735406051e-02
            -2.080187174576203e-03 -8.377060723823511e-02 -3.475511122729694e-01 -2.490659043872941e-01 8.688477317060476e-02 -2.272565878475541e-02 8.373690245362964e-02 -1.943572491863393e-02
            -3.476458640251535e-01 -2.490471820121963e-01 -2.093902986260964e-03 -8.367069916595429e-02 8.378297978526709e-02 -1.946966483570366e-02 8.690542219523684e-02 -2.265693343207182e-02
712787500.0000000000 7.366016906838492e-02 -2.286666747397936e-02 6.943744748646406e-02 -1.191316827518875e-02 -3.253436623781598e-02 -7.569024645227748e-02 -4.133759983890532e-01 -1.145347966513750e-01
            6.944487673083401e-02 -1.190164212629029e-02 7.366208600856400e-02 -2.295298751281740e-02 -4.134096078284986e-01 -1.145413807926721e-01 -3.253192650042599e-02 -7.569414572112473e-02
            -3.250474690521762e-02 -7.571612465306708e-02 -4.133690337875490e-01 -1.144954857307244e-01 7.275069178454338e-02 -1.737443536497598e-02 7.119561641169882e-02 -1.394949073976994e-02
            -4.134038892705493e-01 -1.145018871181051e-01 -3.251793769128397e-02 -7.575952957428102e-02 7.124242123328572e-02 -1.392961587579738e-02 7.270135112117848e-02 -1.748534501064600e-02
713620000.0000000000 6.700705693269797e-02 -9.443898895570530e-03 6.369959007442630e-02 1.082242068901322e-03 -5.691026508820129e-02 -5.652351500666806e-02 -4.282539480329360e-01 3.557316939735694e-02
            6.379874918149350e-02 1.081595052766235e-03 6.703066454550402e-02 -9.407652456480510e-03 -4.283198194411114e-01 3.554511976747667e-02 -5.693290414794066e-02 -5.655260315815699e-02
            -5.693627205356417e-02 -5.656239803490140e-02 -4.282962806531145e-01 3.559045790903480e-02 6.550272259900317e-02 -4.254044556524351e-03 6.548075225828941e-02 -1.368552025219806e-03
            -4.283270138509365e-01 3.561168522579383e-02 -5.697885493982185e-02 -5.649929755581531e-02 6.558731422198480e-02 -1.363101668148796e-03 6.542745936429084e-02 -4.202096366396367e-03
714452500.0000000000 7.054858756218690e-02 5.127358481180794e-03 6.816017565869871e-02 1.486976930853538e-02 -7.124657059325049e-02 -3.041083880410385e-02 -3.893731153353100e-01 1.816986769242610e-01
            6.813861245437525e-02 1.486073543388599e-02 7.067397209030135e-02 5.045062212511786e-03 -3.894581303838335e-01 1.816866737734268e-01 -7.123080942229407e-02 -3.039563529269287e-02
            -7.127217379025585e-02 -3.048818414857669e-02 -3.894793342589456e-01 1.817040704239708e-01 6.854138445192884e-02 1.030438400667728e-02 6.988093666524937e-02 1.198619818933218e-02
            -3.894671955715597e-01 1.816735576888660e-01 -7.125075837008725e-02 -3.044501668519037e-02 6.989489876264127e-02 1.197827468912360e-02 6.860687663032496e-02 1.045199006381245e-02
715285000.0000000000 8.241461284414035e-02 1.346049284916450e-02 8.089481852373419e-02 2.244339345352163e-02 -7.451786961341771e-02 -2.623467544199096e-03 -3.020852331819270e-01 3.044380582200328e-01
            8.092436106853354e-02 2.245692269410300e-02 8.232348542540432e-02 1.337425132312109e-02 -3.020805674728245e-01 3.043551451895299e-01 -7.447895807366704e-02 -2.589503090929706e-03
            -7.446004758934180e-02 -2.688527267166123e-03 -3.021519012975905e-01 3.044237248549764e-01 8.029262492146211e-02 1.893386455137739e-02 8.219871727214259e-02 1.911148624031259e-02
            -3.021184250656241e-01 3.044050903576875e-01 -7.443851825284285e-02 -2.637737657828232e-03 8.219083869896097e-02 1.908937910040596e-02 8.026617948883985e-02 1.902026286390851e-02
716117500.0000000000 9.623823735180048e-02 1.216597678130347e-02 9.566589634089892e-02 1.990771675943655e-02 -6.826498895674281e-02 2.290094563873465e-02 -1.786349800767153e-01 3.885975440051862e-01
            9.567026972793773e-02 1.986070646709956e-02 9.619696428526515e-02 1.214618132386279e-02 -1.787078572969976e-01 3.885312026818601e-01 -6.821753964295441e-02 2.290326121653867e-02
            -6.833052428402016e-02 2.291377740863779e-02 -1.786491833089599e-01 3.885903881297182e-01 9.441201199139022e-02 1.782871699485827e-02 9.635938203212153e-02 1.631227299162704e-02
            -1.786756653905164e-01 3.886019576233365e-01 -6.823992001558116e-02 2.295537325238730e-02 9.638382135406746e-02 1.627646456055893e-02 9.438323007251070e-02 1.784402612033244e-02
716950000.0000000000 1.054965800155051e-01 2.268266910709505e-03 1.056939479222256e-01 8.627405407697606e-03 -5.472481711456940e-02 4.415917021804356e-02 -3.504275824577845e-02 4.253388723314758e-01
            1.056677698065933e-01 8.515175372202505e-03 1.055551305047324e-01 2.291022563810941e-03 -3.496203343752834e-02 4.253876477452094e-01 -5.470501823231558e-02 4.422948852073912e-02
            -5.477219590433989e-02 4.417638280770873e-02 -3.499801963992354e-02 4.254282446194232e-01 1.040670747193125e-01 7.905682909249619e-03 1.056715276370783e-01 4.782576826344457e-03
            -3.503484428782936e-02 4.254664453079778e-01 -5.469303624801675e-02 4.410897907909796e-02 1.057112801145236e-01 4.856904446068928e-03 1.040152521809364e-01 7.987806019457101e-03
717782500.0000000000 1.059869181616882e-01 -1.093018774901411e-02 1.063427351378827e-01 -6.618471599497363e-03 -3.527765330256214e-02 5.971194934303303e-02 1.121121252614448e-01 4.117022176979333e-01
            1.063956274581576e-01 -6.622056663293955e-03 1.059525277393680e-01 -1.093229611213781e-02 1.120947040718697e-01 4.117473829611837e-01 -3.529074487626461e-02 5.979200391757383e-02
            -3.524340511294095e-02 5.977428877683005e-02 1.120715483989127e-01 4.117717991431129e-01 1.048917764104671e-01 -5.845003648129435e-03 1.057232692179940e-01 -1.025643224853588e-02
            1.120596218250389e-01 4.117744154370913e-01 -3.527092267280316e-02 5.970395654626980e-02 1.057465477903989e-01 -1.021810983223932e-02 1.047881591042782e-01 -5.717342395502882e-03
718615000.0000000000 9.753292349726139e-02 -2.115180714958090e-02 9.749715774790760e-02 -1.892207527163047e-02 -1.121199861028759e-02 6.811514363951689e-02 2.462205069310028e-01 3.493125779143180e-01
            9.740989061262975e-02 -1.892581936973954e-02 9.748750640499870e-02 -2.111024938864922e-02 2.462601099467424e-01 3.493781172503058e-01 -1.122112857743679e-02 6.805030154100825e-02
            -1.124345125127020e-02 6.811051045201559e-02 2.462212983793926e-01 3.493390664462722e-01 9.632754279084861e-02 -1.657728421994845e-02 9.633110988889491e-02 -2.231356152614742e-02
            2.461479311037562e-01 3.493254740504706e-01 -1.121996205021957e-02 6.800938895286841e-02 9.632943393191089e-02 -2.227875385373863e-02 9.629935310508042e-02 -1.670281520673893e-02
719447500.0000000000 8.442133568854324e-02 -2.315508984261318e-02 8.298022799104382e-02 -2.304809313071232e-02 1.483983746910063e-02 6.685815589852438e-02 3.520457425551945e-01 2.445110797753980e-01
            8.298941889674091e-02 -2.310636991865010e-02 8.426638962267391e-02 -2.316525192440699e-02 3.520507039274439e-01 2.445040218926221e-01 1.495203901371549e-02 6.686422409704271e-02
            1.485053985921659e-02 6.691853946922571e-02 3.520501249441272e-01 2.445327121739118e-01 8.253866891173078e-02 -1.932122187817108e-02 8.138211018300262e-02 -2.592312996340813e-02
            3.520939725568781e-01 2.445086301723622e-01 1.481143742123728e-02 6.692709688765514e-02 8.138610995593980e-02 -2.598897164650363e-02 8.261712253347281e-02 -1.935012692710088e-02
720280000.0000000000 7.275947948498757e-02 -1.576248102694564e-02 6.924036901016165e-02 -1.704912659277473e-02 3.876893073943261e-02 5.536339556204625e-02 4.160220726835968e-01 1.085413978077690e-01
            6.932327053415108e-02 -1.709754041650375e-02 7.281980815411276e-02 -1.573709614111392e-02 4.159117576805873e-01 1.085086577561385e-01 3.877977190082060e-02 5.541808134034833e-02
            3.874000756476326e-02 5.537206222148799e-02 4.158439844076349e-01 1.085489630596863e-01 7.041830874308773e-02 -1.208735509696244e-02 6.753712648022031e-02 -1.954967658120215e-02
            4.158348963844930e-01 1.085762598967402e-01 3.869831671936032e-02 5.530781520024875e-02 6.757483633933836e-02 -1.955487103725409e-02 7.043388511127913e-02 -1.213381254089771e-02
721112500.0000000000 6.893904832501058e-02 -2.273113840677969e-03 6.291446764733787e-02 -4.102593383834734e-03 5.560510709955852e-02 3.523402921035821e-02 4.284140178675773e-01 -4.210127802092808e-02
            6.293667023181050e-02 -4.129371516941387e-03 6.902752543452634e-02 -2.229099297173615e-03 4.283833909621030e-01 -4.217025839778882e-02 5.570774702754760e-02 3.535127554103951e-02
            5.564548858711227e-02 3.529931289668940e-02 4.282877766012919e-01 -4.211840962432112e-02 6.589053654749422e-02 1.630799114692012e-03 6.109104135719441e-02 -6.165745716484591e-03
            4.283839319104939e-01 -4.202924319272961e-02 5.566976350156531e-02 3.527046892183509e-02 6.105750328133968e-02 -6.143296510117487e-03 6.583266543840464e-02 1.641398433586731e-03
721945000.0000000000 7.515945934551729e-02 1.059246467227870e-02 6.644960369360502e-02 9.352680659328230e-03 6.262945053124035e-02 1.103861077472371e-02 3.871141289444707e-01 -1.876242718254078e-01
            6.648494046887815e-02 9.365530066410346e-03 7.509839622110985e-02 1.057371788351915e-02 3.870808345571131e-01 -1.877311492831309e-01 6.269375647001868e-02 1.100085503794701e-02
            6.265601358355720e-02 1.096603736576729e-02 3.870442311039046e-01 -1.876729451351013e-01 7.154435925015747e-02 1.501101950277630e-02 6.471865237927348e-02 7.527019347212813e-03
            3.871476668843526e-01 -1.876474898727007e-01 6.267125692656809e-02 1.105180040862586e-02 6.466457394575452e-02 7.590100236218766e-03 7.160611069844383e-02 1.507844176101204e-02
722777500.0000000000 8.823980446979478e-02 1.638663232203446e-02 7.747553907537472e-02 1.667150496589258e-02 5.981532975906270e-02 -1.253554550501501e-02 2.978943748088862e-01 -3.090698803961839e-01
            7.756818319720944e-02 1.669650335778571e-02 8.822148464748404e-02 1.637641415744476e-02 2.979552085524448e-01 -3.090543788991936e-01 5.990093029544654e-02 -1.258583845589809e-02
            5.984476684194370e-02 -1.248721547832236e-02 2.978877702707369e-01 -3.090186060225506e-01 8.479694152920496e-02 2.129008862193639e-02 7.590825709237417e-02 1.495275681648723e-02
            2.978455978506019e-01 -3.090107723315133e-01 5.988565885794582e-02 -1.253838244964439e-02 7.592931484100210e-02 1.494746808709448e-02 8.488229357357516e-02 2.139534263470155e-02
723610000.0000000000 1.018900930934455e-01 1.233682333358739e-02 9.010659081108999e-02 1.485401358885587e-02 4.955900828842759e-02 -3.220256481663292e-02 1.732464279375181e-01 -3.915064883536660e-01
            9.017431143052466e-02 1.485492217771365e-02 1.019246729904750e-01 1.233790589846968e-02 1.731950440236565e-01 -3.914892023803008e-01 4.953641978253773e-02 -3.221660512994923e-02
            4.952580192204419e-02 -3.224644333432811e-02 1.732306950117304e-01 -3.914713519223787e-01 9.891861931241383e-02 1.748504597793519e-02 8.852460953939308e-02 1.280165581612169e-02
            1.731831410840192e-01 -3.914229486602477e-01 4.950557170799583e-02 -3.220877263377784e-02 8.852317082548723e-02 1.286852091443221e-02 9.900795535641685e-02 1.743608861003071e-02
724442500.0000000000 1.098166776091626e-01 6.246060133389054e-04 9.805126142754787e-02 5.386438558871998e-03 3.391870504604062e-02 -4.673179805999107e-02 2.897772094079245e-02 -4.263988938399936e-01
            9.805101709747113e-02 5.267622301315679e-03 1.098637323260840e-01 6.178840725695201e-04 2.893645230712637e-02 -4.263733483757071e-01 3.390456545801208e-02 -4.667039112746403e-02
            3.394254184303431e-02 -4.664520999205960e-02 2.901713169602338e-02 -4.263353778803323e-01 1.072606787699651e-01 5.506434049931654e-03 9.615634371856652e-02 3.069924439060150e-03
            2.897285180184894e-02 -4.263305210368165e-01 3.388979284179839e-02 -4.662076343922406e-02 9.616560941441367e-02 3.089444456454914e-03 1.072456120893364e-01 5.504866597506042e-03
725275000.0000000000 1.084307912907381e-01 -1.343336421063800e-02 9.744490371470060e-02 -6.866932556207496e-03 1.466119446658803e-02 -5.511654175716606e-02 -1.182266693706536e-01 -4.105892143256702e-01
            9.746572264895280e-02 -6.871208026380381e-03 1.084516764566576e-01 -1.334126919035719e-02 -1.182773433889231e-01 -4.106099055101881e-01 1.467385873386065e-02 -5.515269282818195e-02
            1.469310643321770e-02 -5.515893415206732e-02 -1.182290356432867e-01 -4.106039941607422e-01 1.057459569406448e-01 -9.134893621677510e-03 9.506795537324132e-02 -9.389045248783900e-03
            -1.182657435966080e-01 -4.105420862035775e-01 1.467216881670140e-02 -5.510663004452301e-02 9.500377732786681e-02 -9.417575350941336e-03 1.057245820534272e-01 -9.182796264338371e-03
726107500.0000000000 9.849381104512783e-02 -2.321147168814720e-02 8.884677241010952e-02 -1.556494330205643e-02 -6.739257064030823e-03 -5.658389637761822e-02 -2.519226508166165e-01 -3.460132939850876e-01
            8.889367649341953e-02 -1.567585988120570e-02 9.839983270169418e-02 -2.323071606768329e-02 -2.518475731604063e-01 -3.460190931814231e-01 -6.771882423467199e-03 -5.651922429256372e-02
            -6.792321871119749e-03 -5.652922902997379e-02 -2.519313676743464e-01 -3.461150218229039e-01 9.524353515795089e-02 -1.966101266911580e-02 8.550209303435843e-02 -1.812734066802055e-02
            -2.518964140138885e-01 -3.460832107363886e-01 -6.720157456430366e-03 -5.659149814690166e-02 8.545313718433087e-02 -1.818991773347798e-02 9.523323345555984e-02 -1.958743105103456e-02
726940000.0000000000 8.464064058813493e-02 -2.417652372986732e-02 7.649841815172891e-02 -1.634299871010314e-02 -2.788401504380016e-02 -4.959462012526835e-02 -3.563364628804551e-01 -2.391163768977124e-01
            7.652623557364217e-02 -1.642872918305966e-02 8.459301753276442e-02 -2.420831773732494e-02 -3.562691636961245e-01 -2.391037839842628e-01 -2.790279202660625e-02 -4.949018700595120e-02
            -2.791275164239882e-02 -4.954004867349492e-02 -3.562709390606134e-01 -2.391266009130350e-01 8.021189158956353e-02 -2.089438093859651e-02 7.201123996030152e-02 -1.842021391589026e-02
            -3.562499391716145e-01 -2.390595776079389e-01 -2.784024734781844e-02 -4.959148477000394e-02 7.194356622027064e-02 -1.843405690386432e-02 8.025104928059389e-02 -2.091123176485181e-02
727772500.0000000000 7.349411598946370e-02 -1.592428114776690e-02 6.648008746250089e-02 -8.508612181337971e-03 -4.475874939755742e-02 -3.434785630629350e-02 -4.178454984599344e-01 -1.016663143959097e-01
            6.651238350610759e-02 -8.581265470410470e-03 7.354275442713239e-02 -1.591090615001850e-02 -4.177776272258220e-01 -1.016780103433236e-01 -4.479112884888757e-02 -3.434079237246911e-02
            -4.482498498008813e-02 -3.430188328486576e-02 -4.177996315199181e-01 -1.016623498614304e-01 6.781463134635216e-02 -1.204100669684089e-02 6.109101510801081e-02 -9.444402030598776e-03
            -4.177747414886790e-01 -1.017171041159338e-01 -4.489590297637366e-02 -3.436513114243719e-02 6.101502630410389e-02 -9.505667914900004e-03 6.777418749218694e-02 -1.200549090066709e-02
728605000.0000000000 7.082342296992628e-02 -2.514007109009552e-03 6.429743481363323e-02 4.145744034898564e-03 -5.382556885525516e-02 -1.344793375135682e-02 -4.273126528205139e-01 4.922383100942295e-02
            6.433654277564579e-02 4.200676528675173e-03 7.087275303057709e-02 -2.506547894326869e-03 -4.273246251840856e-01 4.921954697277442e-02 -5.384212235774846e-02 -1.339877133761857e-02
            -5.377707043340387e-02 -1.341948504878779e-02 -4.272692176898313e-01 4.919051187579947e-02 6.412841499281295e-02 2.658973590746719e-03 5.838204625204413e-02 4.661256373286821e-03
            -4.273700233152980e-01 4.930912187358538e-02 -5.376202449160345e-02 -1.339107300408475e-02 5.836731051407943e-02 4.790870089875761e-03 6.407342768904967e-02 2.750488164103461e-03
729437500.0000000000 7.764123163353402e-02 9.150311595057260e-03 7.116321223560031e-02 1.528952158565570e-02 -5.309091866586019e-02 8.592794870016339e-03 -3.833476793683542e-01 1.937135721492636e-01
            7.120027761923191e-02 1.531028193408108e-02 7.766559020158013e-02 9.108026062472806e-03 -3.832970359483199e-01 1.937034747939932e-01 -5.314473943925017e-02 8.574885135002321e-03
            -5.316235383715855e-02 8.576584109780775e-03 -3.834149489597221e-01 1.936905687657426e-01 7.069137633518928e-02 1.626430273678849e-02 6.549935871597294e-02 1.753534593593440e-02
            -3.832806358569609e-01 1.937108165336043e-01 -5.310739149760958e-02 8.570816570380497e-03 6.548222187073194e-02 1.752651016079292e-02 7.074725417918347e-02 1.625956177936082e-02
730270000.0000000000 9.034262479250155e-02 1.306459158440672e-02 8.360025099516391e-02 1.913997840974802e-02 -4.425789872727881e-02 2.734912264147815e-02 -2.923938248999421e-01 3.130049631010141e-01
            8.364398603869116e-02 1.913326614222016e-02 9.042253183952871e-02 1.308085291143270e-02 -2.922416793815553e-01 3.131266927023335e-01 -4.422310153808778e-02 2.736665886567412e-02
            -4.425906528690737e-02 2.740897903727018e-02 -2.922386117161102e-01 3.129796965607924e-01 8.435568154693086e-02 2.205027509256239e-02 7.887624313239874e-02 2.272160984380540e-02
            -2.922986658276032e-01 3.130576444036760e-01 -4.419226373316141e-02 2.744548569440334e-02 7.890029581031595e-02 2.276670643251435e-02 8.436038994129154e-02 2.205266356930435e-02
731102500.0000000000 1.025025987296180e-01 7.678786243847762e-03 9.547899028050778e-02 1.379225103191307e-02 -3.003692498814515e-02 4.062352846799003e-02 -1.668120257692177e-01 3.931682082774218e-01
            9.552354494809767e-02 1.376340747664737e-02 1.024814575871448e-01 7.639704116806785e-03 -1.667487040853458e-01 3.931311326035606e-01 -3.000149189135366e-02 4.069994747735424e-02
            -2.991716846549631e-02 4.070084015583742e-02 -1.667972122635642e-01 3.930656115342402e-01 9.805925676121559e-02 1.772910559079034e-02 9.221441311562444e-02 1.838291743548918e-02
            -1.667447133389600e-01 3.932593067347928e-01 -2.998448268143642e-02 4.068995282154639e-02 9.218296894656956e-02 1.834194405648395e-02 9.812979132191865e-02 1.774018896949242e-02
731935000.0000000000 1.079594107380884e-01 -4.524767496332676e-03 1.011919209346771e-01 2.022695635452685e-03 -1.290944940223687e-02 4.803348664578709e-02 -2.253811011024957e-02 4.258304165176874e-01
            1.011146286105699e-01 1.963052571494925e-03 1.080041332400273e-01 -4.478995030281012e-03 -2.243655996000710e-02 4.257825362738428e-01 -1.294531343051611e-02 4.808817555418499e-02
            -1.289223528616862e-02 4.808287383874298e-02 -2.248915673781367e-02 4.258279161810083e-01 1.055883701519334e-01 5.935416015470944e-03 9.924103486327400e-02 6.858463756190545e-03
            -2.248136867564761e-02 4.258308977405605e-01 -1.287360502360780e-02 4.804726668728841e-02 9.924634154176044e-02 6.742925405057308e-03 1.056677026102354e-01 5.895553456847022e-03
732767500.0000000000 1.041715133912363e-01 -1.735018964516256e-02 9.767304121561721e-02 -1.062883236312567e-02 5.570668122793816e-03 4.941232023629841e-02 1.241855094264667e-01 4.080369668198341e-01
            9.761507546827571e-02 -1.053332747335229e-02 1.041627111488251e-01 -1.742347050223256e-02 1.242144993286805e-01 4.079531763417601e-01 5.571048597506875e-03 4.942341608406302e-02
            5.585620597942454e-03 4.943538187929278e-02 1.241858893584187e-01 4.079772370933853e-01 1.035626026599664e-01 -7.810846658567944e-03 9.719845503199759e-02 -6.283497229578454e-03
            1.241373397972848e-01 4.080954422353202e-01 5.610516641834369e-03 4.937014763704074e-02 9.721546486553062e-02 -6.366277727711455e-03 1.036191382196166e-01 -7.787207812346100e-03
733600000.0000000000 9.259794109343732e-02 -2.483627241323687e-02 8.672097040809609e-02 -1.815515803848679e-02 2.405624375563239e-02 4.420901372384471e-02 2.567220965702387e-01 3.414144339115348e-01
            8.672291368923114e-02 -1.817854964818821e-02 9.254078067486228e-02 -2.493874642257518e-02 2.567346005922809e-01 3.414784977234848e-01 2.403651026141675e-02 4.424692283729387e-02
            2.408348550250523e-02 4.423985057889210e-02 2.567674485455243e-01 3.414847596006003e-01 9.315125376323455e-02 -1.664858835948213e-02 8.710938679796111e-02 -1.466030495958554e-02
            2.567247640759206e-01 3.414615048509018e-01 2.409450224981834e-02 4.425465282762737e-02 8.714124732760188e-02 -1.466229747155588e-02 9.324380189040798e-02 -1.670113676846064e-02
734432500.0000000000 7.851140737413694e-02 -2.297140787153501e-02 7.329460865828631e-02 -1.651471495142810e-02 3.998548798894096e-02 3.180056339464338e-02 3.592843953241186e-01 2.329193197936860e-01
            7.317367822066187e-02 -1.664651578242996e-02 7.854007012482987e-02 -2.301389402484360e-02 3.592672138860808e-01 2.328713674395926e-01 3.998459872899698e-02 3.193320748181217e-02
            3.993952099004237e-02 3.190080617484521e-02 3.592894139553654e-01 2.328185065984042e-01 7.958350514525667e-02 -1.653713784444730e-02 7.388785861994876e-02 -1.413300143022775e-02
            3.593468333011711e-01 2.328101612176954e-01 4.001849342563298e-02 3.188936941609791e-02 7.386506725707882e-02 -1.403839210262109e-02 7.947888952333904e-02 -1.649888496333641e-02
735265000.0000000000 6.889588156966790e-02 -1.208515747035538e-02 6.386488743219745e-02 -6.378655494201456e-03 4.993790568463749e-02 1.336100276676178e-02 4.181573124590029e-01 9.456391987432293e-02
            6.389835542691175e-02 -6.318845263965425e-03 6.892169405891335e-02 -1.223033886136439e-02 4.181159858946272e-01 9.458944675680220e-02 4.994940140520692e-02 1.331081891018824e-02
            5.001697496501214e-02 1.342949780004606e-02 4.181398338145286e-01 9.457335637652130e-02 6.939743569354705e-02 -7.120617398275417e-03 6.432360973924334e-02 -4.668342652642760e-03
            4.182199436079211e-01 9.453119428291797e-02 4.993608341856568e-02 1.320715419365869e-02 6.433720372008792e-02 -4.707584952249217e-03 6.943184466805609e-02 -7.065490267839427e-03
736097500.0000000000 6.854028759346996e-02 2.558969277902065e-03 6.342083642187515e-02 7.676122983472603e-03 5.109400818299544e-02 -8.055309538529199e-03 4.248677857116160e-01 -5.605060070606955e-02
            6.346843802237191e-02 7.681083789589769e-03 6.856510206490714e-02 2.585223101444516e-03 4.248956558251378e-01 -5.609571003371940e-02 5.104276349506890e-02 -8.034838993955138e-03
            5.107656401500381e-02 -8.062890653098453e-03 4.248407122243512e-01 -5.611130875465987e-02 6.832576399735608e-02 6.752549523060864e-03 6.360568267958069e-02 8.910223445450446e-03
            4.247531571300115e-01 -5.608686889299573e-02 5.099851298722213e-02 -8.112741030985108e-03 6.358305136265383e-02 8.796104449845249e-03 6.826772488856599e-02 6.776678798808365e-03
736930000.0000000000 7.781665046586284e-02 1.406672420480465e-02 7.229653251263729e-02 1.862239247992568e-02 4.302171541676335e-02 -2.751176226125488e-02 3.784728082206521e-01 -1.990153325283174e-01
            7.223085323252243e-02 1.861507916857762e-02 7.788333896755059e-02 1.415769846219510e-02 3.783355193126490e-01 -1.989696973028516e-01 4.299900300984166e-02 -2.765148220372286e-02
            4.296232048525724e-02 -2.755473712093843e-02 3.783131928537349e-01 -1.990253363143503e-01 7.680489491687924e-02 1.791366481662015e-02 7.196208373674658e-02 1.975919929084756e-02
            3.783958625009677e-01 -1.990192778829220e-01 4.305718352215870e-02 -2.757853644436426e-02 7.194056157118850e-02 1.963639447984375e-02 7.681529161053807e-02 1.792665146316180e-02
737762500.0000000000 9.239909167225249e-02 1.698455597614883e-02 8.607879286154953e-02 2.125184437827890e-02 2.827000389275217e-02 -4.140190920256887e-02 2.859028199420930e-01 -3.159178191510996e-01
            8.604285324389585e-02 2.137400731368246e-02 9.243343991681328e-02 1.692997633062190e-02 2.858655263976592e-01 -3.158915063776406e-01 2.825848889360822e-02 -4.134732978481434e-02
            2.845904142684014e-02 -4.143949958322462e-02 2.858143752428984e-01 -3.159635199319527e-01 9.069224395782548e-02 2.065472464556421e-02 8.554436014618659e-02 2.234568567206525e-02
            2.858827422981852e-01 -3.158955064750117e-01 2.835124509394682e-02 -4.140562803829051e-02 8.558241533664027e-02 2.232530302255580e-02 9.070083657677673e-02 2.064896777059122e-02
738595000.0000000000 1.052171167278198e-01 1.007224191112015e-02 9.816951567478870e-02 1.465843496259689e-02 1.049072894912392e-02 -4.826204001099826e-02 1.600405348434251e-01 -3.934818301556006e-01
            9.816519165363702e-02 1.454481247222227e-02 1.053269075534797e-01 1.004049680462484e-02 1.600035375048089e-01 -3.935167804603183e-01 1.046809877103594e-02 -4.833518735311922e-02
            1.058390719838101e-02 -4.832172525304380e-02 1.600090215971700e-01 -3.935045637295140e-01 1.031183436879045e-01 1.347106656776131e-02 9.752816628657246e-02 1.566348033613958e-02
            1.600268242396635e-01 -3.934769857165459e-01 1.054494633236755e-02 -4.833327002289876e-02 9.758609248922352e-02 1.564151840530900e-02 1.031531568871209e-01 1.340270177921545e-02
739427500.0000000000 1.107866725372766e-01 -3.238721045960916e-03 1.031728745406138e-01 1.843298390784275e-03 -7.807312894935929e-03 -4.864598768922907e-02 1.613885690963340e-02 -4.238360013992463e-01
            1.032517924346205e-01 1.850154297096828e-03 1.108115558069103e-01 -3.285310452051306e-03 1.618598020856988e-02 -4.238573320489581e-01 -7.778716483295573e-03 -4.858916845432369e-02
            -7.823768079202091e-03 -4.865193468397105e-02 1.613659120502401e-02 -4.238314586919027e-01 1.082219033067362e-01 -2.339070529092376e-04 1.024530859294119e-01 2.776895832805239e-03
            1.617147106505316e-02 -4.239250573343733e-01 -7.774833358209768e-03 -4.867390385269321e-02 1.024002787197362e-01 2.725246635718261e-03 1.081998044022592e-01 -1.845634508496216e-04
740260000.0000000000 1.066847771483117e-01 -1.682084315774622e-02 9.901396627616396e-02 -1.088287884918202e-02 -2.528549618832523e-02 -4.299691964858433e-02 -1.294729585717374e-01 -4.040847285766148e-01
            9.892283031749458e-02 -1.093474406418588e-02 1.066058793642331e-01 -1.688521595799831e-02 -1.293609485803859e-01 -4.040159041264880e-01 -2.518466262900357e-02 -4.301573165450324e-02
            -2.518996283038995e-02 -4.300005052789882e-02 -1.293913904702093e-01 -4.040810023545030e-01 1.033858243679869e-01 -1.433538108727725e-02 9.781593153345029e-02 -1.023283224866991e-02
            -1.293569319450887e-01 -4.041097681482768e-01 -2.522368426757914e-02 -4.299438520263638e-02 9.791030276983546e-02 -1.029342514344244e-02 1.034104656451151e-01 -1.443961634671739e-02
741092500.0000000000 9.502403906174813e-02 -2.461727575197103e-02 8.754556048276223e-02 -1.786887990816865e-02 -4.035075152381559e-02 -3.155652249146843e-02 -2.603724985262387e-01 -3.360064989892811e-01
            8.760816324544682e-02 -1.789113619205312e-02 9.508160985731313e-02 -2.454973851839623e-02 -2.603564712054195e-01 -3.359604312469331e-01 -4.043008716923795e-02 -3.158287386807881e-02
            -4.045660452920879e-02 -3.160286949465618e-02 -2.603646321349152e-01 -3.360514956303758e-01 9.047430420889628e-02 -2.241784101974605e-02 8.596107335270202e-02 -1.735620765142029e-02
            -2.603831276189883e-01 -3.359574518328645e-01 -4.031612552706175e-02 -3.160131038720838e-02 8.592303298405955e-02 -1.736872810446123e-02 9.053075669911372e-02 -2.239631184543163e-02
741925000.0000000000 8.135826495874349e-02 -2.294778712675452e-02 7.455794258818454e-02 -1.568358572229078e-02 -5.108068485325461e-02 -1.435448772150060e-02 -3.608384808627587e-01 -2.263811853136327e-01
            7.464924517143665e-02 -1.574913914860717e-02 8.145256865790412e-02 -2.303766006699898e-02 -3.608690688686891e-01 -2.264031521770319e-01 -5.108646098740627e-02 -1.437915472254047e-02
            -5.106581308610961e-02 -1.439193581021149e-02 -3.608454537995387e-01 -2.263062967330657e-01 7.531180806120769e-02 -2.052937703266498e-02 7.205850859089252e-02 -1.493351051154069e-02
            -3.608414967521582e-01 -2.263283786336280e-01 -5.106226961713822e-02 -1.429793755074798e-02 7.199871333787936e-02 -1.492234466450274e-02 7.528022863074051e-02 -2.048472231977900e-02
742757500.0000000000 7.231161957092921e-02 -1.291863173238218e-02 6.631125397285571e-02 -5.402320676334118e-03 -5.434553548781258e-02 7.040597697597976e-03 -4.172884192679607e-01 -8.785665588155900e-02
            6.626816334407208e-02 -5.402897375871489e-03 7.231254810713050e-02 -1.293720604904623e-02 -4.172919724177267e-01 -8.779641386770455e-02 -5.428678352332757e-02 6.934615004154007e-03
            -5.426425651592907e-02 6.935876920866221e-03 -4.172545827133057e-01 -8.783946123449039e-02 6.482157457068920e-02 -9.430581586276320e-03 6.286567068735538e-02 -3.932113173940380e-03
            -4.173608822273743e-01 -8.782051856270204e-02 -5.425917482648641e-02 6.952503553949154e-03 6.285927519188562e-02 -3.922581290683581e-03 6.474273617194851e-02 -9.572762145747621e-03
743590000.0000000000 7.235679578403018e-02 3.718346926351571e-04 6.699126329158790e-02 7.795263029291042e-03 -4.811711013480192e-02 2.856723395337238e-02 -4.216336598616119e-01 6.212581002705780e-02
            6.699780579587622e-02 7.772100448030556e-03 7.227952192353883e-02 3.688589315956448e-04 -4.215458234449339e-01 6.204833009893477e-02 -4.809601886832070e-02 2.861296469685323e-02
            -4.807795278427931e-02 2.857828120447723e-02 -4.215099826746282e-01 6.205630403587235e-02 6.374164442162868e-02 5.511230308085184e-03 6.320204597831454e-02 1.060246372756377e-02
            -4.215601369738731e-01 6.196017137134820e-02 -4.809896088647077e-02 2.858079931300542e-02 6.311075969815717e-02 1.055706352706461e-02 6.373976326904605e-02 5.502491909093344e-03
744422500.0000000000 8.106627120363019e-02 1.005749409357717e-02 7.635272463972388e-02 1.703530052375605e-02 -3.317190115630399e-02 4.568528812876414e-02 -3.731966145762511e-01 2.032998534933582e-01
            7.634266181627941e-02 1.698566877642611e-02 8.110582963817736e-02 1.007764441430020e-02 -3.731726897523008e-01 2.033535913909354e-01 -3.319826662658898e-02 4.569241521435156e-02
            -3.317147163136776e-02 4.573089271282348e-02 -3.731531503649443e-01 2.033460921976618e-01 7.252029834958081e-02 1.715946515970948e-02 7.277795576814455e-02 2.135580536062101e-02
            -3.731886555864423e-01 2.033603829576531e-01 -3.323909286123206e-02 4.572050351852053e-02 7.278229462205138e-02 2.132776192140173e-02 7.251382405605804e-02 1.717715564028810e-02
745255000.0000000000 9.380078856993442e-02 1.130537006014720e-02 8.961055419410960e-02 1.783852105688681e-02 -1.299477492088511e-02 5.504188926628318e-02 -2.795442953681210e-01 3.181155788629134e-01
            8.957508266060503e-02 1.773059377083970e-02 9.382180636247121e-02 1.133306414992342e-02 -2.795626306617937e-01 3.182114193705680e-01 -1.300939912595666e-02 5.504881426565798e-02
            -1.297182763169803e-02 5.509535572967091e-02 -2.796199650057687e-01 3.182072025621546e-01 8.627118562405493e-02 1.999672345095202e-02 8.697173559476271e-02 2.336375789673462e-02
            -2.796049457222218e-01 3.181369865189422e-01 -1.304853227041523e-02 5.508675368940345e-02 8.700003617147030e-02 2.335863697437590e-02 8.619836338485173e-02 2.003617607989068e-02
746087500.0000000000 1.041117669439877e-01 3.814746744639140e-03 1.000719372216699e-01 9.622109984618134e-03 8.411840850289416e-03 5.596170860188739e-02 -1.534537664258907e-01 3.934652813306738e-01
            1.001959560743676e-01 9.607452528680220e-03 1.042090462341467e-01 3.821829026659853e-03 -1.534833101851208e-01 3.934768524509910e-01 8.369845708202482e-03 5.603106472746820e-02
            8.407217323009506e-03 5.597493030593437e-02 -1.534242198731079e-01 3.935050729757036e-01 9.799817938423283e-02 1.324060401354107e-02 9.885864169394994e-02 1.595031926385859e-02
            -1.534139564270782e-01 3.934616039135820e-01 8.412185927885039e-03 5.595319804503540e-02 9.894720827586252e-02 1.598225288328808e-02 9.802453395216958e-02 1.321556418587012e-02
746920000.0000000000 1.069859793254678e-01 -8.631765828119205e-03 1.028697094550368e-01 -3.476059659143454e-03 2.833983061307514e-02 4.944369565684637e-02 -9.846749942948829e-03 4.215870788424751e-01
            1.028689384932408e-01 -3.431330303060536e-03 1.069309114606645e-01 -8.615544675914088e-03 -9.922069751359902e-03 4.215752798537140e-01 2.834201822291757e-02 4.950268520788962e-02
            2.832468679806550e-02 4.951151656483140e-02 -9.900926987850472e-03 4.216556629735905e-01 1.021910183548764e-01 5.830294321851134e-04 1.032164997189742e-01 2.908987778798517e-03
            -9.909596701617210e-03 4.216402523342102e-01 2.833591563176105e-02 4.943757529152165e-02 1.031869381140932e-01 2.890276893455261e-03 1.022339593018857e-01 5.481696771051274e-04
747752500.0000000000 1.008734890507265e-01 -1.986579000098953e-02 9.655475266788090e-02 -1.534417280468213e-02 4.497061483997526e-02 3.686229631400924e-02 1.347108655357612e-01 3.997856829489129e-01
            9.659312178650473e-02 -1.535877639086624e-02 1.009176908052535e-01 -1.985017792101219e-02 1.347876474710973e-01 3.998795447866684e-01 4.494459256776118e-02 3.678098211451035e-02
            4.497780813319561e-02 3.695726014060752e-02 1.347906738274381e-01 3.997917174537516e-01 9.684413047446100e-02 -1.176108090864160e-02 9.811897283898652e-02 -9.721176680919458e-03
            1.347662846844518e-01 3.998210127247183e-01 4.493287757532855e-02 3.691653528113081e-02 9.825841164651410e-02 -9.815533488749466e-03 9.686714503011951e-02 -1.179607395465908e-02
748585000.0000000000 8.887397579697244e-02 -2.460933200918330e-02 8.387209983872770e-02 -2.037242295243260e-02 5.704377931528874e-02 1.884209233521564e-02 2.640308827568559e-01 3.299491536226735e-01
            8.386505457276873e-02 -2.042544193748320e-02 8.882126953368684e-02 -2.451563212585122e-02 2.641045935305762e-01 3.299663394561819e-01 5.699595597719122e-02 1.885965934118742e-02
            5.698375021730168e-02 1.882562863419731e-02 2.640730529181888e-01 3.298973824889748e-01 8.439837438173951e-02 -1.765248762965230e-02 8.635152228159032e-02 -1.593649768466691e-02
            2.640673349894366e-01 3.298820921784437e-01 5.702064735998975e-02 1.886398559761787e-02 8.631785414379942e-02 -1.591231096315643e-02 8.432234096653951e-02 -1.757864599687531e-02
749417500.0000000000 7.649425050346507e-02 -2.014792763890973e-02 7.093864487276082e-02 -1.607075499063493e-02 6.224869674079112e-02 -3.649214055583379e-03 3.621469048535946e-01 2.190844051515410e-01
            7.079678223719882e-02 -1.604985937313450e-02 7.638720585557758e-02 -2.011488394875474e-02 3.621835305868693e-01 2.190994493905160e-01 6.223861130143377e-02 -3.581117946063810e-03
            6.225609658341184e-02 -3.520462901525992e-03 3.621109585386850e-01 2.190630060688018e-01 7.068785603626898e-02 -1.380714172036139e-02 7.340280127769536e-02 -1.270251004184348e-02
            3.621154153164933e-01 2.190585780766211e-01 6.227275091740300e-02 -3.615089578339840e-03 7.346326655580381e-02 -1.275518544272410e-02 7.075168375661128e-02 -1.378737823950414e-02
750250000.0000000000 7.009722264982092e-02 -8.432844933759296e-03 6.363612032269390e-02 -4.154240307790185e-03 5.836382245339292e-02 -2.781845304468339e-02 4.155735279113588e-01 8.028425038700254e-02
            6.369790063193392e-02 -4.082010167870177e-03 7.012694566487054e-02 -8.382356364164793e-03 4.156708264759202e-01 8.029891705920292e-02 5.836099064826379e-02 -2.787917455202563e-02
            5.830226979277445e-02 -2.791652375765174e-02 4.156331349734574e-01 8.026813917830586e-02 6.261603800777189e-02 -1.784443513586400e-03 6.594852076588172e-02 -1.633390785237163e-03
            4.156903697775991e-01 8.019017302457955e-02 5.838824196728228e-02 -2.786593116341887e-02 6.594606584860349e-02 -1.672855271176401e-03 6.266071780084832e-02 -1.701412869806821e-03
751082500.0000000000 7.314765414843886e-02 4.685286961557737e-03 6.616967779778883e-02 9.682274592740832e-03 4.442786561625342e-02 -4.945303508918457e-02 4.170420570838544e-01 -6.851275573174080e-02
            6.612354082000964e-02 9.626808344931679e-03 7.312757594338003e-02 4.650421640151895e-03 4.169828362582924e-01 -6.846002272080398e-02 4.441991061140696e-02 -4.944560549254597e-02
            4.452113486304762e-02 -4.949583936320442e-02 4.169702227667049e-01 -6.844754785575180e-02 6.429788412138114e-02 1.277975009932503e-02 6.792457295097290e-02 1.157427634734358e-02
            4.170248195104293e-01 -6.846262807905416e-02 4.445281134481353e-02 -4.953558368965436e-02 6.789634228805244e-02 1.162534648731170e-02 6.423142162606374e-02 1.283052067891970e-02
751915000.0000000000 8.402892973230695e-02 1.252440411335068e-02 7.695026872859111e-02 1.844411829130229e-02 2.257651762315050e-02 -6.375919240580133e-02 3.664791486812179e-01 -2.074904716404872e-01
            7.698445465965230e-02 1.845380697807614e-02 8.412071980995489e-02 1.244152711773547e-02 3.665813064824803e-01 -2.074602947887529e-01 2.256102198289742e-02 -6.370800284387597e-02
            2.256082243664913e-02 -6.372047152460818e-02 3.665028032724505e-01 -2.075318996737943e-01 7.481555892915194e-02 2.288630820555999e-02 7.833219835285388e-02 2.011108715972117e-02
            3.665514178347129e-01 -2.075173942197651e-01 2.259031390349734e-02 -6.371408394114719e-02 7.842548473069358e-02 2.018781235154149e-02 7.492259676463461e-02 2.292490556193831e-02
752747500.0000000000 9.750969227408100e-02 1.122812743743738e-02 9.076804927256878e-02 1.818639673605712e-02 -3.010799427480317e-03 -6.804213101547466e-02 2.719935683550465e-01 -3.194757362461450e-01
            9.081519688057549e-02 1.821069120383858e-02 9.758424627662907e-02 1.134631679733058e-02 2.720450082931837e-01 -3.194388346775016e-01 -3.000462753892043e-03 -6.809308861675113e-02
            -2.987699992212491e-03 -6.807017369675511e-02 2.720622535427569e-01 -3.194970766238492e-01 8.917130334446156e-02 2.367371055169521e-02 9.201614868717725e-02 1.962124057209219e-02
            2.720821348998455e-01 -3.195452350958166e-01 -3.007666228341891e-03 -6.802117078512114e-02 9.200169139242936e-02 1.960266964533408e-02 8.917966143426667e-02 2.368728065888003e-02
753580000.0000000000 1.070297017914306e-01 1.614956546670879e-03 1.013135003577667e-01 9.213166488759314e-03 -2.775070385230295e-02 -6.265468158224517e-02 1.460380590821141e-01 -3.919924995272484e-01
            1.011463906692736e-01 9.196430953308425e-03 1.070407109115447e-01 1.551518930772985e-03 1.460918673375254e-01 -3.919911476631537e-01 -2.774470023507578e-02 -6.266398363389490e-02
            -2.774222509515355e-02 -6.261187133532679e-02 1.460555533398862e-01 -3.920639437699746e-01 1.002951880066512e-01 1.521111730857233e-02 1.020344397058873e-01 1.019481269230506e-02
            1.460628704600283e-01 -3.919789764653751e-01 -2.773389765136715e-02 -6.262440919171045e-02 1.021092949059984e-01 1.025194286433368e-02 1.003789738945041e-01 1.522711167893943e-02
754412500.0000000000 1.081186871357016e-01 -1.193901834772166e-02 1.035461825010397e-01 -4.185839324208842e-03 -4.851065590172004e-02 -4.930549521877150e-02 3.623188934421561e-03 -4.178735581269395e-01
            1.036069259784024e-01 -4.116901828999455e-03 1.081640265829919e-01 -1.193020323830896e-02 3.614748305579314e-03 -4.178233060717573e-01 -4.855257103694115e-02 -4.923783577745960e-02
            -4.854769786162792e-02 -4.938210421631985e-02 3.573501683926202e-03 -4.178953565614172e-01 1.033764724134153e-01 1.689346417995796e-03 1.039379077885055e-01 -3.741145214138408e-03
            3.530484717758839e-03 -4.178070958426545e-01 -4.862441963298972e-02 -4.927568514214348e-02 1.038492706946102e-01 -3.755340604784255e-03 1.033693372606602e-01 1.679822230485388e-03
755245000.0000000000 1.003511122824263e-01 -2.310906615522499e-02 9.709954371577610e-02 -1.579447004798784e-02 -6.400984437127391e-02 -2.984340335014181e-02 -1.394633559778476e-01 -3.941467431459053e-01
            9.709601701129722e-02 -1.587664587621435e-02 1.004120391944660e-01 -2.311542806995326e-02 -1.394257695832784e-01 -3.941217549811573e-01 -6.407668105635821e-02 -2.986459854584929e-02
            -6.399443075658652e-02 -2.989171337084328e-02 -1.394587244724157e-01 -3.942193818502923e-01 9.683127768587470e-02 -1.058206084272997e-02 9.627231158001037e-02 -1.595609176076359e-02
            -1.394167069397741e-01 -3.941285231297368e-01 -6.401834111561130e-02 -2.984288430449418e-02 9.629201316438481e-02 -1.594269776897358e-02 9.692589433327096e-02 -1.048531447003691e-02
756077500.0000000000 8.720685237083121e-02 -2.671893123434750e-02 8.488027500029363e-02 -2.050115577042587e-02 -7.267352462917630e-02 -5.785212262617899e-03 -2.665955755918679e-01 -3.228563498743680e-01
            8.488803708216851e-02 -2.048555633698689e-02 8.715802447238888e-02 -2.668342919887182e-02 -2.666344439062296e-01 -3.229444313354512e-01 -7.252469661142785e-02 -5.735882497008763e-03
            -7.258038980219150e-02 -5.774756983579447e-03 -2.666180073129914e-01 -3.228824555057332e-01 8.374560755574598e-02 -1.551616530139587e-02 8.243696316904715e-02 -2.078569151882195e-02
            -2.665837841666034e-01 -3.229089556557574e-01 -7.260289227614435e-02 -5.732386759669418e-03 8.244301039641962e-02 -2.079443214855890e-02 8.379129235648229e-02 -1.557367909934934e-02
756910000.0000000000 7.490368116401999e-02 -2.086938383199294e-02 7.291674240335898e-02 -1.627768665078419e-02 -7.241845112315126e-02 2.137476422019894e-02 -3.620576427100357e-01 -2.115049378524693e-01
            7.295718426285470e-02 -1.626562842969304e-02 7.488961904019240e-02 -2.093483802465068e-02 -3.620622949729744e-01 -2.114086946737350e-01 -7.249790436603493e-02 2.135494718685443e-02
            -7.244542110129193e-02 2.133130734806520e-02 -3.619720770477362e-01 -2.114328886464258e-01 7.047159378066149e-02 -1.078753738145684e-02 6.849879386189794e-02 -1.579480212556146e-02
            -3.620676285277485e-01 -2.114915634685092e-01 -7.246380189781183e-02 2.137236077061383e-02 6.852302166217393e-02 -1.575089709887437e-02 7.044608247559694e-02 -1.077374803284763e-02
757742500.0000000000 6.955325265113239e-02 -8.442592678693368e-03 6.714167368594877e-02 -5.259029393342293e-03 -6.182366490253897e-02 4.809521836421855e-02 -4.128598097751765e-01 -7.304844240674435e-02
            6.707062318363410e-02 -5.272680672742259e-03 6.956780660157375e-02 -8.557357089009340e-03 -4.128134109704931e-01 -7.306164672537264e-02 -6.168367010779275e-02 4.810542201703861e-02
            -6.170068931030094e-02 4.810157667844196e-02 -4.128477396611699e-01 -7.306959133544416e-02 6.339619417606773e-02 1.741025557849995e-03 6.101603093214378e-02 -3.053909063355827e-03
            -4.127480128172031e-01 -7.312624862689743e-02 -6.172146983222546e-02 4.813260571292588e-02 6.101892810995251e-02 -3.079065415098773e-03 6.333927546814479e-02 1.744912735389344e-03
758575000.0000000000 7.372846093325910e-02 4.304476892001054e-03 7.020134673801874e-02 6.402217144587242e-03 -4.053583676509157e-02 6.946249157922299e-02 -4.116691554977871e-01 7.415134481652652e-02
            7.020067904541871e-02 6.477224534360040e-03 7.377682095751192e-02 4.390065232532848e-03 -4.117054042142157e-01 7.412291666222526e-02 -4.050410155052112e-02 6.946627846388298e-02
            -4.053537026756978e-02 6.952449561088460e-02 -4.117084284698511e-01 7.417030629304193e-02 6.617274687875732e-02 1.583880574738355e-02 6.330737083046979e-02 1.115311190285267e-02
            -4.117936648641833e-01 7.409750780743256e-02 -4.053231001663100e-02 6.950724646752486e-02 6.336794664498432e-02 1.108592851769555e-02 6.618328326538245e-02 1.580664189562909e-02
759407500.0000000000 8.542146659847534e-02 1.117250878070208e-02 8.055166593670017e-02 1.283330556082401e-02 -1.205815644836388e-02 8.109783696866896e-02 -3.595735428691678e-01 2.108354231418847e-01
            8.056893931171287e-02 1.277209599718837e-02 8.542214782060562e-02 1.120881920784562e-02 -3.595734704602419e-01 2.108202629700497e-01 -1.199555234607445e-02 8.103595518225459e-02
            -1.192929465653026e-02 8.109263242779097e-02 -3.596184124675184e-01 2.106996542801293e-01 7.747165061107593e-02 2.445275112705940e-02 7.396470521809696e-02 2.016949895556522e-02
            -3.596146998952839e-01 2.107941363455041e-01 -1.191904908451295e-02 8.106387476189993e-02 7.398574359614907e-02 2.007162718691873e-02 7.741829216319691e-02 2.443269359748778e-02
760240000.0000000000 9.878783952625973e-02 8.766034479881986e-03 9.259886389075318e-02 1.043723243703940e-02 1.875340295227888e-02 8.065339130092838e-02 -2.644051423147479e-01 3.201331526041874e-01
            9.259533693938460e-02 1.035148480669553e-02 9.884998287096665e-02 8.762407199086955e-03 -2.643706822378278e-01 3.201244307678261e-01 1.869917451582793e-02 8.067909755876765e-02
            1.877545453852470e-02 8.064489556348718e-02 -2.643713664322642e-01 3.200884077133647e-01 9.149906466144742e-02 2.354017261620399e-02 8.736303193976150e-02 1.980475776184375e-02
            -2.644575023899154e-01 3.201113307707363e-01 1.877083673877675e-02 8.060675081092802e-02 8.737926389308925e-02 1.978013761897638e-02 9.145962121736952e-02 2.370809832308323e-02
761072500.0000000000 1.075880967554649e-01 -1.737223529004803e-03 1.003352784886254e-01 5.294414822487786e-04 4.670406006271047e-02 6.916892867237626e-02 -1.386878209528795e-01 3.900482353079553e-01
            1.003815432306455e-01 5.185766206094363e-04 1.076787426922970e-01 -1.818441267886991e-03 -1.386327584214735e-01 3.900477457829240e-01 4.670798470940969e-02 6.922797987804634e-02
            4.669125033063168e-02 6.923039997161652e-02 -1.387281276339588e-01 3.900479289393587e-01 1.013904071642858e-01 1.376110774604992e-02 9.692134293180557e-02 1.079330257963755e-02
            -1.385987354357593e-01 3.901118464354089e-01 4.669850513868034e-02 6.925823943487291e-02 9.688195145509050e-02 1.083196656720644e-02 1.014568443635031e-01 1.369601331999711e-02
761905000.0000000000 1.080974668028637e-01 -1.549216533488296e-02 1.000689370747846e-01 -1.226876212919304e-02 6.876133385297799e-02 4.911103611564319e-02 2.737157150615737e-03 4.135351728349774e-01
            9.999041219392901e-02 -1.225588350965292e-02 1.080793000525573e-01 -1.550430479148946e-02 2.734931563570534e-03 4.134798102588594e-01 6.869272040572204e-02 4.911061054261388e-02
            6.868410960325319e-02 4.910171137016906e-02 2.815744254553694e-03 4.135618753469206e-01 1.025550328406832e-01 -4.934230682732420e-04 9.794939871063729e-02 -2.177658975231886e-03
            2.730006939731599e-03 4.136248268885869e-01 6.866812586260247e-02 4.905960534243488e-02 9.795136387226677e-02 -2.147259488050133e-03 1.025009493816890e-01 -5.582218248172567e-04
762737500.0000000000 1.002122883044614e-01 -2.639769959675663e-02 9.188113734314081e-02 -2.237555207805808e-02 8.301022849117932e-02 2.278870492748929e-02 1.440906252915702e-01 3.878883329533383e-01
            9.185123564656412e-02 -2.235981734662472e-02 1.001484048253277e-01 -2.640105341650286e-02 1.440103328907322e-01 3.879075853582970e-01 8.288003025517128e-02 2.278031791804779e-02
            8.291294580298829e-02 2.274973810659077e-02 1.440240663535497e-01 3.879021415855318e-01 9.379150757310956e-02 -1.259056801502440e-02 8.980965684878725e-02 -1.309548019342702e-02
            1.439672692296473e-01 3.878916293966768e-01 8.294349756817269e-02 2.286823473108324e-02 8.980375952527832e-02 -1.310313787787162e-02 9.379490549846868e-02 -1.259234618926923e-02
763570000.0000000000 8.783528817689097e-02 -2.995999909376012e-02 7.949233855978283e-02 -2.525101379617988e-02 8.798482412488566e-02 -7.498042466073003e-03 2.688414367320190e-01 3.152345605501359e-01
            7.948600300112210e-02 -2.522288259917921e-02 8.779816101645380e-02 -2.999567176749519e-02 2.688443397260274e-01 3.152830788731661e-01 8.809798664077095e-02 -7.534789521968893e-03
            8.802416488395422e-02 -7.513523355255775e-03 2.688197496319290e-01 3.152168338910558e-01 7.867527298497252e-02 -1.668022354942558e-02 7.583957777162043e-02 -1.626797292832234e-02
            2.688029487608142e-01 3.152677132144563e-01 8.801115421873587e-02 -7.518674024681879e-03 7.575416165959534e-02 -1.632921791655788e-02 7.865602654448166e-02 -1.668357130873301e-02
764402500.0000000000 7.690339282065521e-02 -2.536474340710443e-02 6.856309350191946e-02 -2.010007789184678e-02 8.238235085426847e-02 -3.927261438524854e-02 3.614628595041478e-01 2.033745778801724e-01
            6.860401260153634e-02 -2.012023306600820e-02 7.696546312367640e-02 -2.534558632908449e-02 3.614426793548628e-01 2.032062000629325e-01 8.224783153466722e-02 -3.923172417200533e-02
            8.228243378465167e-02 -3.924897077813433e-02 3.613723272111631e-01 2.033179547394058e-01 6.346422954874077e-02 -1.045138229243556e-02 6.206741094877048e-02 -9.689044866212570e-03
            3.614065951500852e-01 2.032909604521107e-01 8.229568269554324e-02 -3.917620873085646e-02 6.220123466146234e-02 -9.663638942444782e-03 6.339205044480997e-02 -1.041655154933502e-02
765235000.0000000000 7.254557162791651e-02 -1.585360891006262e-02 6.410515127998204e-02 -1.012332287816808e-02 6.472914667848137e-02 -6.825860536816397e-02 4.091888732660932e-01 6.560621393859351e-02
            6.407214230296382e-02 -1.007466246471607e-02 7.246364718550984e-02 -1.585930285357176e-02 4.092305625766315e-01 6.565910678305212e-02 6.473097933646793e-02 -6.820044990707338e-02
            6.473377218515600e-02 -6.818910938784128e-02 4.092823912259688e-01 6.562001241229863e-02 5.462053212359594e-02 4.168395261808515e-03 5.494883541788784e-02 4.444068208733853e-03
            4.091858227006011e-01 6.568371104858066e-02 6.471281984546001e-02 -6.823318797510258e-02 5.489511003285606e-02 4.407155746583680e-03 5.457060257162459e-02 4.155828337993996e-03
766067500.0000000000 7.595623425084722e-02 -7.571045594068584e-03 6.756901037389043e-02 -1.273285082461189e-03 3.650155483267153e-02 -8.933866754376868e-02 4.056693960167240e-01 -7.981931810888708e-02
            6.751463956883005e-02 -1.263031897710360e-03 7.586941859546185e-02 -7.593231887628390e-03 4.057016977551113e-01 -7.983740300648952e-02 3.652246441356954e-02 -8.934148404998823e-02
            3.643425344826105e-02 -8.937718313617680e-02 4.057319974248380e-01 -7.988626735821727e-02 5.590882398807374e-02 2.113570755722587e-02 5.740725289810273e-02 2.028319031071053e-02
            4.057142612638607e-01 -7.983925449288430e-02 3.650429971072028e-02 -8.936305125109067e-02 5.733822994982246e-02 2.023608731875959e-02 5.582620421639624e-02 2.111004235968692e-02
766900000.0000000000 8.392650518443882e-02 -5.723110105242283e-03 7.558341170845971e-02 1.444552012444685e-03 1.557482869145226e-03 -9.832008236350898e-02 3.519831642940455e-01 -2.141215732009080e-01
            7.560823132292119e-02 1.442429660354949e-03 8.393190428573785e-02 -5.640373943393387e-03 3.521017577537105e-01 -2.141460816762328e-01 1.493767705742744e-03 -9.830060575658915e-02
            1.538270967563886e-03 -9.832021235883855e-02 3.520294694433623e-01 -2.141323234898952e-01 6.601594044889499e-02 3.385829926710160e-02 6.808970989973530e-02 3.141701755973431e-02
            3.520335227244505e-01 -2.141102020102962e-01 1.585069993252959e-03 -9.843955043745589e-02 6.796856432313624e-02 3.141009591026903e-02 6.594404585034905e-02 3.379032918784131e-02
767732500.0000000000 9.043550787896203e-02 -1.159121682006754e-02 8.244669749925632e-02 -3.703359147730512e-03 -3.443981691920103e-02 -9.356529358076032e-02 2.561385231448227e-01 -3.208134101895673e-01
            8.247421455923865e-02 -3.725923870423096e-03 9.041493847482532e-02 -1.161911493314838e-02 2.561296577508334e-01 -3.208107547065975e-01 -3.437680274389259e-02 -9.350636347179318e-02
            -3.432834614774363e-02 -9.358094110683164e-02 2.561992276904659e-01 -3.208595967759068e-01 8.003437144543012e-02 3.825448100993461e-02 8.193880503023629e-02 3.437094918715458e-02
            2.562076994267043e-01 -3.208555042617581e-01 -3.443236550329366e-02 -9.361775786075113e-02 8.196558196545822e-02 3.440736034351501e-02 8.000191756894971e-02 3.824163259641398e-02
768565000.0000000000 9.001434224009458e-02 -2.272301894846942e-02 8.278139183041840e-02 -1.397904839334005e-02 -6.615076046405287e-02 -7.616868402800506e-02 1.303139932767527e-01 -3.881431214425266e-01
            8.277269308253027e-02 -1.391061680209240e-02 9.006519406695655e-02 -2.258786718757578e-02 1.304359376175452e-01 -3.881451512887130e-01 -6.614341765892867e-02 -7.614061891878660e-02
            -6.615537966082019e-02 -7.617778097176583e-02 1.303598144510587e-01 -3.881117256163964e-01 9.219460201736884e-02 3.474019356517798e-02 9.338380958572075e-02 2.982425813581331e-02
            1.304223998635173e-01 -3.881221476824956e-01 -6.619028263860234e-02 -7.616156163936043e-02 9.344009267725809e-02 2.983430112156614e-02 9.211295073068541e-02 3.478547863369302e-02
769397500.0000000000 8.039598642733702e-02 -3.222524177642668e-02 7.424136468413439e-02 -2.338124725788371e-02 -8.986761154724071e-02 -4.883074446801086e-02 -1.043193979172930e-02 -4.087667119137261e-01
            7.411401117348024e-02 -2.337618758356746e-02 8.044303822567019e-02 -3.236170413881592e-02 -1.035651150814100e-02 -4.087653631676656e-01 -8.993440203005248e-02 -4.895516920242163e-02
            -8.984736210314179e-02 -4.894300901611717e-02 -1.040916083215989e-02 -4.088205515560912e-01 9.827112129815220e-02 2.694119947037198e-02 9.868040657141375e-02 2.142808710841247e-02
            -1.046003092003756e-02 -4.088035817130814e-01 -8.987261430956810e-02 -4.893153651650229e-02 9.864729915103045e-02 2.154820843937562e-02 9.830303919975730e-02 2.685684305133191e-02
770230000.0000000000 6.391574282759856e-02 -3.443337818262014e-02 5.880940957867836e-02 -2.568213213382249e-02 -1.032815735531523e-01 -1.486286456330133e-02 -1.500695623686030e-01 -3.801640317394308e-01
            5.874253974485032e-02 -2.577920573403801e-02 6.393867073043959e-02 -3.438594160323290e-02 -1.500751678155825e-01 -3.801303597916042e-01 -1.032880796609358e-01 -1.482566499003761e-02
            -1.032455087491525e-01 -1.482551565119310e-02 -1.500510488529347e-01 -3.800898544544565e-01 9.816024380503849e-02 1.982033126898305e-02 9.778434662534306e-02 1.443742197511117e-02
            -1.500544591050989e-01 -3.801847374375325e-01 -1.032496461984920e-01 -1.475949225998392e-02 9.777513609338599e-02 1.451660964487497e-02 9.814393134751938e-02 1.983683428137478e-02
771062500.0000000000 4.697252484293925e-02 -2.531541247018615e-02 4.258393209948558e-02 -1.729359614953373e-02 -1.042462733051858e-01 2.297358831466197e-02 -2.717094794283059e-01 -3.048960460189488e-01
            4.259558950134051e-02 -1.727286707069344e-02 4.698735699082496e-02 -2.529013545417547e-02 -2.716991808062507e-01 -3.048863774559277e-01 -1.042259760503656e-01 2.288207071033704e-02
            -1.042344396723123e-01 2.285327097302958e-02 -2.717658862608795e-01 -3.049214296452085e-01 9.446441528456301e-02 1.750029805530546e-02 9.368578572703137e-02 1.236515045061868e-02
            -2.717450430785613e-01 -3.048839845205105e-01 -1.042444745075548e-01 2.291503869098934e-02 9.365857557886040e-02 1.232796969635594e-02 9.434096737758539e-02 1.746006575187499e-02
771895000.0000000000 3.713990396196024e-02 -6.396023071356259e-03 3.291062891874390e-02 7.238780899230400e-04 -9.142225539525627e-02 5.983895146179710e-02 -3.596759284988915e-01 -1.919070330442231e-01
            3.297824638640055e-02 7.039458797189076e-04 3.717204645119460e-02 -6.332410333068616e-03 -3.596652250108541e-01 -1.918735084237950e-01 -9.144699234054700e-02 5.989611306666390e-02
            -9.140861924836757e-02 5.989685823612324e-02 -3.596613681180116e-01 -1.919014574750145e-01 9.192699232437446e-02 2.045057355728725e-02 9.125720273394315e-02 1.565817171296858e-02
            -3.597491145239767e-01 -1.918788833789938e-01 -9.144876598696984e-02 5.987678315807231e-02 9.121816242582409e-02 1.568077400136546e-02 9.196612557312756e-02 2.047461651487049e-02
772727500.0000000000 3.971349220692560e-02 1.616216527610005e-02 3.514647206799822e-02 2.234120587708974e-02 -6.502496483267453e-02 9.057957416826455e-02 -4.024017083738826e-01 -5.559490823855801e-02
            3.511163671040375e-02 2.234596065532603e-02 3.975259997159601e-02 1.625358942404447e-02 -4.024379042658597e-01 -5.559536796543672e-02 -6.508440487395474e-02 9.070173715238036e-02
            -6.502630404033495e-02 9.067044477707001e-02 -4.023901029545121e-01 -5.561541875753591e-02 9.455123874265238e-02 2.604726638877969e-02 9.419445423121009e-02 2.122631759272331e-02
            -4.023362989444298e-01 -5.556595212893950e-02 -6.503932830079839e-02 9.058590881970725e-02 9.418376321546991e-02 2.112661129941826e-02 9.464343538562521e-02 2.595779909455237e-02
773560000.0000000000 5.466084793639871e-02 3.376515174331290e-02 4.910699676462971e-02 3.938285641413525e-02 -2.824034410970290e-02 1.094374282903040e-01 -3.949869041649756e-01 8.587883736116868e-02
            4.905513514198864e-02 3.934731500747054e-02 5.458829876593330e-02 3.379426173114275e-02 -3.950325287574257e-01 8.584634265206950e-02 -2.824089424076854e-02 1.094583903696324e-01
            -2.821242199071622e-02 1.094233250803413e-01 -3.950765371988264e-01 8.589773322833909e-02 1.030294500288864e-01 2.914365334667025e-02 1.028769643211473e-01 2.399206646201469e-02
            -3.950368644246763e-01 8.585849249989085e-02 -2.828689632665876e-02 1.093026303215309e-01 1.027588719243468e-01 2.401972948037884e-02 1.030642120423464e-01 2.917949095144832e-02
774392500.0000000000 7.622523022048919e-02 3.992634676215859e-02 6.965252475937764e-02 4.558098020168254e-02 1.286382135904098e-02 1.130120194225543e-01 -3.401240020479473e-01 2.148313903423173e-01
            6.967001445014320e-02 4.565618342165645e-02 7.625049177164082e-02 3.989292454040270e-02 -3.400256480441985e-01 2.147930447457043e-01 1.285623033465999e-02 1.130554056231106e-01
            1.284520898634138e-02 1.129421371891823e-01 -3.400584197154214e-01 2.148950987620733e-01 1.140369220916663e-01 2.594480456402031e-02 1.137882429663745e-01 2.026786782736880e-02
            -3.400137611978019e-01 2.147932765358512e-01 1.289052418536475e-02 1.130690092226690e-01 1.138669561812437e-01 2.033146172379998e-02 1.140618997052396e-01 2.597012866972991e-02
775225000.0000000000 9.642613396030006e-02 3.326163884541743e-02 8.897338804976551e-02 3.964245395837233e-02 5.201947241389251e-02 1.015658817125425e-01 -2.456532520182486e-01 3.165587436144366e-01
            8.901632211235527e-02 3.968173783860033e-02 9.637306008654427e-02 3.318235562630917e-02 -2.456019255139959e-01 3.165063432661266e-01 5.195369042928923e-02 1.016344612114526e-01
            5.198830601760743e-02 1.016093654720137e-01 -2.455893586676915e-01 3.164903867452289e-01 1.227256129174057e-01 1.565409044642648e-02 1.219435073607816e-01 9.521926274260573e-03
            -2.455418160109271e-01 3.164819310486929e-01 5.193869124233490e-02 1.015837468289674e-01 1.220350941620020e-01 9.518287071928986e-03 1.227193158895349e-01 1.563209683668548e-02
776057500.0000000000 1.081290006841995e-01 1.745336614054106e-02 1.003122696705089e-01 2.478365914388849e-02 8.415919271616500e-02 7.780756367530305e-02 -1.230842490231512e-01 3.805214648402365e-01
            1.002818918726008e-01 2.490440022809281e-02 1.081459345983790e-01 1.743986216674194e-02 -1.231128685944020e-01 3.804475783524304e-01 8.419031820707289e-02 7.771974646339817e-02
            8.420395430482140e-02 7.777981173904377e-02 -1.231581021651742e-01 3.804698825807092e-01 1.244988184075744e-01 8.790343947855899e-04 1.230964104228429e-01 -5.381960217655725e-03
            -1.230518114068819e-01 3.804668131598904e-01 8.407476196728814e-02 7.775097116179018e-02 1.231660396534683e-01 -5.309438585785226e-03 1.244765054893799e-01 8.788597326769680e-04
776890000.0000000000 1.081392054082108e-01 -4.894462991228398e-04 1.002995456449045e-01 7.969742785908946e-03 1.065032233100480e-01 4.508014397165064e-02 1.387191936437757e-02 3.998890857035911e-01
            1.003125561235345e-01 7.876617261335263e-03 1.081265560168181e-01 -5.868019823562095e-04 1.381105336386421e-02 3.999103915284051e-01 1.064843945621940e-01 4.513090360901536e-02
            1.064551066448689e-01 4.511228245442642e-02 1.381561073807792e-02 3.998098918630321e-01 1.176415140018001e-01 -1.306794116874961e-02 1.156271556026836e-01 -1.882838482129530e-02
            1.384478485578114e-02 3.998907177197101e-01 1.065213902162292e-01 4.508790426391023e-02 1.156692246922584e-01 -1.882563375201664e-02 1.175808281974834e-01 -1.306654060628008e-02
777722500.0000000000 9.784852080645874e-02 -1.305512519402044e-02 9.043539318406647e-02 -3.893298652287747e-03 1.175124337027004e-01 6.493332867410904e-03 1.501370338819356e-01 3.715695218677599e-01
            9.031147674427004e-02 -3.932368472644018e-03 9.784769485096727e-02 -1.309336840309267e-02 1.501380847226511e-01 3.715752328820277e-01 1.174854895102284e-01 6.597472610938899e-03
            1.174882145439064e-01 6.487873192585647e-03 1.501666742126615e-01 3.715077454743873e-01 1.039281331386848e-01 -2.092236629723475e-02 1.016201898081769e-01 -2.585480448381266e-02
            1.501630622445347e-01 3.714980110241985e-01 1.175062721986035e-01 6.506401743518240e-03 1.016388712455829e-01 -2.578960313379344e-02 1.038992286040481e-01 -2.092306671021602e-02
778555000.0000000000 8.299102859314983e-02 -1.546652024652468e-02 7.597955023878085e-02 -5.784306436407365e-03 1.153408940527926e-01 -3.479665870703946e-02 2.694641542115494e-01 2.974491867504003e-01
            7.590510848992664e-02 -5.938813677612768e-03 8.290611120892961e-02 -1.541087485190406e-02 2.694066284044973e-01 2.975038539164829e-01 1.153669441278445e-01 -3.476269184321601e-02
            1.154002022768659e-01 -3.476259751590383e-02 2.695334601333116e-01 2.974560197090225e-01 8.829774660891539e-02 -1.943978215505084e-02 8.650972274978996e-02 -2.339495081020878e-02
            2.695043380426962e-01 2.974751197163802e-01 1.153720239177635e-01 -3.476722908270570e-02 8.657605826315252e-02 -2.329500713337014e-02 8.829317394018506e-02 -1.947969569817233e-02
779387500.0000000000 7.150305793576288e-02 -7.244139933363069e-03 6.454491988800164e-02 2.633227744657991e-03 9.869620101456489e-02 -7.473129271408907e-02 3.558105481438377e-01 1.857338520782074e-01
            6.457214763140838e-02 2.555351430826089e-03 7.142821968170544e-02 -7.140000512357699e-03 3.558770353064009e-01 1.858201467149900e-01 9.859676263827137e-02 -7.469479252612379e-02
            9.860618175701188e-02 -7.467199385230106e-02 3.558956258452505e-01 1.857557330282923e-01 7.719342873069417e-02 -9.278473653548020e-03 7.662978726252985e-02 -1.243009592020614e-02
            3.558123783319616e-01 1.857989827921782e-01 9.862037415820424e-02 -7.468044011318740e-02 7.660814082935630e-02 -1.240834563852071e-02 7.724946953008137e-02 -9.232463203697829e-03
780220000.0000000000 6.924915935865276e-02 6.464101955946887e-03 6.209729960408369e-02 1.654671633597645e-02 6.735410677831337e-02 -1.073297532935057e-01 3.972701401083211e-01 5.077908714061697e-02
            6.210484487397688e-02 1.658527657931355e-02 6.917360859957229e-02 6.490692135538091e-03 3.972841611623304e-01 5.075131662204624e-02 6.731233225369923e-02 -1.073130967338095e-01
            6.735176390867025e-02 -1.073325628010437e-01 3.971974469308679e-01 5.076980479040219e-02 7.514188705553047e-02 4.821378189426568e-03 7.623106608983998e-02 1.902478603327815e-03
            3.973767138703266e-01 5.082677207562544e-02 6.733983265374528e-02 -1.072475673987104e-01 7.623928474641731e-02 1.873197832855964e-03 7.516815676450909e-02 4.852370294853602e-03
781052500.0000000000 7.733964386344304e-02 1.801955412416652e-02 6.982749252251308e-02 2.871268564076115e-02 2.492597288506804e-02 -1.264698338516679e-01 3.886800350772756e-01 -8.930362006270756e-02
            6.985185731466780e-02 2.866993626287978e-02 7.738069856473316e-02 1.807526359130596e-02 3.887016049600278e-01 -8.929681307813796e-02 2.487802268017618e-02 -1.264922553698186e-01
            2.504930595694038e-02 -1.265150286758611e-01 3.886512303888255e-01 -8.933101478659052e-02 8.257083970503203e-02 1.596074740845875e-02 8.527883245808625e-02 1.235219014855476e-02
            3.886779785284831e-01 -8.929268310246993e-02 2.492061358526666e-02 -1.265647921431748e-01 8.521590102973828e-02 1.237913257818180e-02 8.252007846025014e-02 1.599122341379531e-02
781885000.0000000000 9.153282285014942e-02 2.103344004157065e-02 8.375239291146068e-02 3.293858081065636e-02 -2.200160237564719e-02 -1.284451923195862e-01 3.327350871534837e-01 -2.162818303911049e-01
            8.383268127546063e-02 3.288161118545010e-02 9.150855598227393e-02 2.113689807858182e-02 3.326218151091454e-01 -2.163863181624243e-01 -2.199450946163940e-02 -1.284443335449049e-01
            -2.197697831973118e-02 -1.284623357868550e-01 3.327327048166157e-01 -2.163909283643783e-01 9.485881667353369e-02 1.904270434152138e-02 9.876158507157806e-02 1.399050402799789e-02
            3.326271453667304e-01 -2.163362319737198e-01 -2.200859553183497e-02 -1.284618079685775e-01 9.880122144614512e-02 1.407449369524959e-02 9.483752786282221e-02 1.898666152950151e-02
782717500.0000000000 1.045421289281516e-01 1.415355530633536e-02 9.701371539233536e-02 2.727510464092941e-02 -6.615201800512414e-02 -1.131571158662551e-01 2.376632533286552e-01 -3.157212616274656e-01
            9.701155514783502e-02 2.729751240404549e-02 1.045496991237763e-01 1.414711264060101e-02 2.377357667762867e-01 -3.156600408424550e-01 -6.618832315567963e-02 -1.131252274821998e-01
            -6.612494032196893e-02 -1.131791227426553e-01 2.376271879456788e-01 -3.157493979270108e-01 1.057101246849604e-01 1.307619934750529e-02 1.101764685954290e-01 6.291188437831748e-03
            2.376380333983382e-01 -3.156415334543073e-01 -6.620328847601008e-02 -1.132138746713708e-01 1.102541199439466e-01 6.364005022106735e-03 1.056865022615799e-01 1.302726627859401e-02
783550000.0000000000 1.104636897358658e-01 1.898982653395030e-04 1.033992349551393e-01 1.478049628894135e-02 -1.018910698626095e-01 -8.377979450764296e-02 1.155483066925086e-01 -3.769679065072703e-01
            1.033210436290784e-01 1.485412198530195e-02 1.104550833903272e-01 2.300153215002467e-04 1.155672182860764e-01 -3.769257354290050e-01 -1.017992420840421e-01 -8.378426376697669e-02
            -1.018960114910377e-01 -8.381389566891483e-02 1.155232246322294e-01 -3.769345686238201e-01 1.098259905477843e-01 1.232542783556780e-03 1.140936243121988e-01 -7.003550960289716e-03
            1.155263348842181e-01 -3.769078169296733e-01 -1.017896438592160e-01 -8.380782019997023e-02 1.139709719527920e-01 -6.987803772178894e-03 1.097921956420796e-01 1.161723367854698e-03
784382500.0000000000 1.063340041971571e-01 -1.428628433417216e-02 1.001376185695477e-01 1.502970835844348e-03 -1.254514998101502e-01 -4.441905164233077e-02 -2.011358938195976e-02 -3.934846740562778e-01
            1.002240562956287e-01 1.527487594126726e-03 1.063070136415192e-01 -1.428970667584661e-02 -2.007848673920474e-02 -3.936151713700471e-01 -1.254903274392561e-01 -4.451933477400353e-02
            -1.255329453273641e-01 -4.437258642050693e-02 -2.012826605698853e-02 -3.935644688282914e-01 1.049251586651639e-01 -1.093613753531476e-02 1.085163996323921e-01 -1.970588531037234e-02
            -2.009929320168637e-02 -3.936246525238200e-01 -1.255126965828850e-01 -4.446738488812146e-02 1.085634456255594e-01 -1.977633546415958e-02 1.049016471230086e-01 -1.088863838495018e-02
785215000.0000000000 9.438735873997392e-02 -2.298495357281276e-02 8.902013154558032e-02 -6.358299274367554e-03 -1.352074143620492e-01 9.491669310409479e-04 -1.540513769189969e-01 -3.630952376096034e-01
            8.908634914799006e-02 -6.335215726163805e-03 9.445043878718341e-02 -2.295386368253572e-02 -1.540475269237855e-01 -3.631069332630386e-01 -1.351606523529535e-01 8.998533271733090e-04
            -1.352015699434229e-01 8.892114037061556e-04 -1.539671695655234e-01 -3.632116500951694e-01 9.292831501150493e-02 -1.743237300447970e-02 9.617884723870322e-02 -2.613531769674977e-02
            -1.540402712383915e-01 -3.630831054937425e-01 -1.351845320355695e-01 9.272297516860007e-04 9.617583399982044e-02 -2.625532617219301e-02 9.301551128664308e-02 -1.738620419382653e-02
786047500.0000000000 8.013165422655132e-02 -2.207198712046727e-02 7.525895041728842e-02 -4.573115079571135e-03 -1.292563099365810e-01 4.819580408344792e-02 -2.699531895570183e-01 -2.877931657990113e-01
            7.525944978757142e-02 -4.598988347919943e-03 8.013602907720249e-02 -2.199821857392426e-02 -2.700141102332621e-01 -2.878282816831598e-01 -1.292308517518946e-01 4.806279604462269e-02
            -1.292112551318238e-01 4.819375698373522e-02 -2.699881184862120e-01 -2.877635748689124e-01 7.908613397825516e-02 -1.496514528646535e-02 8.290479415901950e-02 -2.307482282283627e-02
            -2.700471480086186e-01 -2.877971992279861e-01 -1.292611727985052e-01 4.817736802762642e-02 8.290172400702391e-02 -2.302316551755106e-02 7.902415923085084e-02 -1.494441097842901e-02
786880000.0000000000 7.049271947108456e-02 -1.232988752176552e-02 6.570225996749487e-02 6.247032072584087e-03 -1.067794734947386e-01 9.215933571156971e-02 -3.526262710090455e-01 -1.762075024847697e-01
            6.569060914550653e-02 6.195587517830952e-03 7.048227415179438e-02 -1.241913542222666e-02 -3.526827488549391e-01 -1.762057812728325e-01 -1.067299362612038e-01 9.211827892691174e-02
            -1.067624945898364e-01 9.216331523158626e-02 -3.527163929412439e-01 -1.762787303160140e-01 6.955401688112182e-02 -4.395557966468938e-03 7.535008519842824e-02 -1.185881637895773e-02
            -3.526027973929677e-01 -1.762794399638117e-01 -1.067613236641647e-01 9.215536493058213e-02 7.529680897734989e-02 -1.189364294899777e-02 6.950843617663142e-02 -4.350072813064492e-03
787712500.0000000000 7.028990855654554e-02 6.800272356162473e-04 6.545153215066803e-02 2.143213462513828e-02 -6.864374817552389e-02 1.262731746466572e-01 -3.905873862295536e-01 -4.295399473355559e-02
            6.539103929579863e-02 2.144702846471771e-02 7.033004097613418e-02 6.970409882129783e-04 -3.905543087928817e-01 -4.294230844953720e-02 -6.867629261547430e-02 1.262361107365414e-01
            -6.874084848577504e-02 1.262919202243043e-01 -3.906141360724683e-01 -4.293279418278944e-02 6.849770257479842e-02 9.647087221823520e-03 7.764045304604131e-02 1.662529683132072e-03
            -3.906621934143518e-01 -4.302238766220468e-02 -6.874891823839269e-02 1.263249339309901e-01 7.762688764728161e-02 1.617051455811882e-03 6.846418335470285e-02 9.594576706215224e-03
788545000.0000000000 7.918880280119704e-02 9.636862666962934e-03 7.496397529157367e-02 3.394999880706682e-02 -1.964892312232946e-02 1.444198994023199e-01 -3.795196325031134e-01 9.405282157711146e-02
            7.499061071433159e-02 3.395143178246842e-02 7.919227703680146e-02 9.593454092613937e-03 -3.795152305017739e-01 9.408506967237165e-02 -1.962386812779347e-02 1.444577596285074e-01
            -1.967224132714203e-02 1.444459636712000e-01 -3.794792498868654e-01 9.416314743363415e-02 7.587535563416067e-02 2.054037914677344e-02 8.915589669494753e-02 1.019600288789231e-02
            -3.795001256519933e-01 9.411879644024626e-02 -1.963722753256829e-02 1.444622115351572e-01 8.915178297803145e-02 1.013041130912141e-02 7.582433128684793e-02 2.052922105513977e-02
789377500.0000000000 9.199602003025359e-02 9.318881132348909e-03 9.013578327892653e-02 3.844873408289826e-02 3.295244689665017e-02 1.432924057184863e-01 -3.224073624181791e-01 2.175230921255670e-01
            9.014781993708053e-02 3.836187229124831e-02 9.198254950139451e-02 9.283348107893812e-03 -3.223773328073298e-01 2.173938857120254e-01 3.289434169745160e-02 1.433003404396190e-01
            3.297354719254338e-02 1.432883193303090e-01 -3.224001026501576e-01 2.174940952533962e-01 8.725464734144295e-02 2.407552186861850e-02 1.043440949383256e-01 8.576959685053575e-03
            -3.224048934792011e-01 2.174818744985848e-01 3.286903778113493e-02 1.433783016904321e-01 1.042979206135521e-01 8.556301837716832e-03 8.717956916592064e-02 2.406348342515216e-02
790210000.0000000000 1.013987084955507e-01 -5.408605834037082e-04 1.045000222635946e-01 3.346431372577024e-02 8.126061289628429e-02 1.233928942726592e-01 -2.277014650291062e-01 3.131029153273812e-01
            1.045139073670815e-01 3.341800116836919e-02 1.013753251667482e-01 -4.952379437246139e-04 -2.277713283541172e-01 3.131867415470390e-01 8.123844689411162e-02 1.234106187053493e-01
            8.134309877438851e-02 1.234470372309342e-01 -2.276483899959550e-01 3.131536043390579e-01 9.679897567020704e-02 1.991609549913643e-02 1.160671899636656e-01 -3.195018553401513e-03
            -2.275840997092901e-01 3.131605400095640e-01 8.125263641210553e-02 1.234598692259904e-01 1.160914774430974e-01 -3.187197517194126e-03 9.673304834953600e-02 1.987538140746679e-02
791042500.0000000000 1.018555523726323e-01 -1.553593903255342e-02 1.130882331028252e-01 2.200358869287716e-02 1.194128077998921e-01 8.840216433379948e-02 -1.070045007741904e-01 3.710867079589983e-01
            1.130520864730545e-01 2.195421393884061e-02 1.019239397586204e-01 -1.552375276040438e-02 -1.069692531567519e-01 3.710266336144050e-01 1.194154246779222e-01 8.840928742490257e-02
            1.194363433094990e-01 8.851273886138734e-02 -1.069878642951937e-01 3.710747049148393e-01 9.998424312687226e-02 1.160736059830363e-02 1.186136248311081e-01 -2.085858580252840e-02
            -1.069919498797037e-01 3.710543821310935e-01 1.194599426370448e-01 8.833878712652107e-02 1.186704663179215e-01 -2.087861170513259e-02 9.997240251423503e-02 1.157231778354552e-02
791875000.0000000000 9.157532599214900e-02 -2.888918006232800e-02 1.133603409825771e-01 9.500729255144714e-03 1.436525676622078e-01 4.302869997574957e-02 2.623792105718160e-02 3.850398123929059e-01
            1.133796729604872e-01 9.567580025167596e-03 9.164564833745127e-02 -2.887002023988692e-02 2.630752417392138e-02 3.850749488565114e-01 1.436929554121780e-01 4.298457442192712e-02
            1.437059060979487e-01 4.287784575602447e-02 2.612397066300052e-02 3.850213949832998e-01 9.601500421431391e-02 4.388045339929371e-03 1.102077268320493e-01 -3.787495651951773e-02
            2.618363045224143e-02 3.850464517286615e-01 1.436413347049864e-01 4.292827237881883e-02 1.102254601864611e-01 -3.773919464612530e-02 9.595227988869497e-02 4.428571614722787e-03
792707500.0000000000 7.387358062825819e-02 -3.362304041392075e-02 1.072203445773254e-01 1.138050264202897e-03 1.519144112722717e-01 -8.511389105462536e-03 1.568042797075542e-01 3.527733925563247e-01
            1.071744744768796e-01 1.136742696220488e-03 7.388503954052696e-02 -3.372820105767850e-02 1.568712157460540e-01 3.527305690863974e-01 1.519431667095135e-01 -8.510469735921778e-03
            1.519680841057112e-01 -8.450977259041681e-03 1.568347361365146e-01 3.527704907154068e-01 8.743570368024821e-02 3.327276752313499e-03 9.325058949928082e-02 -4.735427824406961e-02
            1.568444149745785e-01 3.527441014239750e-01 1.519656174535650e-01 -8.574132965855585e-03 9.328351789484277e-02 -4.721800685487439e-02 8.756756797275828e-02 3.265056630564577e-03
793540000.0000000000 5.528253356213898e-02 -2.658820774289097e-02 9.908490329156409e-02 -1.504385246737315e-04 1.425562367157559e-01 -6.120264164933362e-02 2.688773874713467e-01 2.767805474443315e-01
            9.913532581882162e-02 -1.333043035284133e-04 5.527315744871242e-02 -2.670665009857676e-02 2.690110079826813e-01 2.768451938601740e-01 1.426189286319913e-01 -6.124061516659372e-02
            1.426226564970871e-01 -6.117475808849438e-02 2.689267715830649e-01 2.768567983291578e-01 8.002466558887548e-02 1.011577288172825e-02 7.406518304070450e-02 -4.587050889046786e-02
            2.689357060840689e-01 2.768435164300164e-01 1.424914640302614e-01 -6.126031750821040e-02 7.407210668857502e-02 -4.582170511648762e-02 8.002059594083702e-02 1.010319820057548e-02
794372500.0000000000 4.360762485612276e-02 -9.551199286242150e-03 9.483004741003979e-02 4.552203402525315e-03 1.147192304941103e-01 -1.090862256991246e-01 3.473888795423524e-01 1.662576641469067e-01
            9.478736838146896e-02 4.654335849541042e-03 4.355336595152413e-02 -9.575726404003761e-03 3.473930980666312e-01 1.662421836268398e-01 1.146650777744836e-01 -1.091801762007134e-01
            1.146934742852706e-01 -1.091790554147096e-01 3.473887765503725e-01 1.662615783751667e-01 7.927435804381830e-02 2.251534287881721e-02 5.988615105109720e-02 -3.455978698138876e-02
            3.474222461864013e-01 1.662247477836554e-01 1.147379149614054e-01 -1.090911582743021e-01 5.992853162047124e-02 -3.449092522393597e-02 7.926117024812912e-02 2.243280976297561e-02
795205000.0000000000 4.388219337327739e-02 1.129442623271215e-02 9.729593941279994e-02 1.076665888566017e-02 7.023576133776221e-02 -1.450747987400935e-01 3.819797893325112e-01 3.562855847447411e-02
            9.735377940821821e-02 1.074266405850854e-02 4.380295561958564e-02 1.121930416178734e-02 3.819061830398076e-01 3.564913800396204e-02 7.022993921306221e-02 -1.450274191328962e-01
            7.017727331211848e-02 -1.449918627710985e-01 3.819523491927235e-01 3.558898903963437e-02 8.785197291695623e-02 3.439003431561709e-02 5.518614559415264e-02 -1.883723947194702e-02
            3.818413671368058e-01 3.559273492056762e-02 7.018812861915430e-02 -1.450038163711052e-01 5.518739937127253e-02 -1.877191912533993e-02 8.787586096381789e-02 3.444984128195101e-02
796037500.0000000000 5.549891495558548e-02 2.762410654996086e-02 1.056780975193675e-01 1.254880751517119e-02 1.453808727294250e-02 -1.625080551960421e-01 3.688164823110804e-01 -9.756791699607385e-02
            1.056119434354322e-01 1.255765669864954e-02 5.545137251823996e-02 2.760312636615125e-02 3.688166052458275e-01 -9.754512905895887e-02 1.457542465703368e-02 -1.625101552975030e-01
            1.456503262357659e-02 -1.624618100292996e-01 3.687840131014731e-01 -9.764005792125151e-02 1.038768799977045e-01 3.941319791918992e-02 6.013232738842745e-02 -5.737323501345145e-03
            3.687974276077119e-01 -9.758221706341245e-02 1.454451531790727e-02 -1.624989049337350e-01 6.003258156447511e-02 -5.729557557974870e-03 1.038056237967597e-01 3.934318919286766e-02
796870000.0000000000 7.309955075012582e-02 3.376586566119830e-02 1.149793167169570e-01 6.821945589039203e-03 -4.393896287677997e-02 -1.584220489602310e-01 3.112835806527954e-01 -2.168146176835268e-01
            1.149652389674311e-01 6.847500685157300e-03 7.303223948809399e-02 3.390591920985968e-02 3.113261530402108e-01 -2.167921172546225e-01 -4.393545402016407e-02 -1.584810417297716e-01
            -4.389057732961117e-02 -1.583905619687395e-01 3.113116908338606e-01 -2.167406736633120e-01 1.211048975167689e-01 3.385196315647037e-02 6.990203785319538e-02 -1.545402072760312e-04
            3.113111275436709e-01 -2.168064418937771e-01 -4.393982408763722e-02 -1.585261890993190e-01 6.981368673196774e-02 -1.188640538439423e-04 1.210696843404184e-01 3.387598905945276e-02
797702500.0000000000 8.919239474718915e-02 2.896756427151918e-02 1.196282602138068e-01 -5.555335490404966e-03 -9.684994325551032e-02 -1.339878621206337e-01 2.178990163972946e-01 -3.087084178840087e-01
            1.196223747479332e-01 -5.527720412758237e-03 8.918910822915248e-02 2.901154082457397e-02 2.178986525980462e-01 -3.086785305191891e-01 -9.685917871634454e-02 -1.339846876460121e-01
            -9.685605014439572e-02 -1.339205403279995e-01 2.178987995111485e-01 -3.086999092928473e-01 1.327667418886191e-01 1.892409866735375e-02 7.858853764305240e-02 -2.630993064048695e-03
            2.179396836999816e-01 -3.086922635203562e-01 -9.686324950812893e-02 -1.339253385092308e-01 7.856609775925234e-02 -2.700401789975470e-03 1.327446131189494e-01 1.895233673190280e-02
798535000.0000000000 9.768854738950143e-02 1.698776363396353e-02 1.158922496537458e-01 -2.005484204518162e-02 -1.378893061537440e-01 -9.304319946275820e-02 9.953830857584554e-02 -3.637696337755790e-01
            1.158188105915350e-01 -2.001459944648713e-02 9.762350475054675e-02 1.696721528573053e-02 9.950936568768853e-02 -3.637352215904476e-01 -1.378145649887689e-01 -9.301833865580825e-02
            -1.379484857459673e-01 -9.306814623960315e-02 9.954326333333509e-02 -3.638043550673510e-01 1.340335545574459e-01 4.734708317598936e-05 8.133826310677371e-02 -9.857904050635864e-03
            9.950565222672084e-02 -3.637294009734590e-01 -1.378032742780025e-01 -9.301054059299958e-02 8.140180331389332e-02 -9.943050297066753e-03 1.341235958084568e-01 3.309800993036161e-05
799367500.0000000000 9.633672446564377e-02 4.159823883557451e-03 1.036503085337156e-01 -3.071539433057909e-02 -1.628399442653984e-01 -4.073986631249450e-02 -3.081626277045905e-02 -3.758107654200555e-01
            1.037437262097202e-01 -3.076168355905236e-02 9.640141258388894e-02 4.170880773805433e-03 -3.079803332295195e-02 -3.757947059900535e-01 -1.627868650195286e-01 -4.077506128665736e-02
            -1.628566925186637e-01 -4.078358844105957e-02 -3.073156157612349e-02 -3.757684253813681e-01 1.248294146050958e-01 -1.583545357862956e-02 7.691431119748857e-02 -1.661190066749190e-02
            -3.070769954976912e-02 -3.757260759121155e-01 -1.628536657517648e-01 -4.075949537329621e-02 7.687298648098287e-02 -1.661219528802051e-02 1.247907399909216e-01 -1.586851902197672e-02
800200000.0000000000 8.744269023866511e-02 -2.997528507853942e-03 8.725095621591562e-02 -3.279016824331701e-02 -1.691784906969559e-01 1.748450666859661e-02 -1.581609268745626e-01 -3.424480403406359e-01
            8.709412119493923e-02 -3.285670874115822e-02 8.736811993381374e-02 -2.960072891711839e-03 -1.582052624074530e-01 -3.424600020766540e-01 -1.692322937520714e-01 1.748898340111711e-02
            -1.692693603886672e-01 1.755178899899273e-02 -1.581681404817277e-01 -3.424836733573975e-01 1.088295697071480e-01 -2.309841762926355e-02 6.763785800606696e-02 -1.779350779231745e-02
            -1.581689746275032e-01 -3.424661985681804e-01 -1.691952996673452e-01 1.745512419140300e-02 6.756759371463886e-02 -1.774457962702443e-02 1.088399506355526e-01 -2.313351168379430e-02
801032500.0000000000 7.651868945135198e-02 -1.156337280620828e-03 7.233378792770771e-02 -2.489861704090749e-02 -1.554617780162292e-01 7.586179533183654e-02 -2.666550438184507e-01 -2.666185789256781e-01
            7.238789879921170e-02 -2.486852657662992e-02 7.650474216521153e-02 -1.257039929590649e-03 -2.667031740755761e-01 -2.666892504758995e-01 -1.554171387075992e-01 7.591124583544948e-02
            -1.554780627835425e-01 7.585023190533276e-02 -2.666978038891518e-01 -2.666614908003331e-01 9.298445797502719e-02 -1.929125012111612e-02 5.869464150217528e-02 -1.137160181742206e-02
            -2.667432558237681e-01 -2.666782474611616e-01 -1.555071202551489e-01 7.589315141271023e-02 5.867287124355983e-02 -1.134069241961015e-02 9.299792618697034e-02 -1.919622016043849e-02
801865000.0000000000 7.036341868847229e-02 8.367340251776963e-03 6.548773164191403e-02 -1.010367758034871e-02 -1.213056174204670e-01 1.273505814287672e-01 -3.418918460395629e-01 -1.572903955755220e-01
            6.543810062528339e-02 -1.007362078095621e-02 7.044261225452914e-02 8.328803681160154e-03 -3.418283695728174e-01 -1.573112461478564e-01 -1.212775287640162e-01 1.274748070497962e-01
            -1.212801111370566e-01 1.273706531614557e-01 -3.418855012363965e-01 -1.572640390680320e-01 8.409707014844847e-02 -7.109093484655341e-03 5.559928097020554e-02 6.257916075484032e-04
            -3.417994382674122e-01 -1.573472011407208e-01 -1.212322256837869e-01 1.274120765108924e-01 5.567110790887334e-02 7.259746157589640e-04 8.408138176628395e-02 -7.157249522484319e-03
802697500.0000000000 7.304090880321196e-02 2.016950928108374e-02 6.913401862087173e-02 4.951183833957185e-03 -6.970843129998822e-02 1.642663559068777e-01 -3.735015527677056e-01 -2.916721496225249e-02
            6.909773192994385e-02 5.007160434016725e-03 7.303562877823443e-02 2.010849398551690e-02 -3.734413137443705e-01 -2.918199641832860e-02 -6.972378906815524e-02 1.641938800159112e-01
            -6.966598250889534e-02 1.642335506509048e-01 -3.734891264372398e-01 -2.914876042309111e-02 8.572729202396157e-02 6.596956876482924e-03 6.109521193625052e-02 1.288596830004471e-02
            -3.734533409703497e-01 -2.911462985144309e-02 -6.976904593965290e-02 1.641691673492011e-01 6.104563606731415e-02 1.277451224214770e-02 8.573837284151510e-02 6.582324743443461e-03
803530000.0000000000 8.362596765635116e-02 2.760642132782563e-02 8.093772133534755e-02 1.369206249132230e-02 -7.444891475731257e-03 1.798981873597771e-01 -3.586155222613897e-01 1.007020814447886e-01
            8.092530243544659e-02 1.365894923369116e-02 8.370720567224650e-02 2.759511627236818e-02 -3.586431589793685e-01 1.006843081431867e-01 -7.474632693036315e-03 1.798667077555222e-01
            -7.419431525578080e-03 1.799084244005163e-01 -3.586234334344393e-01 1.007496615661109e-01 9.600118790398057e-02 1.485984829380584e-02 7.322706357070022e-02 1.920855360728790e-02
            -3.586697475484826e-01 1.007761576521855e-01 -7.412791392713966e-03 1.798927645291180e-01 7.311595834569902e-02 1.915949253515339e-02 9.598501308054028e-02 1.492982572133435e-02
804362500.0000000000 9.706231822332105e-02 2.656787103522133e-02 9.494060487489359e-02 1.232627314826247e-02 5.634226867833150e-02 1.719795483006952e-01 -3.007509164154368e-01 2.161971092584914e-01
            9.483397136825437e-02 1.234576168338979e-02 9.707507683438049e-02 2.657278258156080e-02 -3.008344124955890e-01 2.162200028351694e-01 5.624514747543218e-02 1.719531472418674e-01
            5.632081180792994e-02 1.719398531820547e-01 -3.008592532537283e-01 2.163043700591029e-01 1.090461521218304e-01 1.363604771437235e-02 8.647242502284318e-02 1.673390067105457e-02
            -3.008482560894226e-01 2.162680980874136e-01 5.636013731112467e-02 1.720268801855953e-01 8.656660586559167e-02 1.676973590749204e-02 1.090156079139529e-01 1.362541061617521e-02
805195000.0000000000 1.071824263453276e-01 1.734991593933555e-02 1.040912501487116e-01 2.343526426394650e-03 1.128523288982323e-01 1.423071553666946e-01 -2.081686168768532e-01 3.047002757292963e-01
            1.040722107799979e-01 2.302308543048551e-03 1.070555591730833e-01 1.729242210194925e-02 -2.081873733292285e-01 3.047143782893875e-01 1.128724543818413e-01 1.423692559590163e-01
            1.127385977595439e-01 1.423454681142500e-01 -2.082107309294287e-01 3.046760979594700e-01 1.180417896785684e-01 3.787424139966366e-03 9.515358703417721e-02 6.825779361135566e-03
            -2.081764222311787e-01 3.046715122995518e-01 1.128245790760366e-01 1.423754851424975e-01 9.516842622599188e-02 6.841218031489015e-03 1.180481221210922e-01 3.713692159634957e-03
806027500.0000000000 1.091692320455466e-01 3.943920479966776e-03 1.044200073914768e-01 -1.106465806058861e-02 1.554921138286226e-01 9.545887838886362e-02 -9.162268926285484e-02 3.567476262935470e-01
            1.044493782028969e-01 -1.111374319550393e-02 1.091984908105667e-01 3.854444922647029e-03 -9.156010507558034e-02 3.567512139144657e-01 1.554569344480937e-01 9.555956659614114e-02
            1.555305033816333e-01 9.557269004017271e-02 -9.161718568191107e-02 3.566910870539164e-01 1.184284888052508e-01 -1.008723507519526e-02 9.557612685779950e-02 -6.036796378025141e-03
            -9.162416549844256e-02 3.567123540923040e-01 1.554868139953476e-01 9.553508796482632e-02 9.556808394388229e-02 -6.008089018786579e-03 1.184085468127220e-01 -1.007824204735312e-02
806860000.0000000000 1.026383895717817e-01 -7.694910736506069e-03 9.581313917241152e-02 -2.167138672821252e-02 1.802035140118151e-01 3.722347669576472e-02 3.600967307585961e-02 3.664541294150666e-01
            9.578408115222324e-02 -2.159920952854891e-02 1.025995555804594e-01 -7.547477675614372e-03 3.604585491844738e-02 3.664749099313152e-01 1.802110467338839e-01 3.726744768585476e-02
            1.802496253826075e-01 3.725744642048824e-02 3.606609652899584e-02 3.663908007184115e-01 1.097041132788847e-01 -2.142389332263561e-02 8.765564479336255e-02 -1.589294621727433e-02
            3.602046976175278e-02 3.664266190104286e-01 1.801963546789985e-01 3.722830346856817e-02 8.750263656936140e-02 -1.586704703158063e-02 1.096589719665125e-01 -2.146146813184039e-02
807692500.0000000000 9.035592834409227e-02 -1.202798791472150e-02 8.217483018429898e-02 -2.433693324963157e-02 1.843934364706262e-01 -2.676036518774040e-02 1.599312098289982e-01 3.316686567777924e-01
            8.214383579588302e-02 -2.433017814040460e-02 9.038938608974231e-02 -1.209313930747777e-02 1.600647936142228e-01 3.315889534396859e-01 1.843933724317331e-01 -2.677415584883686e-02
            1.843223684060667e-01 -2.665370941246528e-02 1.600301658574314e-01 3.316537765448032e-01 9.546350764875618e-02 -2.488293617565520e-02 7.497340605443591e-02 -1.803421856866964e-02
            1.600379156586166e-01 3.316291591030958e-01 1.842995599396479e-01 -2.670598468204062e-02 7.503578873589327e-02 -1.811995488052592e-02 9.550130369189906e-02 -2.487271435827692e-02
808525000.0000000000 7.846679805544281e-02 -7.388998235774860e-03 6.985193001200013e-02 -1.741252203175123e-02 1.664897656853259e-01 -8.982141635687176e-02 2.646017068919979e-01 2.554684369240901e-01
            6.983388068251514e-02 -1.736613027473952e-02 7.859805018152735e-02 -7.355946153057407e-03 2.646057051786097e-01 2.555344594593428e-01 1.663651992789707e-01 -8.983371633537768e-02
            1.664918122672952e-01 -8.981849044666775e-02 2.646557567258003e-01 2.555139640125768e-01 8.237122286921207e-02 -1.854484395431883e-02 6.403496202214216e-02 -1.142344180834126e-02
            2.645999582278142e-01 2.555691719185254e-01 1.664471494154137e-01 -8.981311573916044e-02 6.406310066412037e-02 -1.133332522456434e-02 8.241959591745460e-02 -1.859604737231786e-02
809357500.0000000000 7.301673582585298e-02 4.000182344579122e-03 6.500482244105518e-02 -4.232370851514874e-03 1.267598651857482e-01 -1.442557218702397e-01 3.358323454656492e-01 1.474264960716731e-01
            6.495522597101619e-02 -4.200430183428557e-03 7.299566775490608e-02 3.973755243969338e-03 3.357203433106246e-01 1.475297207704392e-01 1.267716821729684e-01 -1.442081850113709e-01
            1.267199306474828e-01 -1.442925470592221e-01 3.358146399775269e-01 1.474425121720973e-01 7.648163805926947e-02 -5.621033282482814e-03 6.002123384031217e-02 1.127308746079246e-03
            3.357726683420803e-01 1.474436289167174e-01 1.267531572576214e-01 -1.441928002573457e-01 6.003374603612888e-02 1.136886617601353e-03 7.641739225893354e-02 -5.630098201132523e-03
810190000.0000000000 7.664271310849093e-02 1.616588125786784e-02 6.982533191382284e-02 8.748065396266916e-03 6.903306442631370e-02 -1.816348678973907e-01 3.642272985421942e-01 2.205334050614228e-02
            6.989894783190446e-02 8.763483405459755e-03 7.657090826512308e-02 1.608962699259403e-02 3.641180799571963e-01 2.200340416247767e-02 6.892169337952449e-02 -1.816275546687703e-01
            6.902088032780623e-02 -1.816784156986192e-01 3.641951587907140e-01 2.210382603083812e-02 8.045022275506093e-02 7.821572259280738e-03 6.538063456523491e-02 1.338910027093872e-02
            3.641987568108748e-01 2.209691824952802e-02 6.894192015973803e-02 -1.816576654481324e-01 6.533300331964634e-02 1.333669840456145e-02 8.041513776432638e-02 7.755097144988780e-03
811022500.0000000000 8.759712078371869e-02 2.275431134905271e-02 8.182609562807495e-02 1.525421863179407e-02 8.927420968357257e-04 -1.957927286858960e-01 3.474249216662664e-01 -1.038600456464913e-01
            8.181854973973592e-02 1.525701950018860e-02 8.748830808055322e-02 2.275390001677129e-02 3.474068620157389e-01 -1.039439221249536e-01 8.683586301612694e-04 -1.958394276801986e-01
            8.640184698263338e-04 -1.958565534309676e-01 3.474149255079397e-01 -1.039831727920190e-01 9.191771586882284e-02 1.501121781563086e-02 7.732637537583247e-02 1.915946829648785e-02
            3.473810669170256e-01 -1.039508892764920e-01 8.406003703222622e-04 -1.959056857681743e-01 7.735332610644523e-02 1.908516026185775e-02 9.195123319086988e-02 1.495480621947423e-02
811855000.0000000000 1.002677615619339e-01 2.061756886596073e-02 9.485652108280647e-02 1.222929857555187e-02 -6.783353382896465e-02 -1.846796801976038e-01 2.892239404462560e-01 -2.153685533237839e-01
            9.481895164984253e-02 1.225587027672861e-02 1.001715288110596e-01 2.064530464994762e-02 2.891910093703259e-01 -2.154238360347256e-01 -6.784302821116957e-02 -1.847334306866767e-01
            -6.780288508715418e-02 -1.846996971530403e-01 2.892587698316837e-01 -2.153776254136377e-01 1.049863588367770e-01 1.262905860284417e-02 9.000282790971197e-02 1.583699432726205e-02
            2.891478633843574e-01 -2.153471362880055e-01 -6.778639407957901e-02 -1.847158028123934e-01 8.993341387286341e-02 1.589415250783082e-02 1.050326059007196e-01 1.257196594721917e-02
812687500.0000000000 1.085380115988851e-01 1.090614880891589e-02 1.025943244508315e-01 1.440440251760843e-03 -1.277860789064117e-01 -1.504395990029125e-01 1.976285087862262e-01 -2.998984093360487e-01
            1.025799086732601e-01 1.501825940941114e-03 1.085425095525708e-01 1.087999922579577e-02 1.976598717162434e-01 -2.998960488781234e-01 -1.278892687852433e-01 -1.504306360448486e-01
            -1.278090128512535e-01 -1.503942593081753e-01 1.976366224021283e-01 -2.999187394495567e-01 1.132221548865874e-01 2.291162388086415e-03 9.735773682087420e-02 5.363593045898444e-03
            1.975894668414237e-01 -2.998964343011287e-01 -1.278596194438120e-01 -1.504095775409237e-01 9.733788733918999e-02 5.351219753317477e-03 1.132566043561273e-01 2.268272401910943e-03
813520000.0000000000 1.088327265302631e-01 -1.954189521984362e-03 1.015425203306756e-01 -1.175883548747781e-02 -1.724428416779956e-01 -9.806608832420022e-02 8.321475398551846e-02 -3.486991265699013e-01
            1.015719846411654e-01 -1.177560639742854e-02 1.087187055216173e-01 -1.948379839048569e-03 8.319252912919797e-02 -3.487463234517079e-01 -1.724200933800077e-01 -9.814460963751891e-02
            -1.723561357516726e-01 -9.815183055800279e-02 8.318293521559844e-02 -3.486934386644839e-01 1.125709652902370e-01 -1.108596632706780e-02 9.622709549793292e-02 -7.402254201887891e-03
            8.314283340906084e-02 -3.486598825962094e-01 -1.725030344662340e-01 -9.812512274318126e-02 9.620938606436162e-02 -7.368700948839963e-03 1.126229738008233e-01 -1.099876308728383e-02
814352500.0000000000 1.007376755048586e-01 -1.171711363879306e-02 9.204232942997849e-02 -2.123132101102223e-02 -1.971267973001316e-01 -3.387477569232229e-02 -4.134095141025183e-02 -3.559517481010533e-01
            9.193941199330118e-02 -2.125756584466124e-02 1.009398302300079e-01 -1.171352167324685e-02 -4.140161449294961e-02 -3.559002646519288e-01 -1.971325187012700e-01 -3.386844542341110e-02
            -1.971462404978277e-01 -3.386589812878662e-02 -4.132537052923583e-02 -3.559762329218927e-01 1.035150419787325e-01 -2.120513884976901e-02 8.704175899088913e-02 -1.618648138325647e-02
            -4.136902205874128e-02 -3.559464576468612e-01 -1.971211433799004e-01 -3.390978936168421e-02 8.693945441143107e-02 -1.626788654746938e-02 1.035223851095217e-01 -2.118183008798181e-02
815185000.0000000000 8.861010531925149e-02 -1.412927944103503e-02 7.844851176207575e-02 -2.235501530949201e-02 -1.992123770225140e-01 3.592328912052134e-02 -1.614582409293251e-01 -3.196733955392264e-01
            7.847187060240404e-02 -2.234762909223880e-02 8.844365142611968e-02 -1.413233535543566e-02 -1.614175870002151e-01 -3.197521952667152e-01 -1.992236022578537e-01 3.584495817509894e-02
            -1.991429530224170e-01 3.592647806679810e-02 -1.614816629922571e-01 -3.196948549482337e-01 8.981714622985679e-02 -2.308563186873621e-02 7.418252470692620e-02 -1.683292537248111e-02
            -1.614451673980907e-01 -3.196557919727077e-01 -1.992046891943378e-01 3.579919265949878e-02 7.415783276317650e-02 -1.687446974851110e-02 8.980305313203121e-02 -2.308614104506496e-02
816017500.0000000000 7.785615589414686e-02 -7.712227746934706e-03 6.729274686459513e-02 -1.441966165735111e-02 -1.770824100715782e-01 1.036342947122758e-01 -2.617480529019480e-01 -2.436084667602825e-01
            6.722992713573395e-02 -1.440887805695355e-02 7.786671123987406e-02 -7.744927511165053e-03 -2.617314835855455e-01 -2.435599308343812e-01 -1.770778850871675e-01 1.037396821222935e-01
            -1.771216271699172e-01 1.036403249309675e-01 -2.616315099788698e-01 -2.436090889975351e-01 7.793661991169833e-02 -1.566647868581051e-02 6.385798769656530e-02 -8.746563528760487e-03
            -2.617420987294321e-01 -2.435468311015224e-01 -1.771348603190713e-01 1.037048894167761e-01 6.384258380691325e-02 -8.691577014931267e-03 7.801708239646053e-02 -1.568453172039561e-02
816850000.0000000000 7.424544125572381e-02 4.073888534674071e-03 6.393333102361487e-02 -1.155040369930095e-03 -1.317401543722772e-01 1.608879926236847e-01 -3.286935696512810e-01 -1.372140374798848e-01
            6.392140886151712e-02 -1.084047973022654e-03 7.428763188263077e-02 4.106432662835857e-03 -3.286425590884568e-01 -1.371565277806804e-01 -1.317548180690226e-01 1.608268629732921e-01
            -1.316723475357816e-01 1.609177657298513e-01 -3.287536927055342e-01 -1.371824204050812e-01 7.364441700210678e-02 -2.455686794088357e-03 6.133951603917466e-02 4.427790074209048e-03
            -3.286263030370990e-01 -1.371631743478755e-01 -1.317740310851692e-01 1.608399783071876e-01 6.134008982759825e-02 4.387495121374868e-03 7.367510944284246e-02 -2.460727979933690e-03
817682500.0000000000 7.967168151520174e-02 1.519766415053118e-02 7.014413551741124e-02 1.097927476839784e-02 -6.777555619966708e-02 1.988167495149939e-01 -3.536834142355478e-01 -1.496518715178782e-02
            7.006281839014984e-02 1.094990540338261e-02 7.957884983197880e-02 1.531877363851601e-02 -3.537527832560871e-01 -1.497810075760558e-02 -6.779209945610178e-02 1.987996615629858e-01
            -6.789463531051804e-02 1.988134638658045e-01 -3.537690973572371e-01 -1.498674431432071e-02 7.894180679554373e-02 1.014427299743503e-02 6.808929855518712e-02 1.605544504003171e-02
            -3.537021465933952e-01 -1.502565908750302e-02 -6.777243621535479e-02 1.988089061396532e-01 6.802842546772805e-02 1.609441707048342e-02 7.894388599682421e-02 1.015229170696476e-02
818515000.0000000000 9.110180661366524e-02 2.001430362546010e-02 8.241820496227549e-02 1.581690329293781e-02 6.075515263794719e-03 2.113614325273946e-01 -3.350884364313756e-01 1.067760640682913e-01
            8.246577870708058e-02 1.584958329091651e-02 9.106116777085950e-02 2.007476564010712e-02 -3.351899441983861e-01 1.068561637017975e-01 6.052382853776517e-03 2.113031523207653e-01
            6.112913435790242e-03 2.113754402637179e-01 -3.351855826394943e-01 1.067533328064462e-01 9.090598364228440e-02 1.611494962520206e-02 8.078654807880915e-02 2.057931256920463e-02
            -3.351301398361062e-01 1.067710202227354e-01 6.054579770754849e-03 2.112970469728963e-01 8.081011039821304e-02 2.051220925639619e-02 9.091343500352549e-02 1.601838688218870e-02
819347500.0000000000 1.029366507199872e-01 1.599391632811985e-02 9.474440571753437e-02 1.145487593310337e-02 7.941282815404417e-02 1.968085748003928e-01 -2.768288194596617e-01 2.137450033072608e-01
            9.469511176570619e-02 1.143613786593482e-02 1.029512976385235e-01 1.591241570909822e-02 -2.768819838429239e-01 2.137597343148309e-01 7.941962933959328e-02 1.967638850784113e-01
            7.940782542286914e-02 1.967953661282862e-01 -2.768096923237398e-01 2.137063078677969e-01 1.034407311035628e-01 1.278434361587750e-02 9.316208647117256e-02 1.582745363271276e-02
            -2.768580725091250e-01 2.137452266012609e-01 7.937835838749327e-02 1.967437999140756e-01 9.323345796644820e-02 1.588406164557703e-02 1.033746864107325e-01 1.280674602836268e-02
820180000.0000000000 1.094748252886718e-01 5.100807973604974e-03 1.010551193315555e-01 1.297935122584511e-04 1.427576204950419e-01 1.578872259167391e-01 -1.866375207922683e-01 2.942791772515350e-01
            1.010121995913142e-01 1.234758879396162e-04 1.094094400834136e-01 5.004240706712845e-03 -1.865397007163249e-01 2.942440299754658e-01 1.426500267848962e-01 1.579158537972861e-01
            1.427560967786317e-01 1.579635416267421e-01 -1.866514178473299e-01 2.942196749844487e-01 1.106665773501070e-01 2.296396037442390e-03 9.967144048405743e-02 4.425480130003268e-03
            -1.866724627248983e-01 2.942263370857746e-01 1.427598525198653e-01 1.579545040468077e-01 9.957335641595086e-02 4.482729808409247e-03 1.106857486447311e-01 2.241694069000551e-03
821012500.0000000000 1.073950768640019e-01 -7.510334338333509e-03 9.834879390513082e-02 -1.252887124585196e-02 1.890005015168127e-01 1.001708502245235e-01 -7.465374092940881e-02 3.396401411981818e-01
            9.829291951424383e-02 -1.252685840739201e-02 1.073846938835278e-01 -7.521646585394381e-03 -7.481030845297887e-02 3.397118495355164e-01 1.890432553905514e-01 1.001484491949114e-01
            1.890416862709325e-01 1.001382161760966e-01 -7.474442440197017e-02 3.396961814712954e-01 1.092668062475228e-01 -1.029978225608365e-02 9.734084004943942e-02 -8.247255447093852e-03
            -7.485656748590976e-02 3.397281491658876e-01 1.889882117893698e-01 1.001308879023074e-01 9.735828277136137e-02 -8.175216909869906e-03 1.092550612909601e-01 -1.023124361559513e-02
821845000.0000000000 9.769606333068648e-02 -1.593380384718627e-02 8.783876156717065e-02 -2.062054240829050e-02 2.136053562054964e-01 3.004210062268001e-02 4.635234432913211e-02 3.444923893764018e-01
            8.800840305757390e-02 -2.062140562705737e-02 9.773948469018419e-02 -1.592689236964360e-02 4.634852300325268e-02 3.445295022449086e-01 2.135781843142997e-01 3.010394535370264e-02
            2.135748874618438e-01 3.001555549386538e-02 4.637933026207160e-02 3.444365243939658e-01 9.998183224185020e-02 -1.888134531023953e-02 8.727974288576390e-02 -1.634200383742885e-02
            4.634691929769694e-02 3.444261017418395e-01 2.135467452107189e-01 3.006959038189601e-02 8.733619420802970e-02 -1.633184421987787e-02 9.991532055301797e-02 -1.884056248750723e-02
822677500.0000000000 8.467354197984919e-02 -1.626329281371774e-02 7.450321890796029e-02 -1.984992585200381e-02 2.133002916140100e-01 -4.516496945784158e-02 1.623521424494552e-01 3.070051637619063e-01
            7.451775471902666e-02 -1.984593064768827e-02 8.472280501292145e-02 -1.629997662114091e-02 1.623079542746278e-01 3.070020669351081e-01 2.134111543100062e-01 -4.521251320641224e-02
            2.134084594795427e-01 -4.525064867375498e-02 1.622629447686222e-01 3.070156303924598e-01 8.715817316946017e-02 -1.924479005489248e-02 7.441223828880239e-02 -1.601741495962868e-02
            1.623481881237841e-01 3.069803510114781e-01 2.133309061756690e-01 -4.520935400286200e-02 7.438601291472367e-02 -1.593276495276764e-02 8.729269998700304e-02 -1.926268103494046e-02
823510000.0000000000 7.457241447001377e-02 -7.907162006395836e-03 6.463413057615131e-02 -1.052015319965643e-02 1.870561878781263e-01 -1.174766082231975e-01 2.579079501256422e-01 2.311425728751536e-01
            6.463446970714302e-02 -1.052484409567706e-02 7.467002245774459e-02 -7.974626878087651e-03 2.579567442993043e-01 2.310726225610141e-01 1.869793099023122e-01 -1.174727834653694e-01
            1.870362894082959e-01 -1.174996335928951e-01 2.579282873478001e-01 2.310981202550306e-01 7.728731173001466e-02 -1.117832648624902e-02 6.487015903846942e-02 -7.147140285216673e-03
            2.579203415982670e-01 2.310760795028515e-01 1.869479625454418e-01 -1.174391354449284e-01 6.490983941594437e-02 -7.080276255509514e-03 7.725788354990648e-02 -1.110186284569975e-02
824342500.0000000000 7.243888776942535e-02 4.823258451237735e-03 6.315393731944802e-02 3.155863322129900e-03 1.360118544414385e-01 -1.771939247751088e-01 3.205215780350209e-01 1.267255472933497e-01
            6.325563137233069e-02 3.111673604099001e-03 7.240979562857201e-02 4.915177611680510e-03 3.205549453387332e-01 1.266099518709559e-01 1.360429642394647e-01 -1.772215494874922e-01
            1.359758806715005e-01 -1.771295824440647e-01 3.205321071851586e-01 1.267141163635386e-01 7.514174785846089e-02 1.618531273913146e-03 6.361144196627955e-02 5.873566967507937e-03
            3.205125314383358e-01 1.267048506138568e-01 1.360466840882347e-01 -1.771337240829581e-01 6.366096835014794e-02 5.865984686838494e-03 7.522375017732463e-02 1.657494876395369e-03
825175000.0000000000 7.925129298468754e-02 1.590313260487229e-02 7.099768550217389e-02 1.437578493092897e-02 6.607212872975422e-02 -2.154343259203958e-01 3.422825561803095e-01 8.178987752163499e-03
            7.102011953979330e-02 1.433681350868959e-02 7.922614828803044e-02 1.597556105976093e-02 3.423207947019905e-01 8.172655621770790e-03 6.605515392671268e-02 -2.153834698273513e-01
            6.601143296453540e-02 -2.153284985100533e-01 3.422922674709941e-01 8.114612641999225e-03 8.204343662788545e-02 1.246264448425716e-02 7.126993921325286e-02 1.642389735626796e-02
            3.423512727404318e-01 8.156650857435959e-03 6.605681736857724e-02 -2.154403846279916e-01 7.118338624203095e-02 1.649804285908121e-02 8.204747212330604e-02 1.249533965834554e-02
826007500.0000000000 9.144657061546574e-02 1.974430533690277e-02 8.412714408350357e-02 1.764725821220858e-02 -1.327383032055882e-02 -2.260228179107734e-01 3.220665575843026e-01 -1.091437602173008e-01
            8.412168045829979e-02 1.774184813797168e-02 9.151661571831314e-02 1.981209371589602e-02 3.221322406667017e-01 -1.091097991008476e-01 -1.320114405391573e-02 -2.259729693582322e-01
            -1.326954012552210e-02 -2.260549275561178e-01 3.221076935313343e-01 -1.091161254577904e-01 9.430931028353984e-02 1.615202086173597e-02 8.384394746335576e-02 1.947334481989975e-02
            3.220536202283065e-01 -1.091245813347217e-01 -1.322223399630038e-02 -2.260254138525759e-01 8.381151827212935e-02 1.941548685490772e-02 9.433509870304357e-02 1.617248921284977e-02
826840000.0000000000 1.030097709359450e-01 1.480231726133570e-02 9.599541745161964e-02 1.175823329629088e-02 -9.108790891022503e-02 -2.079957606505884e-01 2.639788616820624e-01 -2.113206513606154e-01
            9.608083863470045e-02 1.165468857925214e-02 1.031183500366798e-01 1.473598664309141e-02 2.639631988905156e-01 -2.113276095752074e-01 -9.104485349593569e-02 -2.080716678913545e-01
            -9.098537472214810e-02 -2.080959834191951e-01 2.639917688931546e-01 -2.113781384133142e-01 1.059761169492848e-01 1.100367113510150e-02 9.524847361084571e-02 1.359135734019939e-02
            2.639175956036338e-01 -2.113397948782911e-01 -9.107230665920023e-02 -2.080183812174766e-01 9.524049317934212e-02 1.351701161577042e-02 1.059045476514481e-01 1.101691749271765e-02
827672500.0000000000 1.086964557896019e-01 3.525739734983129e-03 1.010956308031657e-01 -4.771182088506209e-04 -1.573890764460364e-01 -1.646638943972770e-01 1.754108864018490e-01 -2.876155000443547e-01
            1.011856769430551e-01 -4.144736609088322e-04 1.086453533738982e-01 3.593976203831761e-03 1.753932771377422e-01 -2.876639439115521e-01 -1.574025545261173e-01 -1.646083737927227e-01
            -1.573834793604587e-01 -1.645815755567548e-01 1.754002260059242e-01 -2.876754645995841e-01 1.114516915622877e-01 -5.045667564863374e-04 9.996283942650579e-02 1.728953535353481e-03
            1.752868281346129e-01 -2.876076031739968e-01 -1.573523017910179e-01 -1.646466689187877e-01 9.991515881505593e-02 1.773518641535821e-03 1.113590190679900e-01 -5.270144302343169e-04
828505000.0000000000 1.056413959955678e-01 -8.496718877276698e-03 9.713588612046875e-02 -1.301193775236920e-02 -2.050588246282513e-01 -1.015957162400412e-01 6.643220123680356e-02 -3.297083105895804e-01
            9.719875563305237e-02 -1.313486559106695e-02 1.057145645463504e-01 -8.499041540922576e-03 6.636994851617072e-02 -3.296905945280412e-01 -2.051004357919170e-01 -1.015459098482352e-01
            -2.050554396484511e-01 -1.016029763266069e-01 6.639057569641672e-02 -3.296717882753042e-01 1.082094716531892e-01 -1.283636506337667e-02 9.592397046216176e-02 -1.028974431253841e-02
            6.635728349065829e-02 -3.297261058911267e-01 -2.051776802491225e-01 -1.016075568673959e-01 9.600180204672736e-02 -1.030931453490051e-02 1.082456253531439e-01 -1.271858696061958e-02
829337500.0000000000 9.558541997626167e-02 -1.568299017044643e-02 8.582384133059973e-02 -2.014793294780682e-02 -2.292392509856396e-01 -2.582532487087648e-02 -5.097385686072021e-02 -3.321843160016433e-01
            8.576489695305824e-02 -2.013745455746278e-02 9.562977864100795e-02 -1.570989190407324e-02 -5.102029885862995e-02 -3.321610475159264e-01 -2.291842540545965e-01 -2.582050634297399e-02
            -2.291980173475339e-01 -2.582514468326054e-02 -5.100987836776986e-02 -3.322141986262634e-01 9.777802627695305e-02 -2.025802002466001e-02 8.505284092893638e-02 -1.677685829332219e-02
            -5.101676417111230e-02 -3.321602924293094e-01 -2.292962985912300e-01 -2.584652620589707e-02 8.501966302627950e-02 -1.679050120906397e-02 9.784954970634552e-02 -2.030436846493321e-02
830170000.0000000000 8.320356741280401e-02 -1.464157389842649e-02 7.239619592086656e-02 -1.814001491642864e-02 -2.266598707010640e-01 5.475627567542955e-02 -1.624123560667722e-01 -2.935923996526058e-01
            7.235682099553990e-02 -1.817742442152024e-02 8.319585564574623e-02 -1.459525593874732e-02 -1.624059864870408e-01 -2.935332607342184e-01 -2.266448166970109e-01 5.470879650517533e-02
            -2.266701646597181e-01 5.475424194095235e-02 -1.624218100716200e-01 -2.936683569278783e-01 8.497908459843771e-02 -1.917831774789688e-02 7.228511310686572e-02 -1.448201637328770e-02
            -1.624257753241836e-01 -2.936388500239072e-01 -2.266587434922724e-01 5.483281100609769e-02 7.224861983028606e-02 -1.451063431346082e-02 8.500397788971450e-02 -1.919729406383716e-02
831002500.0000000000 7.468794918935255e-02 -5.492016193029534e-03 6.329892521601115e-02 -7.863540805817337e-03 -1.960913303206258e-01 1.310305078257062e-01 -2.533782652534446e-01 -2.182484053411382e-01
            6.332209886547005e-02 -7.792675964005342e-03 7.459714428165094e-02 -5.499271233256080e-03 -2.533173497256050e-01 -2.182661276333934e-01 -1.961264826669057e-01 1.311512104078490e-01
            -1.960815664611935e-01 1.310957624440082e-01 -2.533378976727469e-01 -2.182774127734866e-01 7.602869852767410e-02 -1.004617347746591e-02 6.401902794385605e-02 -4.392813207337096e-03
            -2.533194767398500e-01 -2.182633958924493e-01 -1.961288459632144e-01 1.311174818016768e-01 6.407179851445446e-02 -4.356071694124454e-03 7.595795419075889e-02 -1.014726807342416e-02
831835000.0000000000 7.424943762804026e-02 7.064823172382570e-03 6.322391008914940e-02 5.940618973194530e-03 -1.396451302991312e-01 1.929415187522149e-01 -3.114314034424908e-01 -1.162656104431691e-01
            6.333125676637412e-02 5.976027299648445e-03 7.430992123945267e-02 7.036102569580429e-03 -3.114544215725775e-01 -1.162251914036383e-01 -1.395904094620245e-01 1.929918202453500e-01
            -1.396027155702370e-01 1.930261190975429e-01 -3.114727355367012e-01 -1.162758555216430e-01 7.518639635621581e-02 2.685233976985226e-03 6.457729187781090e-02 9.042228087070123e-03
            -3.115410256144311e-01 -1.163021005321611e-01 -1.395796033729738e-01 1.930538202091330e-01 6.457173109402341e-02 8.966021402323207e-03 7.520509149831052e-02 2.601099433935345e-03
832667500.0000000000 8.235935253516737e-02 1.660728673671706e-02 7.208361442556474e-02 1.633760438709128e-02 -6.392852416532947e-02 2.312201797916746e-01 -3.300593671250379e-01 -1.628075228845834e-03
            7.210707265799478e-02 1.639067055189170e-02 8.231312845000539e-02 1.668685499739305e-02 -3.301392947673532e-01 -1.629884248506198e-03 -6.394718877110490e-02 2.311816003864519e-01
            -6.392442066464765e-02 2.311929040306621e-01 -3.301735829470421e-01 -1.589906167627814e-03 8.293340586919745e-02 1.249769526704464e-02 7.374726980417334e-02 1.868345463330012e-02
            -3.300554993033447e-01 -1.653909065099038e-03 -6.389024697795551e-02 2.312321415417219e-01 7.366453267757885e-02 1.867361677682077e-02 8.304844809441235e-02 1.255863101700906e-02
833500000.0000000000 9.473128104817968e-02 1.849542328807401e-02 8.536909066824888e-02 1.856654592541794e-02 2.054438033086855e-02 2.399903379628420e-01 -3.084156156144688e-01 1.108530344437983e-01
            8.533658345247215e-02 1.850845400392129e-02 9.467240892012665e-02 1.855836550745516e-02 -3.084160472077404e-01 1.108242130425247e-01 2.060886872802382e-02 2.399719597234117e-01
            2.055340343971947e-02 2.399907205206910e-01 -3.084274602981366e-01 1.108044970871429e-01 9.509058254550805e-02 1.472911003898983e-02 8.696884133498387e-02 2.030835827465441e-02
            -3.084747640659128e-01 1.108927928666776e-01 2.067455285403837e-02 2.399074218777517e-01 8.691243946389079e-02 2.016460656460994e-02 9.517246318728900e-02 1.476502805724990e-02
834332500.0000000000 1.051897855130287e-01 1.194791388530267e-02 9.659532304925728e-02 1.160835393243760e-02 1.024973680034650e-01 2.185359335364314e-01 -2.505702583717503e-01 2.083728008936390e-01
            9.661426220309356e-02 1.153000397466503e-02 1.052469354221250e-01 1.191072050559099e-02 -2.506396383663312e-01 2.082920869049365e-01 1.024918807246780e-01 2.185714380783621e-01
            1.024809782294423e-01 2.186388926089314e-01 -2.506598876851966e-01 2.082701712691494e-01 1.055832101911004e-01 8.465140088200469e-03 9.784286720355852e-02 1.289663272508205e-02
            -2.506748214172184e-01 2.083066568709214e-01 1.024538834152467e-01 2.185713525064821e-01 9.785329934782530e-02 1.289665011809286e-02 1.056646827289906e-01 8.476184164770775e-03
835165000.0000000000 1.090911478290210e-01 7.090198544973508e-05 1.005950225445070e-01 -7.299757273969956e-04 1.717055101039583e-01 1.706958794358050e-01 -1.640415708287388e-01 2.803446087735045e-01
            1.005150247229751e-01 -8.075183119594371e-04 1.090809915985541e-01 9.278296670812571e-05 -1.639794203245427e-01 2.802731602266451e-01 1.716200436769609e-01 1.706343924390891e-01
            1.716698331522046e-01 1.705960752197641e-01 -1.639716314381688e-01 2.803415995258362e-01 1.094306062928342e-01 -3.017457030457338e-03 1.015126346681526e-01 3.980674522229327e-04
            -1.640325869255697e-01 2.803017013156049e-01 1.716565923013600e-01 1.706749883181111e-01 1.015485702971126e-01 3.465468289194041e-04 1.094256536580250e-01 -3.111635825878404e-03
835997500.0000000000 1.043095563626902e-01 -1.151391201994091e-02 9.548864404153808e-02 -1.262917835718720e-02 2.207063739366003e-01 1.024540890180216e-01 -5.802057019250919e-02 3.189549439663792e-01
            9.553191721801517e-02 -1.267724788660126e-02 1.042812928128268e-01 -1.145788961429142e-02 -5.804283032805049e-02 3.189098169146600e-01 2.207429094209229e-01 1.024469615705255e-01
            2.207370350707334e-01 1.024918918302889e-01 -5.798363240911125e-02 3.189916232925059e-01 1.048292243351231e-01 -1.446788654756823e-02 9.631335961673808e-02 -1.149246116437124e-02
            -5.807065097504326e-02 3.190017944338088e-01 2.206391008864717e-01 1.024405266597842e-01 9.632497626329786e-02 -1.147700332781027e-02 1.048037996972650e-01 -1.443584439482293e-02
836830000.0000000000 9.317539491197729e-02 -1.729911106213416e-02 8.379091001324268e-02 -1.853879951459753e-02 2.442539579462437e-01 2.127120307958603e-02 5.524958832710332e-02 3.190787867017936e-01
            8.378358211860901e-02 -1.850118532760005e-02 9.321575327744722e-02 -1.726696921703257e-02 5.524469934847205e-02 3.190727051876152e-01 2.442464568725273e-01 2.120146155295337e-02
            2.442218667977391e-01 2.122329499837975e-02 5.527000972450944e-02 3.190801133163483e-01 9.387734928059578e-02 -2.015867680442888e-02 8.473721669504208e-02 -1.703678307347639e-02
            5.531019477671629e-02 3.190965781680045e-01 2.443287613920252e-01 2.124654135293435e-02 8.470300416318527e-02 -1.698448694498593e-02 9.369706889533071e-02 -2.016120580131878e-02
837662500.0000000000 8.078003437340583e-02 -1.449529079655731e-02 7.096547432172620e-02 -1.525690777799157e-02 2.392510376620413e-01 -6.442290715894598e-02 1.620287108035560e-01 2.796382223453588e-01
            7.091072237349999e-02 -1.510963727094150e-02 8.079194647377581e-02 -1.449442653208595e-02 1.620158238471746e-01 2.796543130855436e-01 2.392599693776818e-01 -6.436488103481455e-02
            2.391815302656557e-01 -6.433371063691287e-02 1.619779353089296e-01 2.795824552544054e-01 8.150977062554171e-02 -1.737632384765229e-02 7.225036256999567e-02 -1.362385499355297e-02
            1.620091606209473e-01 2.796006010928359e-01 2.391577147220075e-01 -6.444792337688364e-02 7.227067063733664e-02 -1.369774384819720e-02 8.152386030845914e-02 -1.732524916969181e-02
838495000.0000000000 7.332571109825324e-02 -4.065726493623348e-03 6.335553993155307e-02 -4.129098101476558e-03 2.043377068099138e-01 -1.446039046895451e-01 2.479076379108226e-01 2.050477396735527e-01
            6.335799097088871e-02 -4.093034329713908e-03 7.339542711081506e-02 -4.082589542880505e-03 2.479182665639917e-01 2.050133305233885e-01 2.042683710160684e-01 -1.445831520436821e-01
            2.043419173457265e-01 -1.445841743265754e-01 2.479468926745127e-01 2.050940932621490e-01 7.403033031757351e-02 -7.169143064583583e-03 6.511680274141234e-02 -2.787075664036706e-03
            2.479155844681148e-01 2.051090846726807e-01 2.043390523581419e-01 -1.445256418741672e-01 6.519831195302415e-02 -2.736098707383007e-03 7.403050855729806e-02 -7.009817301668227e-03
839327500.0000000000 7.463652959817473e-02 8.651629762588405e-03 6.477395868557397e-02 9.295251194082062e-03 1.424533719131376e-01 -2.083949405883258e-01 3.016010930170371e-01 1.058738518966569e-01
            6.482416349564966e-02 9.374117464019296e-03 7.462505012529205e-02 8.655767253874271e-03 3.016143775004584e-01 1.058396737134991e-01 1.424910093982292e-01 -2.083294875164692e-01
            1.424074812271456e-01 -2.083963182319306e-01 3.016144423892919e-01 1.058384577736177e-01 7.504921032442563e-02 5.458376987585949e-03 6.697554763438242e-02 1.014651699662792e-02
            3.015879206236135e-01 1.058274376753580e-01 1.424084137466740e-01 -2.083426884093533e-01 6.700253829285847e-02 1.019168029579982e-02 7.508391979885967e-02 5.383464166435828e-03
840160000.0000000000 8.386010955307831e-02 1.734738630043244e-02 7.458607452100702e-02 1.851242534194096e-02 6.130605063409531e-02 -2.464459950338045e-01 3.171944918014075e-01 -4.474259570613744e-03
            7.462368251995835e-02 1.855876798693875e-02 8.376842839422581e-02 1.734453093187701e-02 3.170571827992195e-01 -4.587791480959541e-03 6.132956403059919e-02 -2.463855105598203e-01
            6.132730772671339e-02 -2.463509929625997e-01 3.170762508890149e-01 -4.601606680788950e-03 8.401972443449822e-02 1.417283582937159e-02 7.703464935515526e-02 1.855810589199766e-02
            3.171092100330845e-01 -4.576127841701107e-03 6.132009405187209e-02 -2.463143024960175e-01 7.692277333314301e-02 1.868655550685362e-02 8.412098090482585e-02 1.410156472362428e-02
840992500.0000000000 9.649962007714505e-02 1.791830799153499e-02 8.786653184430711e-02 1.919320576778249e-02 -2.809771603306621e-02 -2.530954276738434e-01 2.941927985636983e-01 -1.120664977810664e-01
            8.776248195507015e-02 1.919641596024411e-02 9.639717149406395e-02 1.788083542895609e-02 2.941367470741773e-01 -1.121041675766215e-01 -2.814797813417052e-02 -2.530352082223968e-01
            -2.813359656169964e-02 -2.530592142469194e-01 2.941853683478471e-01 -1.121304649383930e-01 9.626668913159006e-02 1.466047187433398e-02 9.008911199438423e-02 1.852814306743753e-02
            2.942364683393264e-01 -1.121071159011747e-01 -2.811762325449007e-02 -2.530815489099034e-01 9.007463682106520e-02 1.855088154945816e-02 9.630542493208871e-02 1.472545854599240e-02
841825000.0000000000 1.063646754106594e-01 1.021548336874405e-02 9.815436666279054e-02 1.128312415194005e-02 -1.139399597725037e-01 -2.282610901942964e-01 2.370573121064023e-01 -2.045242215685187e-01
            9.803095985825856e-02 1.129729880292143e-02 1.064461136665909e-01 1.015356587518764e-02 2.369757161790667e-01 -2.045822534101944e-01 -1.139103501979002e-01 -2.283456293902617e-01
            -1.138609076059077e-01 -2.283095930901319e-01 2.369833943365758e-01 -2.045453983722580e-01 1.057001273751329e-01 7.171717134046439e-03 9.995120775205958e-02 9.812615363770434e-03
            2.369303929557553e-01 -2.045295566036070e-01 -1.139219396889676e-01 -2.282764746201651e-01 9.996881632494405e-02 9.865351465071009e-03 1.056900370199512e-01 7.204133458652297e-03
842657500.0000000000 1.089927971220476e-01 -1.919087322825756e-03 1.008562969906660e-01 -1.240432321804177e-03 -1.856699949183476e-01 -1.760258901675686e-01 1.524733545322400e-01 -2.722525434464412e-01
            1.007840348094179e-01 -1.169688816584297e-03 1.089636277281087e-01 -1.998976391716509e-03 1.524054622373862e-01 -2.721869002851321e-01 -1.856364437816868e-01 -1.760475499033305e-01
            -1.855872797877638e-01 -1.760341805251866e-01 1.523712352570897e-01 -2.722410377305544e-01 1.079787155962135e-01 -4.661514736800100e-03 1.019307326649759e-01 -3.003864332745795e-03
            1.524691935052224e-01 -2.722940579147925e-01 -1.856479754700180e-01 -1.760463456996444e-01 1.019533677935478e-01 -2.960432668528910e-03 1.079545437147646e-01 -4.596435427219995e-03
843490000.0000000000 1.029415807723715e-01 -1.299679662496034e-02 9.479275350862933e-02 -1.216700857324415e-02 -2.356157490347468e-01 -1.027406711055099e-01 4.978756830208148e-02 -3.074370621333203e-01
            9.480384540324610e-02 -1.223920802590777e-02 1.031074352215062e-01 -1.305173724707495e-02 4.981305061415867e-02 -3.074549208325968e-01 -2.356468198051217e-01 -1.027778068630393e-01
            -2.356534924849587e-01 -1.027506377999962e-01 4.978577520305567e-02 -3.075148413198017e-01 1.018420073242519e-01 -1.504071939178574e-02 9.521793724089329e-02 -1.419759495611915e-02
            4.977443922033229e-02 -3.074359022925440e-01 -2.356881812781420e-01 -1.027285059374840e-01 9.521354557837858e-02 -1.415145054997267e-02 1.018300352607226e-01 -1.503208935892084e-02
844322500.0000000000 9.143081620002438e-02 -1.761153527154808e-02 8.296824717074833e-02 -1.656982917391789e-02 -2.585457526666274e-01 -1.630663580009893e-02 -5.926669700590113e-02 -3.051864189515210e-01
            8.294261100200175e-02 -1.656872255419011e-02 9.146205064905646e-02 -1.760836199630692e-02 -5.921018659515025e-02 -3.052430901599661e-01 -2.586045406594363e-01 -1.636546085303540e-02
            -2.585315859189048e-01 -1.624306093828427e-02 -5.921778041371048e-02 -3.053162083076039e-01 9.026898901565443e-02 -1.908324819426056e-02 8.277954351217380e-02 -1.847534271412196e-02
            -5.920248907804839e-02 -3.052650874148620e-01 -2.585500228385925e-01 -1.630930795480938e-02 8.267248291260718e-02 -1.856281946302700e-02 9.023945424717238e-02 -1.901579646238499e-02
845155000.0000000000 7.959539011998723e-02 -1.351983531503933e-02 7.112957103671480e-02 -1.188993645613134e-02 -2.508447482238574e-01 7.418363378557884e-02 -1.609891090355066e-01 -2.650487162632734e-01
            7.111529209845692e-02 -1.200308928119891e-02 7.964415403915591e-02 -1.344517705962284e-02 -1.609759789879260e-01 -2.649879797851830e-01 -2.507942332595124e-01 7.411335227652893e-02
            -2.508366122544008e-01 7.412521124002693e-02 -1.609139796819378e-01 -2.650289181638780e-01 7.858709572527546e-02 -1.432719745965165e-02 7.036142503410467e-02 -1.349147699790390e-02
            -1.608912180932042e-01 -2.650888524680317e-01 -2.508241256702839e-01 7.418585601940185e-02 7.037075017490066e-02 -1.349263286445465e-02 7.854721841952228e-02 -1.434608728504126e-02
845987500.0000000000 7.334789212793386e-02 -2.590019820579110e-03 6.532983550088337e-02 -4.686426395411627e-04 -2.116367297127635e-01 1.578362021022123e-01 -2.416943305172238e-01 -1.916460649612225e-01
            6.530591710044120e-02 -5.159999233323000e-04 7.349118291159956e-02 -2.562365484309201e-03 -2.416652700826761e-01 -1.915878810911445e-01 -2.116550203579583e-01 1.577854577596843e-01
            -2.116188482011566e-01 1.577396839663740e-01 -2.416519707604884e-01 -1.915834823061414e-01 7.264881470957729e-02 -2.960212164362214e-03 6.429688512463994e-02 -1.718198724568495e-03
            -2.415789447114657e-01 -1.916548114771571e-01 -2.116679305130578e-01 1.577950934731981e-01 6.421852673439152e-02 -1.703020819734553e-03 7.275969156239882e-02 -2.958726949731707e-03
846820000.0000000000 7.599975869826758e-02 9.656192850566877e-03 6.865036589242686e-02 1.216554188648821e-02 -1.445954170839255e-01 2.231495083813617e-01 -2.908379009369345e-01 -9.538653122404811e-02
            6.861447886662222e-02 1.219311063458543e-02 7.602096931558425e-02 9.697746859502386e-03 -2.909052606037780e-01 -9.539961691003272e-02 -1.446179094287535e-01 2.231647027956607e-01
            -1.445944852150286e-01 2.231598257538359e-01 -2.909242415766582e-01 -9.536454890712177e-02 7.588146001612558e-02 9.639041801578171e-03 6.745734257671913e-02 1.119029420477379e-02
            -2.908312366295486e-01 -9.536402809478173e-02 -1.445569779122884e-01 2.231628715786873e-01 6.742353958487492e-02 1.124004811878548e-02 7.583957781687224e-02 9.608801032807953e-03
847652500.0000000000 8.593159877011500e-02 1.713154583361313e-02 7.954469995621796e-02 1.949013688901041e-02 -5.814179698030054e-02 2.607223901120784e-01 -3.033851079925213e-01 1.054032884935294e-02
            7.957289817978420e-02 1.960684283995794e-02 8.603698219055092e-02 1.709176055278565e-02 -3.032852519062355e-01 1.049016220722109e-02 -5.813371347377572e-02 2.607419427110740e-01
            -5.815951328779573e-02 2.606513097273846e-01 -3.033903925584187e-01 1.055974726452907e-02 8.635354216201988e-02 1.709277075234420e-02 7.819547621286678e-02 1.882327682806678e-02
            -3.034051259728690e-01 1.050833600102589e-02 -5.810249404741744e-02 2.606447527159920e-01 7.822807861813330e-02 1.886737031658408e-02 8.627834974131923e-02 1.709004722747027e-02
848485000.0000000000 9.832239075401875e-02 1.623738298587348e-02 9.265345494996854e-02 1.792510718400451e-02 3.584951753404667e-02 2.652799812312642e-01 -2.793227863824762e-01 1.127091351633421e-01
            9.270563317863441e-02 1.801876522475637e-02 9.829019283971127e-02 1.620636522721008e-02 -2.793954417648017e-01 1.127716521480275e-01 3.577777464328776e-02 2.652591271853703e-01
            3.587147551972929e-02 2.652391002864737e-01 -2.794249756489681e-01 1.127718391494003e-01 9.905653350141487e-02 1.610500529000557e-02 9.121288926819696e-02 1.754371544360368e-02
            -2.793342566584269e-01 1.127250202709897e-01 3.584665802786704e-02 2.652892216449921e-01 9.128308934085909e-02 1.755385205099657e-02 9.915453418330958e-02 1.600522864338033e-02
849317500.0000000000 1.069524755341949e-01 7.414403349639383e-03 1.017914892221082e-01 8.512801739419075e-03 1.250935505347774e-01 2.371132610389002e-01 -2.229762672816765e-01 2.001331132141743e-01
            1.018062371235421e-01 8.439224600733132e-03 1.070669799904952e-01 7.492545477350735e-03 -2.229425313492370e-01 2.001229859761482e-01 1.251155672483805e-01 2.371355878607793e-01
            1.250428969344025e-01 2.371501302188639e-01 -2.229398589876364e-01 2.001933388758110e-01 1.080348589153384e-01 7.013466330296995e-03 1.002233961185309e-01 8.257698946018658e-03
            -2.229269312996233e-01 2.001192173025689e-01 1.250949408511298e-01 2.370701876718183e-01 1.002749405776794e-01 8.294355421598884e-03 1.079482943826450e-01 7.062306170633454e-03
850150000.0000000000 1.080290231123265e-01 -4.730379475358247e-03 1.026947453825676e-01 -4.705909163368925e-03 1.990692360093454e-01 1.805882655968721e-01 -1.407864863217989e-01 2.632970798972188e-01
            1.026108220703631e-01 -4.733399783192514e-03 1.080590884259038e-01 -4.695240942751268e-03 -1.408459685784010e-01 2.632356973998696e-01 1.990970204454207e-01 1.805756368113121e-01
            1.990682234277701e-01 1.805698133258164e-01 -1.408263399578220e-01 2.633441753851640e-01 1.091425718151642e-01 -5.423753625685558e-03 1.011502073354729e-01 -4.555803506817850e-03
            -1.407769034905695e-01 2.633763731849433e-01 1.990393548440021e-01 1.805548790669818e-01 1.011149885535615e-01 -4.562141578437844e-03 1.091471982224579e-01 -5.463399974017397e-03
850982500.0000000000 1.008390996496296e-01 -1.480606430841137e-02 9.489921337518996e-02 -1.522484194320793e-02 2.499027727746720e-01 1.024807941549971e-01 -4.184452310307413e-02 2.951610237391841e-01
            9.494340575709254e-02 -1.530794501592312e-02 1.008936610580712e-01 -1.473994650448039e-02 -4.180920329126898e-02 2.952230441222807e-01 2.499136071751288e-01 1.023961029159458e-01
            2.498569503320248e-01 1.025182291580342e-01 -4.178161326876478e-02 2.951034935683407e-01 1.020573457867209e-01 -1.570415826680974e-02 9.354356157108107e-02 -1.493842224738766e-02
            -4.178914383165611e-02 2.951440593880269e-01 2.499837295225942e-01 1.025475689530915e-01 9.353904215586173e-02 -1.495287403603732e-02 1.019675372884672e-01 -1.573235961681703e-02
851815000.0000000000 8.881015610814022e-02 -1.782049411014141e-02 8.210995015243019e-02 -1.847382191911550e-02 2.719286918621279e-01 1.099909632587498e-02 6.264239967579779e-02 2.908146140742836e-01
            8.212915180158893e-02 -1.842086152569081e-02 8.880070360882222e-02 -1.779623454719535e-02 6.257161480781324e-02 2.908380533854041e-01 2.719538563023451e-01 1.101555655878401e-02
            2.718957274989910e-01 1.101695890799552e-02 6.264083381314832e-02 2.908284078539052e-01 8.986247588398012e-02 -1.893416626090266e-02 8.096661220443471e-02 -1.790531099637132e-02
            6.262810723524508e-02 2.907900313193393e-01 2.719136929776612e-01 1.099070971697357e-02 8.088725095632184e-02 -1.792221849932643e-02 8.991876632033340e-02 -1.896093188139457e-02
852647500.0000000000 7.762588767380287e-02 -1.226576154134959e-02 7.036614434519214e-02 -1.250812328893151e-02 2.615102256128388e-01 -8.383135315019702e-02 1.590906414894536e-01 2.500993381777924e-01
            7.044162163181605e-02 -1.249256719377965e-02 7.756134593322053e-02 -1.226298855241592e-02 1.591215266321089e-01 2.501321053077306e-01 2.615337555288333e-01 -8.378512175150640e-02
            2.614674711741596e-01 -8.385082914057801e-02 1.591761212286903e-01 2.501251818971085e-01 7.856807080584086e-02 -1.331319826543763e-02 6.937923753476810e-02 -1.197498597449538e-02
            1.591681386724064e-01 2.501099941054736e-01 2.614631655227237e-01 -8.378548578182683e-02 6.940171599402982e-02 -1.192390279155836e-02 7.855448393201832e-02 -1.331350433653801e-02
853480000.0000000000 7.273072460763018e-02 -6.832633102249331e-04 6.541458804908884e-02 -3.499927531360425e-04 2.182024612282098e-01 -1.704979359313511e-01 2.347197581780313e-01 1.781002380351493e-01
            6.538061238084474e-02 -3.316157926022100e-04 7.283518142900890e-02 -5.456519431430809e-04 2.347508299986625e-01 1.781007443258820e-01 2.182126458454220e-01 -1.705369329816952e-01
            2.182433274673581e-01 -1.705384918040452e-01 2.346706952930140e-01 1.781058915050868e-01 7.366451990596917e-02 -1.765938038737921e-03 6.462233606317122e-02 3.585127503320894e-04
            2.346429906516424e-01 1.781117937710430e-01 2.182067793018432e-01 -1.705922606658955e-01 6.449592553351449e-02 2.918365702325291e-04 7.361941290014054e-02 -1.759772474840251e-03
854312500.0000000000 7.687070404899482e-02 1.121478377108144e-02 6.985195426380650e-02 1.201074405424077e-02 1.461672036657156e-01 -2.372393199615989e-01 2.795763128737884e-01 8.517084167065539e-02
            6.982992372242039e-02 1.200691995260743e-02 7.682732943196609e-02 1.126590497429017e-02 2.794934716307631e-01 8.519983812503815e-02 1.462289743227283e-01 -2.371558086392780e-01
            1.462402916390929e-01 -2.372778049667397e-01 2.795569609462409e-01 8.510688075348243e-02 7.763075610299849e-02 1.031339266576254e-02 6.899483014752961e-02 1.257408791724314e-02
            2.795038383983532e-01 8.521693167146262e-02 1.462352928104999e-01 -2.372341547753412e-01 6.901217877286828e-02 1.267812644207262e-02 7.769907706475072e-02 1.026025911547911e-02
855145000.0000000000 8.755051436728824e-02 1.749115316225722e-02 8.116230963314353e-02 1.852676237073611e-02 5.487577422925947e-02 -2.742842729059158e-01 2.892815211521289e-01 -1.593721146156633e-02
            8.117422392738154e-02 1.845202589068274e-02 8.759534092951282e-02 1.754294913285766e-02 2.891237315325909e-01 -1.603262199419297e-02 5.480507010374459e-02 -2.741068517829330e-01
            5.490309892487243e-02 -2.742327451994093e-01 2.893063995392959e-01 -1.600392046676148e-02 8.843429690568730e-02 1.654478685473219e-02 8.045801665923155e-02 1.890250371728595e-02
            2.891998974947989e-01 -1.606795509850830e-02 5.478397397999741e-02 -2.742437950799221e-01 8.041581311286962e-02 1.887456352838347e-02 8.846883338743028e-02 1.653632422883431e-02
855977500.0000000000 9.965716810386288e-02 1.526150761146316e-02 9.376677615789934e-02 1.584622887377107e-02 -4.339455937336666e-02 -2.766876554480759e-01 2.642083571653633e-01 -1.129155201375101e-01
            9.388922858596635e-02 1.584914086451735e-02 9.962033411542706e-02 1.519115783563863e-02 2.641973478022869e-01 -1.129026228730594e-01 -4.339909596994988e-02 -2.767612949858708e-01
            -4.343534893936175e-02 -2.767491215773050e-01 2.642701688420100e-01 -1.130045825305931e-01 1.006032071374901e-01 1.437180988440324e-02 9.311229540772303e-02 1.630881514597887e-02
            2.642448123855352e-01 -1.130256994498843e-01 -4.348356333669608e-02 -2.767375970691697e-01 9.310137052728960e-02 1.626287112121637e-02 1.006217495957393e-01 1.432315641314893e-02
856810000.0000000000 1.072816822969044e-01 5.671048989164660e-03 1.017829814855681e-01 5.706933186119027e-03 -1.359707619365097e-01 -2.452575848710492e-01 2.087158730530285e-01 -1.952205591743902e-01
            1.017794870974192e-01 5.690733199245099e-03 1.072086354642369e-01 5.650634387235479e-03 2.087656468648582e-01 -1.951832570985804e-01 -1.360165099081113e-01 -2.453432196379728e-01
            -1.359570997168582e-01 -2.452847177567657e-01 2.087192636702844e-01 -1.952157648429289e-01 1.082990790342003e-01 4.791790805620076e-03 1.009143749822819e-01 6.100326101950501e-03
            2.087329551236149e-01 -1.951374258805881e-01 -1.360007871940992e-01 -2.453547565536918e-01 1.009284295601567e-01 6.157938121278678e-03 1.083496809783502e-01 4.808564295998900e-03
857642500.0000000000 1.068817620326027e-01 -6.404276694030287e-03 1.012914235813311e-01 -7.087923566604534e-03 -2.122227432325688e-01 -1.846361343849105e-01 1.289885968897556e-01 -2.539673738277983e-01
            1.012160279283144e-01 -7.051386553520442e-03 1.068155977890801e-01 -6.521076508856260e-03 1.290280811375251e-01 -2.539705616512234e-01 -2.121193482897619e-01 -1.846543880380633e-01
            -2.121615089179794e-01 -1.846482690039442e-01 1.290204179619789e-01 -2.538914142414759e-01 1.080280090982913e-01 -7.458861756857451e-03 1.003184620625061e-01 -6.537275487398336e-03
            1.290477666305636e-01 -2.539190739507824e-01 -2.121780185128276e-01 -1.846052872077001e-01 1.003975700106054e-01 -6.595390958361365e-03 1.080214452430188e-01 -7.507700258536725e-03
858475000.0000000000 9.870264969259739e-02 -1.546610927332725e-02 9.262623387266349e-02 -1.666832693042365e-02 -2.637028619563178e-01 -1.018242962440873e-01 3.382595650874232e-02 -2.821728535220348e-01
            9.265882559402085e-02 -1.664475999237238e-02 9.871681279893110e-02 -1.548222074938571e-02 3.386839346777885e-02 -2.822105579829373e-01 -2.636691504984904e-01 -1.018032447317531e-01
            -2.637465223900023e-01 -1.017476386943919e-01 3.379756670973316e-02 -2.822203150834300e-01 9.985398949743048e-02 -1.651737893377593e-02 9.171254590723393e-02 -1.596580632223890e-02
            3.379430796947182e-02 -2.822441883164175e-01 -2.637546528798081e-01 -1.017830879082176e-01 9.174578144584992e-02 -1.591803367230188e-02 9.989064837820048e-02 -1.653731140362469e-02
859307500.0000000000 8.649163656955254e-02 -1.699559501130588e-02 7.978908787344245e-02 -1.816771267999668e-02 -2.847175752921360e-01 -5.478896313633529e-03 -6.580950196173509e-02 -2.757926786178877e-01
            7.978199934769045e-02 -1.821575797829367e-02 8.654346172118110e-02 -1.703220081952181e-02 -6.584181763781183e-02 -2.757867638052334e-01 -2.847257403768473e-01 -5.557665884413172e-03
            -2.846227396218662e-01 -5.468207732085069e-03 -6.584326743991413e-02 -2.758829490861763e-01 8.766827420471311e-02 -1.825360426360448e-02 7.895248712808180e-02 -1.743305508081243e-02
            -6.582702023389329e-02 -2.758112191046997e-01 -2.847058236940645e-01 -5.472564613858197e-03 7.892851320114019e-02 -1.740021617963509e-02 8.772785273150828e-02 -1.818029524888309e-02
860140000.0000000000 7.610667854915625e-02 -1.017603349238870e-02 6.893520466264430e-02 -1.089147196461362e-02 -2.714420914056026e-01 9.354801853747517e-02 -1.569068596837849e-01 -2.346475749807776e-01
            6.897606621576757e-02 -1.100986029324586e-02 7.614500244121913e-02 -1.008673815942116e-02 -1.567951202444170e-01 -2.346024549879017e-01 -2.714180357390797e-01 9.347123625854080e-02
            -2.714136990515292e-01 9.356061597668294e-02 -1.568370256671535e-01 -2.346541731281188e-01 7.728306824918094e-02 -1.133940778435522e-02 6.823897733754156e-02 -1.020183106307009e-02
            -1.568805924102435e-01 -2.346339050744966e-01 -2.714088552875449e-01 9.347710636231994e-02 6.837291975541855e-02 -1.010421621485001e-02 7.719149974961079e-02 -1.135582851666992e-02
860972500.0000000000 7.284392396895706e-02 1.984988306735746e-03 6.553180318686898e-02 1.721682683072887e-03 -2.238553626472530e-01 1.830304225752694e-01 -2.269751483618209e-01 -1.643421323751024e-01
            6.556138395742669e-02 1.776660238329732e-03 7.297481952202095e-02 1.986368929835260e-03 -2.269720595394038e-01 -1.643417300635645e-01 -2.239299920690322e-01 1.831745047935102e-01
            -2.239198848232852e-01 1.829966653073822e-01 -2.270123981949337e-01 -1.643675739091007e-01 7.397080276941326e-02 7.346982587428576e-04 6.501418258840795e-02 2.481152490695440e-03
            -2.269310578508988e-01 -1.643465770084092e-01 -2.239005712927616e-01 1.831489627985826e-01 6.502658314589231e-02 2.504504642964443e-03 7.395182199379692e-02 6.938136751739673e-04
861805000.0000000000 7.838051192027803e-02 1.324113968454668e-02 7.140966112352522e-02 1.358053026526623e-02 -1.471088753038349e-01 2.507220580427245e-01 -2.673239364532908e-01 -7.494200760126457e-02
            7.136903622832441e-02 1.344968175363167e-02 7.829975483687977e-02 1.324682586911036e-02 -2.673258471004271e-01 -7.505002659195012e-02 -1.470586767228824e-01 2.507555812721809e-01
            -1.470385025954999e-01 2.507826757039707e-01 -2.673063390997346e-01 -7.495220088625355e-02 7.947216963492003e-02 1.196756156964702e-02 7.096433628034700e-02 1.411330278001009e-02
            -2.673548049228365e-01 -7.495359902037835e-02 -1.471234826132730e-01 2.507827838330879e-01 7.095593968277451e-02 1.411174313199439e-02 7.946885740364688e-02 1.195320876907576e-02
862637500.0000000000 8.978020909977855e-02 1.821244695529042e-02 8.337825023868985e-02 1.858954731286111e-02 -5.109051992067260e-02 2.869537101454002e-01 -2.742409553197705e-01 2.118517427774824e-02
            8.341066367539299e-02 1.845857721043637e-02 8.986023584077363e-02 1.806356559876438e-02 -2.742113767399478e-01 2.117498372738168e-02 -5.110993401841312e-02 2.870115050929704e-01
            -5.106149059738371e-02 2.869741319146525e-01 -2.741946888828242e-01 2.115171065060669e-02 9.087598423106266e-02 1.686099731433422e-02 8.286332197587697e-02 1.891834828285508e-02
            -2.741582945798352e-01 2.117538060883540e-02 -5.114023681517128e-02 2.869597239355496e-01 8.287453228333859e-02 1.892279624052862e-02 9.089222783342933e-02 1.685595559765422e-02
863470000.0000000000 1.015970474633026e-01 1.441595737276138e-02 9.580740090259288e-02 1.446529548406519e-02 5.115913465702749e-02 2.872699015727222e-01 -2.485425797917534e-01 1.126190454292605e-01
            9.582292181805666e-02 1.450426427270717e-02 1.015868920525907e-01 1.443521926646568e-02 -2.485180933067694e-01 1.125617760537004e-01 5.114823266767379e-02 2.872861387234917e-01
            5.116734092629103e-02 2.872185923663917e-01 -2.484885208482331e-01 1.125851354825860e-01 1.027023727997042e-01 1.304854297980482e-02 9.509458133605483e-02 1.475498113174212e-02
            -2.485599821190847e-01 1.126565771654684e-01 5.107199288775894e-02 2.873085132989829e-01 9.516266945078247e-02 1.487370336869340e-02 1.027465964617517e-01 1.309697736365358e-02
864302500.0000000000 1.081083751197741e-01 4.181963723356150e-03 1.026690354625426e-01 3.534789221796511e-03 1.467406760647281e-01 2.526365938206605e-01 -1.941739609298557e-01 1.895664190036445e-01
            1.027102782046640e-01 3.458795102631340e-03 1.080889708534818e-01 4.141332971025576e-03 -1.941373185514799e-01 1.894822467899064e-01 1.467273417999406e-01 2.525864588064906e-01
            1.467823128090362e-01 2.526227817641329e-01 -1.941563523388595e-01 1.895444975023389e-01 1.091394073273083e-01 2.590967998687542e-03 1.016496615061644e-01 3.855108565041512e-03
            -1.941902908754478e-01 1.895120798152712e-01 1.467240164447248e-01 2.525725609792804e-01 1.017561959831722e-01 3.922525105814054e-03 1.092118830026186e-01 2.633810915580951e-03
865135000.0000000000 1.064557715325294e-01 -7.863806580847411e-03 1.008243072978374e-01 -9.420504371340191e-03 2.247392090787690e-01 1.879582928460073e-01 -1.172497879828291e-01 2.437553520788591e-01
            1.008461496239976e-01 -9.354546551612712e-03 1.063060807976168e-01 -7.835943441454702e-03 -1.172606751798334e-01 2.437954575560689e-01 2.247266341351278e-01 1.878024873681226e-01
            2.247383582162433e-01 1.878492667219535e-01 -1.172062464556474e-01 2.437793248703922e-01 1.074781052745166e-01 -9.521280117018091e-03 9.966691802117035e-02 -8.715729054299069e-03
            -1.171767482280272e-01 2.437909365934465e-01 2.247934042686810e-01 1.878855970765194e-01 9.966346672019190e-02 -8.698395612680338e-03 1.074155283474831e-01 -9.479885213195205e-03
865967500.0000000000 9.733980998835687e-02 -1.587493317143103e-02 9.119554267797444e-02 -1.802651754595716e-02 2.766325046483228e-01 1.005735864744623e-01 -2.614556015221155e-02 2.685699276675994e-01
            9.122618042214056e-02 -1.808928617485051e-02 9.744998516090403e-02 -1.589328495627630e-02 -2.611071369132759e-02 2.685511758833181e-01 2.767325792094910e-01 1.005405833302820e-01
            2.767407055355315e-01 1.005086353712111e-01 -2.601367877894314e-02 2.686316517601381e-01 9.820129945780427e-02 -1.772118576720663e-02 9.003769461146829e-02 -1.703975584418631e-02
            -2.608068901686664e-02 2.685770574800144e-01 2.767191193285039e-01 1.004935796026721e-01 8.992194699164240e-02 -1.698545404618372e-02 9.829463952114920e-02 -1.768754294964375e-02
866800000.0000000000 8.512499296890037e-02 -1.598814074840079e-02 7.821637596267106e-02 -1.843258128783462e-02 2.964893465507951e-01 -2.171051557598591e-04 6.853951120448525e-02 2.602161964641910e-01
            7.813935826511377e-02 -1.839613256470012e-02 8.518878369015387e-02 -1.607061013158970e-02 6.850184265060749e-02 2.601378699534965e-01 2.964895538707496e-01 -2.939980987172637e-04
            2.964101076945238e-01 -2.285098643324442e-04 6.845629349083659e-02 2.602160020243242e-01 8.586658509576058e-02 -1.806275262342079e-02 7.710151696439238e-02 -1.700958847086542e-02
            6.849395282620972e-02 2.601636592299006e-01 2.965885344121493e-01 -2.853745475337296e-04 7.705852159839217e-02 -1.697784432936057e-02 8.587814132364502e-02 -1.801081930084442e-02
867632500.0000000000 7.580681772803680e-02 -8.020994675897087e-03 6.814386762970802e-02 -1.009696747765372e-02 2.804553393755818e-01 -1.031436359585933e-01 1.538489135804547e-01 2.187719435884150e-01
            6.808346817069985e-02 -1.021902089532654e-02 7.580095600124771e-02 -7.964601680656290e-03 1.538705846989147e-01 2.187729572971417e-01 2.804222925382996e-01 -1.031476257366381e-01
            2.803990870861875e-01 -1.031409374425549e-01 1.538274796390438e-01 2.188233006910283e-01 7.621755122752158e-02 -1.017489338772019e-02 6.727215385482661e-02 -8.568234141624160e-03
            1.538830630190345e-01 2.188892738030070e-01 2.803932212947406e-01 -1.031460367572396e-01 6.733027017932526e-02 -8.551966023418879e-03 7.620601361447796e-02 -1.017894453937695e-02
868465000.0000000000 7.410923477039531e-02 4.253095791314249e-03 6.596120722782316e-02 2.517135109425959e-03 2.288306247493705e-01 -1.950948065543333e-01 2.185239640092998e-01 1.504107823298334e-01
            6.594970864626834e-02 2.560694928688638e-03 7.410139995250437e-02 4.302925434780289e-03 2.185237789897696e-01 1.504507288335406e-01 2.287706031568697e-01 -1.951085224538299e-01
            2.288523189025646e-01 -1.951470222177713e-01 2.185778898261258e-01 1.504759176601212e-01 7.406847507117699e-02 2.188796389987875e-03 6.554131663225719e-02 4.357684999178951e-03
            2.185176822716310e-01 1.504919490033028e-01 2.287993239281778e-01 -1.951498578932014e-01 6.551153973732389e-02 4.354188107765561e-03 7.402119449136833e-02 2.232716499228582e-03
869297500.0000000000 8.080636469076198e-02 1.467943855558770e-02 7.267330543011209e-02 1.354842390075990e-02 1.474740991976879e-01 -2.636211804494547e-01 2.545117453633415e-01 6.501882136551879e-02
            7.276994480895461e-02 1.356607185287235e-02 8.080602451405640e-02 1.473795774325909e-02 2.545144978770940e-01 6.498839151728099e-02 1.473760174347375e-01 -2.636227506933982e-01
            1.473914808778936e-01 -2.636041389635994e-01 2.545678623849119e-01 6.508813666972980e-02 8.062989869663059e-02 1.282021656290805e-02 7.268460036244526e-02 1.525832203660428e-02
            2.545204383688693e-01 6.494830594563719e-02 1.474065576883836e-01 -2.635629012514204e-01 7.277967619543929e-02 1.523970095463903e-02 8.060661199589486e-02 1.277010422402084e-02
870130000.0000000000 9.279534856450754e-02 1.809371743542183e-02 8.488470554690913e-02 1.719549158727025e-02 4.704180324929143e-02 -2.989124430546143e-01 2.588815570050403e-01 -2.599442752864117e-02
            8.483224156960821e-02 1.722102840509319e-02 9.278430709297507e-02 1.807949379196630e-02 2.588281643062844e-01 -2.600321439097105e-02 4.705961860441079e-02 -2.989086979461651e-01
            4.703522337634154e-02 -2.989005257027505e-01 2.587607962300634e-01 -2.611464165754681e-02 9.234881716631803e-02 1.641657016371541e-02 8.524932881424420e-02 1.876010597344193e-02
            2.587660999592230e-01 -2.596513397948748e-02 4.703892290826942e-02 -2.988075090435703e-01 8.520079894512859e-02 1.879890668070815e-02 9.235120995656770e-02 1.643991783190397e-02
870962500.0000000000 1.040324102403885e-01 1.302386551385565e-02 9.640668467505226e-02 1.202154050656605e-02 -5.890042437887513e-02 -2.969326462006963e-01 2.324952235011154e-01 -1.118217406542087e-01
            9.644620777022204e-02 1.205116156182759e-02 1.041233901740215e-01 1.305393210095733e-02 2.325033350383974e-01 -1.118053434596070e-01 -5.889800357188631e-02 -2.970054895185257e-01
            -5.877043236336691e-02 -2.970003986591983e-01 2.325227696697244e-01 -1.118095610693362e-01 1.034718263172871e-01 1.169874311456849e-02 9.698235028267144e-02 1.331241264928217e-02
            2.325339325431128e-01 -1.118943537957506e-01 -5.888106687938241e-02 -2.970182468745575e-01 9.693188471529013e-02 1.337850383267472e-02 1.034251018494276e-01 1.174091605965605e-02
871795000.0000000000 1.094061171320093e-01 2.022718176208161e-03 1.017865728838449e-01 5.781547188917314e-04 -1.571673826472012e-01 -2.591194898663845e-01 1.794228115438856e-01 -1.833924729817503e-01
            1.017333223464088e-01 5.312407324962313e-04 1.093844297291184e-01 2.110729595821072e-03 1.794507409631585e-01 -1.834212427234785e-01 -1.572248466818313e-01 -2.591734130685368e-01
            -1.571597778902601e-01 -2.591380468830103e-01 1.794547407521428e-01 -1.835097301648939e-01 1.087287755691119e-01 9.831539661423806e-04 1.024887719822019e-01 1.660390342086397e-03
            1.795017169116681e-01 -1.834264342062303e-01 -1.571837294865541e-01 -2.591903821901243e-01 1.024286499833834e-01 1.556988771527754e-03 1.086963962931611e-01 1.033746148854251e-03
872627500.0000000000 1.063797968943553e-01 -9.785996670055700e-03 9.844658174159658e-02 -1.163387361178774e-02 -2.368450492629857e-01 -1.905188248169820e-01 1.054481818812842e-01 -2.331225902966034e-01
            9.846063002843333e-02 -1.155630230237824e-02 1.064510274902142e-01 -9.706988597196001e-03 1.053679651320923e-01 -2.331319124002462e-01 -2.368136310020381e-01 -1.905151321259393e-01
            -2.368101441555798e-01 -1.905682639825711e-01 1.054262738136177e-01 -2.330464440677471e-01 1.058054724863228e-01 -1.056301604039242e-02 9.906478512461257e-02 -1.080414444241167e-02
            1.054514296399705e-01 -2.330841691786939e-01 -2.368441215587307e-01 -1.905026040991472e-01 9.906931705715484e-02 -1.080867526872689e-02 1.057364549439316e-01 -1.059167992933434e-02
873460000.0000000000 9.653737283594757e-02 -1.676920470873458e-02 8.794320828255105e-02 -1.886820701499161e-02 -2.891144390188075e-01 -9.883838704273420e-02 1.850489367123261e-02 -2.544053606085890e-01
            8.793157526297384e-02 -1.884334590385135e-02 9.655274081438581e-02 -1.684072434638487e-02 1.850944602343746e-02 -2.544276917422739e-01 -2.891202054869543e-01 -9.877289126397051e-02
            -2.891235330613011e-01 -9.874868784948877e-02 1.849445653554166e-02 -2.543730017334325e-01 9.606016784711513e-02 -1.741396991975044e-02 8.844029717884704e-02 -1.822220610808391e-02
            1.844783727584645e-02 -2.543983296091218e-01 -2.890917844874266e-01 -9.881661857801941e-02 8.841034365552423e-02 -1.827910288698457e-02 9.603256845471587e-02 -1.744650415629877e-02
874292500.0000000000 8.451291057246534e-02 -1.574249650762794e-02 7.503487715081054e-02 -1.744056739983219e-02 -3.075958201827123e-01 6.232699063104829e-03 -7.081717731059023e-02 -2.439734196691787e-01
            7.515768953260440e-02 -1.744013422522567e-02 8.445835384710258e-02 -1.569808733361149e-02 -7.071950318369269e-02 -2.440054872717978e-01 -3.074914658836008e-01 6.293341928135096e-03
            -3.074958005251668e-01 6.239852038419100e-03 -7.073783746125778e-02 -2.439854613291757e-01 8.415154113571439e-02 -1.624175884771550e-02 7.556848134031194e-02 -1.694564828260689e-02
            -7.079625781250806e-02 -2.440201481780311e-01 -3.075267391506041e-01 6.216454616838100e-03 7.548270601403508e-02 -1.705717573577951e-02 8.420793265940840e-02 -1.620271747031542e-02
875125000.0000000000 7.620273605893414e-02 -6.949440134426786e-03 6.621831413997166e-02 -7.906976395003521e-03 -2.884885363799355e-01 1.126377762412277e-01 -1.503047814966630e-01 -2.027280924410398e-01
            6.618784552412005e-02 -7.888029876326828e-03 7.610327669509302e-02 -6.846912687744168e-03 -1.504197988155469e-01 -2.026866364723554e-01 -2.884705574003904e-01 1.126817563143739e-01
            -2.884622091532255e-01 1.127625246061432e-01 -1.502972074827917e-01 -2.026945596603781e-01 7.590319138483735e-02 -7.344484631504153e-03 6.652729228311147e-02 -7.493670176543436e-03
            -1.503906430234354e-01 -2.026835884255319e-01 -2.885453334842925e-01 1.127070892233332e-01 6.651587059963864e-02 -7.542116171601864e-03 7.594811221763122e-02 -7.359656396786218e-03
875957500.0000000000 7.578234547913441e-02 5.292151592526670e-03 6.567011229814879e-02 5.180737681026913e-03 -2.328459533449509e-01 2.068566006527586e-01 -2.093711320634638e-01 -1.365486035467956e-01
            6.573862661323795e-02 5.211097330423379e-03 7.587016318918249e-02 5.330825397921542e-03 -2.094041353109188e-01 -1.365844983674395e-01 -2.328731986380976e-01 2.068520668944680e-01
            -2.328808400366219e-01 2.068278282193524e-01 -2.094731145442068e-01 -1.365283546186432e-01 7.569594829617191e-02 4.856161718212630e-03 6.598742389020229e-02 5.537399841207631e-03
            -2.093975846883748e-01 -1.365016285579931e-01 -2.328602246653423e-01 2.067849897547566e-01 6.596638026605733e-02 5.542619239321468e-03 7.568499261174208e-02 4.879456959170685e-03
876790000.0000000000 8.365092458028352e-02 1.464953402651237e-02 7.396492205909651e-02 1.540634766199534e-02 -1.471605620291050e-01 2.757055916304372e-01 -2.409963518252316e-01 -5.526397347438596e-02
            7.400071035021753e-02 1.540283002811338e-02 8.371503733225939e-02 1.461079141818405e-02 -2.409843870688138e-01 -5.521677597472326e-02 -1.471400880356130e-01 2.756389915107980e-01
            -1.470392477143376e-01 2.756541486988878e-01 -2.410167841011041e-01 -5.524313392235458e-02 8.362050511113842e-02 1.422623825411400e-02 7.411836607697175e-02 1.568438586413130e-02
            -2.410301904336560e-01 -5.525801488008079e-02 -1.471031537530643e-01 2.757400973269493e-01 7.417807928412726e-02 1.567508521417960e-02 8.359200948797979e-02 1.431934312610387e-02
877622500.0000000000 9.575913958341789e-02 1.653479253290386e-02 8.674019971170648e-02 1.765584297693251e-02 -4.270887479526198e-02 3.099449450927758e-01 -2.428099265343037e-01 3.041750412798942e-02
            8.676757200658762e-02 1.768535128326653e-02 9.570417248594176e-02 1.650860280136332e-02 -2.428108248981974e-01 3.040748096972854e-02 -4.264998685418051e-02 3.098974976147281e-01
            -4.255432914947625e-02 3.099213093992900e-01 -2.427768342112760e-01 3.035020888130653e-02 9.572811973192573e-02 1.617623588625829e-02 8.692275809639839e-02 1.793963065170136e-02
            -2.427751820101592e-01 3.039663265971791e-02 -4.264181501207601e-02 3.098485336169188e-01 8.698325325572873e-02 1.793729823290851e-02 9.566526963880279e-02 1.610507980645599e-02
878455000.0000000000 1.061634807657730e-01 1.002248397050010e-02 9.797239174527686e-02 1.122621251721263e-02 6.664018217818223e-02 3.057043842130218e-01 -2.160671028437829e-01 1.104386431485224e-01
            9.798527358950221e-02 1.119293534169788e-02 1.063034226500016e-01 1.001098456763481e-02 -2.160884145114008e-01 1.104678243074666e-01 6.664771896768773e-02 3.058141131867818e-01
            6.669229339630556e-02 3.057901902740555e-01 -2.161398924130258e-01 1.103441902934930e-01 1.061674270488351e-01 9.662023468781110e-03 9.807416435683781e-02 1.140023396659588e-02
            -2.161935522461146e-01 1.104444582416381e-01 6.657138457455943e-02 3.057498896089347e-01 9.808344743698480e-02 1.150790094339242e-02 1.062409873430144e-01 9.661311356242817e-03
879287500.0000000000 1.100411999538190e-01 -1.621550783496557e-03 1.023997022714245e-01 -9.020167647884673e-04 1.673288905395266e-01 2.647668803637844e-01 -1.646792323739805e-01 1.765480649370109e-01
            1.023115027591263e-01 -9.633172996675860e-04 1.099925632923905e-01 -1.682787746314375e-03 -1.646781385568637e-01 1.765909161132638e-01 1.673493006023893e-01 2.648314391463800e-01
            1.672838847543451e-01 2.648716744251250e-01 -1.646113597574634e-01 1.765233869057000e-01 1.100820369621285e-01 -1.900201009505259e-03 1.024378066706371e-01 -7.616375782598659e-04
            -1.646812050820505e-01 1.765472780342408e-01 1.673095324824080e-01 2.647604954333603e-01 1.024222401483637e-01 -6.722481755052977e-04 1.100870510599159e-01 -1.883601163408614e-03
880120000.0000000000 1.055743528002351e-01 -1.307497254929674e-02 9.806154945379469e-02 -1.316723059726328e-02 2.481994539840982e-01 1.924042320008913e-01 -9.370447841617775e-02 2.216131945014469e-01
            9.793860658233142e-02 -1.305497470144450e-02 1.055966759716751e-01 -1.305572739369983e-02 -9.382239869926155e-02 2.215653427985029e-01 2.482115841372832e-01 1.924407000260694e-01
            2.482296927575240e-01 1.924758126100786e-01 -9.376941126880771e-02 2.215897125190372e-01 1.057301093838347e-01 -1.333849701026039e-02 9.807156624825895e-02 -1.284304452712864e-02
            -9.377560056999996e-02 2.215561384103381e-01 2.482363122729794e-01 1.924252782820497e-01 9.794516816005933e-02 -1.285728399079864e-02 1.055950329168326e-01 -1.331685097248860e-02
880952500.0000000000 9.482535832913795e-02 -1.917732033502257e-02 8.680665927534999e-02 -1.960582440971957e-02 3.004939020193680e-01 9.668944088340455e-02 -1.135245648757312e-02 2.396756383674411e-01
            8.677657863883599e-02 -1.969158570826209e-02 9.478738860372876e-02 -1.908437729074752e-02 -1.131156855925047e-02 2.396248807152813e-01 3.005003776828003e-01 9.670973767015462e-02
            3.005696416233819e-01 9.665342553717400e-02 -1.139252360100160e-02 2.396600465028314e-01 9.484455521951518e-02 -1.943834792246022e-02 8.683369422740517e-02 -1.935219728359343e-02
            -1.132266845943268e-02 2.396912755777384e-01 3.004268858302093e-01 9.673237434704716e-02 8.684662412880315e-02 -1.942014378965102e-02 9.489871141819280e-02 -1.933033302567068e-02
881785000.0000000000 8.251330397680590e-02 -1.680750516186580e-02 7.405357762454796e-02 -1.743055686892028e-02 3.175759208713506e-01 -1.232118240444672e-02 7.249124652168461e-02 2.275997359842003e-01
            7.399306283235699e-02 -1.746015192974964e-02 8.268611595707985e-02 -1.689004709584135e-02 7.244318126963487e-02 2.276042225481690e-01 3.175535535006751e-01 -1.232845045354359e-02
            3.175260026700554e-01 -1.228941738873254e-02 7.248072453471965e-02 2.275642968561435e-01 8.282837648288059e-02 -1.707905963884518e-02 7.398825691590746e-02 -1.727219797687675e-02
            7.237848279570872e-02 2.275780976850785e-01 3.175567494368097e-01 -1.225849549651302e-02 7.406988869883001e-02 -1.716862539821163e-02 8.280227154044152e-02 -1.709429260111684e-02
882617500.0000000000 7.494352012966055e-02 -7.247025653317853e-03 6.567238344112832e-02 -7.586535817975283e-03 2.956228006446937e-01 -1.218063371982241e-01 1.461737060091905e-01 1.865819238013246e-01
            6.576247946275079e-02 -7.409070454564098e-03 7.485433371183524e-02 -7.248127678494192e-03 1.462039391769979e-01 1.865977656981883e-01 2.956873553194511e-01 -1.218398450080464e-01
            2.957332480865003e-01 -1.217781093021321e-01 1.462042110605784e-01 1.865973135166950e-01 7.512394247908698e-02 -7.580387397177349e-03 6.567934772943573e-02 -7.260297631386576e-03
            1.461798647826912e-01 1.865829218336518e-01 2.957312342460260e-01 -1.218013465111102e-01 6.569429480201408e-02 -7.187900861947810e-03 7.507281831353237e-02 -7.511079042042522e-03
883450000.0000000000 7.542380508111921e-02 5.006940990895595e-03 6.606794293481504e-02 5.282408008849829e-03 2.363495890725550e-01 -2.178823592863249e-01 1.998926921179916e-01 1.227894653008386e-01
            6.604603694920082e-02 5.365720514222919e-03 7.535002325916612e-02 4.887537511796765e-03 1.998182783518659e-01 1.228183912622515e-01 2.363975974106685e-01 -2.177646430523998e-01
            2.362753521020322e-01 -2.178932482858572e-01 1.998516256170815e-01 1.228184594662918e-01 7.561768138662962e-02 4.690817342665267e-03 6.610391397443877e-02 5.591538960438975e-03
            1.998379973660890e-01 1.228268308877851e-01 2.364028712210077e-01 -2.177904034897274e-01 6.605778851497569e-02 5.584508173801800e-03 7.563323537850446e-02 4.631812770414924e-03
884282500.0000000000 8.364541129727987e-02 1.364575015429942e-02 7.456800081325242e-02 1.452919216530599e-02 1.465287603148487e-01 -2.869942321762581e-01 2.273588153293107e-01 4.568593781862659e-02
            7.455878051677357e-02 1.458918015525924e-02 8.365919845975758e-02 1.364562533996074e-02 2.274143649081551e-01 4.563467815836618e-02 1.466549541031336e-01 -2.869783984000450e-01
            1.465964406943511e-01 -2.870014128034953e-01 2.273117076499115e-01 4.575024686273344e-02 8.385085415273709e-02 1.334384376368739e-02 7.456806287940969e-02 1.490046433956145e-02
            2.272783134376110e-01 4.576774043348518e-02 1.465759059123587e-01 -2.870057672673972e-01 7.457782193766392e-02 1.487189076738811e-02 8.395587904791650e-02 1.333331109816832e-02
885115000.0000000000 9.547484620188236e-02 1.450172314170081e-02 8.694306817647776e-02 1.583195680549317e-02 3.839946158825963e-02 -3.202943019584262e-01 2.267365591848543e-01 -3.455997170089611e-02
            8.696325879432068e-02 1.580250918257153e-02 9.534077308413867e-02 1.457242088955150e-02 2.267149792393029e-01 -3.458872444156065e-02 3.834969735669127e-02 -3.203091496382708e-01
            3.837263484453134e-02 -3.203521306927758e-01 2.267037020271256e-01 -3.460327141603637e-02 9.556110938289973e-02 1.432115917831865e-02 8.682836918654813e-02 1.612209445354934e-02
            2.267737619579735e-01 -3.455520578639892e-02 3.840366666644630e-02 -3.202489801202347e-01 8.686938444032383e-02 1.607858911502397e-02 9.564580586828947e-02 1.433235026568441e-02
885947500.0000000000 1.046817022840251e-01 7.718094934475402e-03 9.682628076356653e-02 8.780936662628056e-03 -7.399834228246747e-02 -3.140157451811959e-01 1.996782095664644e-01 -1.089711339061542e-01
            9.687246117700393e-02 8.797281427838595e-03 1.046465724239009e-01 7.749079497071351e-03 1.996354925244471e-01 -1.089654776102526e-01 -7.399573695455881e-02 -3.140166035557802e-01
            -7.405958270773816e-02 -3.140716551941893e-01 1.995772052087674e-01 -1.090480916670861e-01 1.049392743507416e-01 7.485718839969307e-03 9.676935162751472e-02 9.053896031832409e-03
            1.995829954155017e-01 -1.090333409797583e-01 -7.408467521055434e-02 -3.141167086066078e-01 9.680256694966401e-02 9.057951398674260e-03 1.049199348507288e-01 7.530592869297975e-03
886780000.0000000000 1.071592341875126e-01 -3.479643903284904e-03 9.981874101401757e-02 -2.917216071784245e-03 -1.771547390212755e-01 -2.701471983231259e-01 1.495571362627958e-01 -1.696483319416967e-01
            9.981290892451587e-02 -2.973042018719800e-03 1.071703219005353e-01 -3.464668826667144e-03 1.494749389506058e-01 -1.696793264547377e-01 -1.772572457372243e-01 -2.701104358713884e-01
            -1.771960026942118e-01 -2.701342703267219e-01 1.495940163005672e-01 -1.696911632335517e-01 1.074858553750674e-01 -3.748846981241347e-03 9.965105720408750e-02 -2.698490749700830e-03
            1.494712314174554e-01 -1.696893784098598e-01 -1.772579986867621e-01 -2.700770542751715e-01 9.951637008853705e-02 -2.788735020447208e-03 1.074504987317285e-01 -3.767702473638169e-03
887612500.0000000000 1.017095644420530e-01 -1.361608364357205e-02 9.421035132017588e-02 -1.377613335498517e-02 -2.595855214478769e-01 -1.939697266860586e-01 8.181558663135440e-02 -2.099688032817157e-01
            9.418920289592299e-02 -1.376296499155272e-02 1.016986508421979e-01 -1.355059505686257e-02 8.173560069649767e-02 -2.099105014811328e-01 -2.596070478637137e-01 -1.939862904161067e-01
            -2.595258072871016e-01 -1.940201287045623e-01 8.172800175474702e-02 -2.099263729138371e-01 1.019667544192642e-01 -1.397059801638302e-02 9.403345904766625e-02 -1.348503841488144e-02
            8.179352002351911e-02 -2.099369530682523e-01 -2.595399961645080e-01 -1.940574927681878e-01 9.402163237308676e-02 -1.352180033721985e-02 1.019638848934916e-01 -1.388844431360671e-02
888445000.0000000000 9.085774539407629e-02 -1.762616370151573e-02 8.278084745913698e-02 -1.839194433018275e-02 -3.117841586088816e-01 -9.409365835587348e-02 3.946920836632541e-03 -2.244213216176481e-01
            8.285295043501605e-02 -1.841549720469186e-02 9.080693007205606e-02 -1.766445111635939e-02 3.813336097832647e-03 -2.243239396633057e-01 -3.118673064021921e-01 -9.408535546862114e-02
            -3.118353227868805e-01 -9.404721405679400e-02 3.845917274530504e-03 -2.243545884879633e-01 9.114523125565252e-02 -1.798720676237445e-02 8.263262436222218e-02 -1.818129259713847e-02
            3.829427727478366e-03 -2.243288045495882e-01 -3.118344663636131e-01 -9.405424223371195e-02 8.259453636636822e-02 -1.813184840656721e-02 9.103461816263271e-02 -1.801365337426821e-02
889277500.0000000000 7.982911167551955e-02 -1.359162186681470e-02 7.093862833489428e-02 -1.442091623751532e-02 -3.271149389181485e-01 1.890246647191308e-02 -7.415861164862399e-02 -2.103193995812967e-01
            7.090898070024512e-02 -1.446020276594808e-02 7.981827913177714e-02 -1.347124543008966e-02 -7.409908050757494e-02 -2.102867577670814e-01 -3.271169901959460e-01 1.888184981831196e-02
            -3.270844320205367e-01 1.881363323918546e-02 -7.413331146064721e-02 -2.103184158354462e-01 8.008724834426924e-02 -1.395918154881611e-02 7.072692757257029e-02 -1.409421634564843e-02
            -7.417351850593136e-02 -2.102651840201785e-01 -3.270955375123430e-01 1.888079598538945e-02 7.074534321225952e-02 -1.403357568976088e-02 7.999368689230243e-02 -1.387148439470750e-02
890110000.0000000000 7.417950628035812e-02 -3.037773052489261e-03 6.452692971823833e-02 -3.605233488495767e-03 -3.022040864069945e-01 1.314223369850342e-01 -1.415622654470818e-01 -1.695952953179862e-01
            6.461802143452168e-02 -3.520861815673822e-03 7.416191895279917e-02 -3.029221791545291e-03 -1.415164831254420e-01 -1.696394564367836e-01 -3.021340097844275e-01 1.313953566621893e-01
            -3.020917432678009e-01 1.314289432549083e-01 -1.415416614756442e-01 -1.696058699553034e-01 7.436266211883306e-02 -3.432069174367811e-03 6.438466059655074e-02 -3.082046674643765e-03
            -1.415169770251191e-01 -1.695764721778711e-01 -3.021058764356027e-01 1.314521567860388e-01 6.435223983865647e-02 -3.068728268592130e-03 7.438665613958088e-02 -3.469471679363769e-03
890942500.0000000000 7.690820642055204e-02 8.761492491670974e-03 6.686851135292725e-02 8.956421389828936e-03 -2.387020647960185e-01 2.288918151932454e-01 -1.894505060501921e-01 -1.086740876421605e-01
            6.691979770857501e-02 8.943392877603061e-03 7.688988194819449e-02 8.730519800807395e-03 -1.894115570548448e-01 -1.085710710468893e-01 -2.386983842743903e-01 2.288133200278853e-01
            -2.387388142959443e-01 2.288333939449929e-01 -1.893672837070771e-01 -1.085974460740531e-01 7.705163918119062e-02 8.354348669667283e-03 6.679418379844643e-02 9.516456025204711e-03
            -1.893978103451373e-01 -1.085170650553656e-01 -2.386781645941968e-01 2.288279888025690e-01 6.680779501120823e-02 9.522120039830920e-03 7.699870862132062e-02 8.294466147646297e-03
891775000.0000000000 8.672401286516399e-02 1.584609526040886e-02 7.675220170886733e-02 1.686019229221172e-02 -1.449308793905099e-01 2.978112611757899e-01 -2.125000532942278e-01 -3.621537496810752e-02
            7.669861678132148e-02 1.685408493014446e-02 8.674860517980738e-02 1.587740679148965e-02 -2.124389460867251e-01 -3.605969860860202e-02 -1.448750530448318e-01 2.978786624829889e-01
            -1.449231442626709e-01 2.978688900404977e-01 -2.124821698267509e-01 -3.610111274074387e-02 8.666785895176102e-02 1.536114206084623e-02 7.675265220859322e-02 1.727749336545062e-02
            -2.125084986561634e-01 -3.619715780534073e-02 -1.449478195525977e-01 2.978780224180269e-01 7.669329893751284e-02 1.734882514569584e-02 8.673647321895588e-02 1.538222625083348e-02
892607500.0000000000 9.867448428862902e-02 1.482792039629475e-02 8.920675517962783e-02 1.644423342035962e-02 -3.322805015249165e-02 3.296331284610498e-01 -2.096705103359540e-01 3.827333631462088e-02
            8.923885233617282e-02 1.642409827464661e-02 9.867115916247744e-02 1.478052166664177e-02 -2.097249147540643e-01 3.825187289040708e-02 -3.334596719536689e-02 3.296411840793610e-01
            -3.326023243404263e-02 3.296694152776886e-01 -2.097590179573971e-01 3.822348655124844e-02 9.855917280257849e-02 1.444393612583021e-02 8.926843190053403e-02 1.683175676461570e-02
            -2.096545605071785e-01 3.817805579477949e-02 -3.322172770953711e-02 3.296398549893772e-01 8.933737001184307e-02 1.685166044260948e-02 9.860895465251553e-02 1.444018156267855e-02
893440000.0000000000 1.071403059364136e-01 6.499488001044800e-03 9.835092475915748e-02 8.090403948150787e-03 8.183053622188768e-02 3.210072437888628e-01 -1.825192460434746e-01 1.065539311917697e-01
            9.845760407954383e-02 8.131179146967355e-03 1.071325599097608e-01 6.433740635350230e-03 -1.824712838385971e-01 1.065879855169496e-01 8.182454178483112e-02 3.210455979203524e-01
            8.193488331635509e-02 3.210721339134543e-01 -1.825669433502101e-01 1.065087824678329e-01 1.070371270531639e-01 6.054990345732236e-03 9.843393794800512e-02 8.482134274656423e-03
            -1.825423722461145e-01 1.065321467761784e-01 8.184617636152693e-02 3.209568745439381e-01 9.850874712507708e-02 8.457812014962741e-03 1.070325022769213e-01 6.133318650683697e-03
894272500.0000000000 1.081231265106443e-01 -5.395156097699741e-03 9.986583449288289e-02 -4.111968771866221e-03 1.868612816181527e-01 2.740096076780095e-01 -1.343191482992609e-01 1.617064219363539e-01
            9.997221764770046e-02 -4.109024417147907e-03 1.080990283435118e-01 -5.441316945917641e-03 -1.343231698950762e-01 1.617103384918981e-01 1.867574374608627e-01 2.742166108914987e-01
            1.868764011597499e-01 2.740774728521301e-01 -1.343736628144699e-01 1.617015657593471e-01 1.080279962955822e-01 -5.631429986966692e-03 9.994886357650473e-02 -3.824203282991035e-03
            -1.342763878095675e-01 1.616203268795973e-01 1.868816356644422e-01 2.741014456368810e-01 9.999180776341002e-02 -3.836460423159639e-03 1.080404158180535e-01 -5.616804265417947e-03
895105000.0000000000 1.013341693090760e-01 -1.511385173164971e-02 9.317252080140800e-02 -1.448072839521359e-02 2.699391327356463e-01 1.945380279889375e-01 -7.010140976336883e-02 1.972794230455773e-01
            9.323150656482473e-02 -1.446587011503570e-02 1.013505696701338e-01 -1.509848931587006e-02 -7.009967559504607e-02 1.973215197515451e-01 2.699700426850398e-01 1.945910264586187e-01
            2.700407026047321e-01 1.945317723688957e-01 -7.011519322647973e-02 1.973228692273283e-01 1.012476648255277e-01 -1.526486961690371e-02 9.325789882189126e-02 -1.415406033736363e-02
            -7.014092545797858e-02 1.972605251948848e-01 2.699251834804054e-01 1.945559978155464e-01 9.327509677693993e-02 -1.417680169948010e-02 1.012454943165804e-01 -1.531872233491454e-02
895937500.0000000000 8.984774217817297e-02 -1.816904135158105e-02 8.135931805062349e-02 -1.798103558652070e-02 3.218418671943797e-01 9.085820120224422e-02 2.867171581428458e-03 2.083476611332501e-01
            8.140728490868082e-02 -1.795783796513221e-02 8.979766565251174e-02 -1.811023920681010e-02 2.882763098472220e-03 2.083696470753916e-01 3.217803998106706e-01 9.081791935399185e-02
            3.218088606001825e-01 9.087500738490431e-02 2.833038549248409e-03 2.083208178859463e-01 8.954501579389713e-02 -1.814721049846763e-02 8.138732580301407e-02 -1.773211627097246e-02
            2.858888790366912e-03 2.083438523892382e-01 3.217702515493376e-01 9.087439919176665e-02 8.139407086570023e-02 -1.768137206141932e-02 8.963542180020642e-02 -1.824596149664461e-02
896770000.0000000000 7.918298353477626e-02 -1.278366751602910e-02 7.010387499965964e-02 -1.282076330410228e-02 3.353884427395180e-01 -2.541385318107809e-02 7.499363649968746e-02 1.928650132784171e-01
            7.009612489602378e-02 -1.276044396773354e-02 7.919155142347795e-02 -1.281980647742632e-02 7.501437917540828e-02 1.927821751898667e-01 3.353641429492720e-01 -2.547840673401257e-02
            3.353200872323877e-01 -2.540515869631969e-02 7.491384235026391e-02 1.927957020939046e-01 7.887795277389006e-02 -1.282107538877988e-02 6.997878769249244e-02 -1.251726605332836e-02
            7.497106620554288e-02 1.927688925455818e-01 3.352976438305305e-01 -2.544755823234179e-02 7.003794776845444e-02 -1.252886308682199e-02 7.891944443295656e-02 -1.281689990900915e-02
897602500.0000000000 7.464744665746384e-02 -1.664619267596401e-03 6.485586503499444e-02 -1.364162943347188e-03 3.073160535140082e-01 -1.404827974992166e-01 1.361475158037431e-01 1.527543760903766e-01
            6.484396489964088e-02 -1.435602946454675e-03 7.456164457498282e-02 -1.672422277597301e-03 1.361981997347681e-01 1.527516696566710e-01 3.073223807250470e-01 -1.404354787868624e-01
            3.073844248148905e-01 -1.404783871898402e-01 1.361292257300734e-01 1.527804192362130e-01 7.433676111464908e-02 -1.588180514007015e-03 6.466139416186074e-02 -1.066471990780644e-03
            1.361586065488723e-01 1.527740168860773e-01 3.073709505065207e-01 -1.404425912312315e-01 6.473460400435302e-02 -1.062732167727433e-03 7.439651833290342e-02 -1.588875514249902e-03
898435000.0000000000 7.857707743737524e-02 9.652796370645174e-03 6.844095671827879e-02 1.059726647688357e-02 2.403305619976557e-01 -2.389424795779655e-01 1.783878364549812e-01 9.472916352137201e-02
            6.841473919784291e-02 1.058634575940994e-02 7.856062491745681e-02 9.706714645146565e-03 1.784049153762085e-01 9.472887533924428e-02 2.403470057607021e-01 -2.389985176758921e-01
            2.403522325147107e-01 -2.390499380245629e-01 1.783759157381396e-01 9.469641800006599e-02 7.836016636906500e-02 9.802497491303347e-03 6.823645409008995e-02 1.095288017990705e-02
            1.784341789597572e-01 9.469861788516205e-02 2.403512981810306e-01 -2.390268801852058e-01 6.830527757874690e-02 1.096151555047125e-02 7.836588753964537e-02 9.842546077466846e-03
899267500.0000000000 8.898418114497968e-02 1.550748629669900e-02 7.904443454305335e-02 1.725898720386956e-02 1.429678476741013e-01 -3.076872346883412e-01 1.973964444112577e-01 2.710806769872451e-02
            7.899824670410169e-02 1.727954767830425e-02 8.911658976135087e-02 1.553672082217992e-02 1.973013928749867e-01 2.707513332328188e-02 1.428871736996316e-01 -3.077502873972235e-01
            1.429049987968721e-01 -3.077229577122414e-01 1.973624025141929e-01 2.708364503838331e-02 8.889782739802708e-02 1.582426758385065e-02 7.880090129041062e-02 1.763049290382216e-02
            1.973776597953171e-01 2.711182091006497e-02 1.429884782492850e-01 -3.077617494198687e-01 7.870388697014111e-02 1.766663366450117e-02 8.876542976536675e-02 1.585405922860846e-02
900100000.0000000000 1.007752904600322e-01 1.315333200569434e-02 9.111965677770784e-02 1.540986725619270e-02 2.810730868929892e-02 -3.380560473527287e-01 1.924319073111161e-01 -4.140694735077664e-02
            9.123369489938664e-02 1.543476700895767e-02 1.007807845107319e-01 1.312973518439345e-02 1.924881853784315e-01 -4.146927039333508e-02 2.815330866455137e-02 -3.380182884932913e-01
            2.808793589696073e-02 -3.380705115969984e-01 1.924526008176036e-01 -4.151369151097050e-02 1.006246345143007e-01 1.357857858543206e-02 9.110915306545399e-02 1.591758873135624e-02
            1.924956491888559e-01 -4.148201131303157e-02 2.815744095894828e-02 -3.380742239569429e-01 9.103134958029988e-02 1.592854051004748e-02 1.006003459825646e-01 1.360659745723940e-02
900932500.0000000000 1.080788317852653e-01 3.813263829607995e-03 9.923603427183710e-02 6.175235754219867e-03 -8.937147902389454e-02 -3.272111891958240e-01 1.653813658240628e-01 -1.037365708100257e-01
            9.919966813475783e-02 6.146153362535230e-03 1.081157484011486e-01 3.789682258390441e-03 1.652828887136286e-01 -1.037823223569782e-01 -8.942130730012053e-02 -3.271993071364898e-01
            -8.933403603585524e-02 -3.272117666951129e-01 1.653912812877342e-01 -1.037342749947164e-01 1.080896747441834e-01 4.254940534179609e-03 9.914727658301226e-02 6.696624509874339e-03
            1.654144462769502e-01 -1.037098877092792e-01 -8.933582790222883e-02 -3.272045507367713e-01 9.913163050267008e-02 6.733304698494437e-03 1.081460866376679e-01 4.292798629005613e-03
901765000.0000000000 1.077471195686702e-01 -8.023405794867778e-03 9.933605302029341e-02 -6.115939907980645e-03 -1.959129657895441e-01 -2.773835655571583e-01 1.191665721297157e-01 -1.532010926841604e-01
            9.939514014868528e-02 -6.123793882434874e-03 1.076892634594976e-01 -8.042252436549560e-03 1.191085953838440e-01 -1.532675120157460e-01 -1.960681257532818e-01 -2.774490694830205e-01
            -1.959474534480591e-01 -2.773412834900804e-01 1.192056638900374e-01 -1.532768951867257e-01 1.078537091889905e-01 -7.553656024227549e-03 9.937257379345701e-02 -5.573191157298066e-03
            1.191897814953684e-01 -1.532746468723814e-01 -1.960012304936468e-01 -2.773586323334425e-01 9.936474243450184e-02 -5.528397245242228e-03 1.078578951324665e-01 -7.491101802989307e-03
902597500.0000000000 9.978680098155178e-02 -1.689366165691512e-02 9.147387556671560e-02 -1.565233387540559e-02 -2.797328484859303e-01 -1.944691021659793e-01 5.849953978891532e-02 -1.841543479621936e-01
            9.153011782999529e-02 -1.564006266910092e-02 9.972867839395679e-02 -1.691975451478177e-02 5.863155299769560e-02 -1.841507364398007e-01 -2.797663814847942e-01 -1.944493573946089e-01
            -2.797574448871722e-01 -1.944586526194628e-01 5.867783568726672e-02 -1.842584173117780e-01 1.000423192022934e-01 -1.642800921722431e-02 9.172227907358849e-02 -1.501281796670731e-02
            5.855997022959217e-02 -1.841950367205341e-01 -2.797334931819573e-01 -1.943983876253128e-01 9.172208999052062e-02 -1.504985395783216e-02 1.000317448471473e-01 -1.641988878481739e-02
903430000.0000000000 8.795497428917950e-02 -1.849379061501043e-02 7.930134301401841e-02 -1.774660690195031e-02 -3.310729660615180e-01 -8.736444097871915e-02 -9.295567358465812e-03 -1.919855336461250e-01
            7.916964141863569e-02 -1.784706419737298e-02 8.797554049128845e-02 -1.847408553037917e-02 -9.259618585411180e-03 -1.920302471639813e-01 -3.310907876310456e-01 -8.728922536339424e-02
            -3.311079217520221e-01 -8.728084750759429e-02 -9.331654340448501e-03 -1.919449921138049e-01 8.830452961557937e-02 -1.811509267493388e-02 7.949647693608489e-02 -1.728465352466547e-02
            -9.287547524118480e-03 -1.919715016677112e-01 -3.310176887144972e-01 -8.742409106297934e-02 7.950743101957747e-02 -1.728842663206894e-02 8.837049856678446e-02 -1.811095730003588e-02
904262500.0000000000 7.806764312188230e-02 -1.195136069574126e-02 6.848906363918340e-02 -1.139720072743520e-02 -3.426597039996690e-01 3.201536578455799e-02 -7.531847533168000e-02 -1.749982571559615e-01
            6.852140358613817e-02 -1.144283276430063e-02 7.796917826302259e-02 -1.201766176716281e-02 -7.531998548677053e-02 -1.750421621103253e-01 -3.426163279133607e-01 3.206202376881709e-02
            -3.426690955579921e-01 3.209573177125287e-02 -7.531348824885439e-02 -1.749907665766044e-01 7.840617985035082e-02 -1.175579006399824e-02 6.870445842716497e-02 -1.104935493769154e-02
            -7.537316615875951e-02 -1.749667426292313e-01 -3.426661657727149e-01 3.208581358571334e-02 6.876188146225559e-02 -1.108119701348518e-02 7.837191333807264e-02 -1.171697546260827e-02
905095000.0000000000 7.474629757229044e-02 -4.872614719341157e-04 6.435998876172019e-02 3.966221558678993e-04 -3.117130541369591e-01 1.492289205335836e-01 -1.303124627678761e-01 -1.358863987773549e-01
            6.438260538946908e-02 5.249893606510415e-04 7.479793611337975e-02 -4.284266157998122e-04 -1.301947901043539e-01 -1.359090390993700e-01 -3.117910990931493e-01 1.492395524200879e-01
            -3.117474499470894e-01 1.492820470925506e-01 -1.301996036782078e-01 -1.359044978115118e-01 7.520635933163769e-02 -2.318491663560332e-04 6.463220000649886e-02 8.053726916516313e-04
            -1.302350968087829e-01 -1.359207978849878e-01 -3.117827013761485e-01 1.491992298205548e-01 6.460420313259452e-02 7.152038942544525e-04 7.517903100211377e-02 -2.358009942564042e-04
905927500.0000000000 8.007690995316363e-02 1.036032540393488e-02 6.905338921067393e-02 1.215698040131048e-02 -2.412927055567803e-01 2.485253918799605e-01 -1.668794292266065e-01 -8.099915749480181e-02
            6.903633282892328e-02 1.210797020430923e-02 7.997673918268071e-02 1.026292001799568e-02 -1.668927905717843e-01 -8.097819377987124e-02 -2.413039845475848e-01 2.486220355244798e-01
            -2.412932640594321e-01 2.486085870121006e-01 -1.669104272417570e-01 -8.098026350884857e-02 8.038688063311905e-02 1.047674433909570e-02 6.925744994724939e-02 1.230213990091403e-02
            -1.668949384047926e-01 -8.098370256028548e-02 -2.412580299552082e-01 2.485438826999085e-01 6.921488192798633e-02 1.239530980796698e-02 8.030145701066031e-02 1.037487173883818e-02
906760000.0000000000 9.103561409067468e-02 1.473931336722811e-02 8.009976091458948e-02 1.789173554294774e-02 -1.405093783738945e-01 3.167772850659848e-01 -1.819114148839539e-01 -1.836336392456871e-02
            8.010681638338597e-02 1.787896042870265e-02 9.106123484859593e-02 1.473003829157258e-02 -1.817987561805771e-01 -1.837062774505328e-02 -1.405328714254475e-01 3.168202582896582e-01
            -1.405482941306420e-01 3.168039094651914e-01 -1.818938015645493e-01 -1.828013398599285e-02 9.128673352041523e-02 1.496970493991824e-02 8.016551195565967e-02 1.801467313602259e-02
            -1.818493390277154e-01 -1.832950537523712e-02 -1.405303043980821e-01 3.167720860726466e-01 8.009790453083969e-02 1.803612082530029e-02 9.132685122424727e-02 1.497684132923627e-02
907592500.0000000000 1.022813233093214e-01 1.093416755758485e-02 9.188875754184407e-02 1.511331542369961e-02 -2.286814378824812e-02 3.456346776007951e-01 -1.750478181541085e-01 4.428963258731523e-02
            9.193669151480584e-02 1.505552927709473e-02 1.023036253297064e-01 1.096850931773654e-02 -1.749830387500193e-01 4.432216557903093e-02 -2.289750832406073e-02 3.456114531356149e-01
            -2.292149697759496e-02 3.456475828133252e-01 -1.749899036561560e-01 4.437896791441717e-02 1.025570803791918e-01 1.110303986643236e-02 9.199599830960858e-02 1.528311824107267e-02
            -1.749899716584763e-01 4.431717165191455e-02 -2.291624567716328e-02 3.456191578474453e-01 9.194355158923818e-02 1.534387216605060e-02 1.024675868867278e-01 1.112668468196860e-02
908425000.0000000000 1.085039969145142e-01 7.261756900146727e-04 9.905150785762754e-02 5.560894223972680e-03 9.680325209905777e-02 3.325655555338965e-01 -1.480039190505388e-01 1.005350012971356e-01
            9.903959824014286e-02 5.535204503450856e-03 1.083856070391495e-01 7.100931498105522e-04 -1.479728661869120e-01 1.005395002447415e-01 9.676351271181832e-02 3.325920960501204e-01
            9.681523993786911e-02 3.326006773005686e-01 -1.480522001928397e-01 1.005117075321496e-01 1.085592300061850e-01 9.396158205856629e-04 9.897067029735029e-02 5.670649871088504e-03
            -1.480320623617615e-01 1.005153438765731e-01 9.679713670327385e-02 3.325398273372887e-01 9.901599776939674e-02 5.674185648312582e-03 1.085434250218272e-01 9.109128954541168e-04
909257500.0000000000 1.063625396126122e-01 -1.095843971937386e-02 9.813159900808410e-02 -6.220660893852314e-03 2.048529949372694e-01 2.799826665823316e-01 -1.038505653661643e-01 1.443647702229516e-01
            9.821028577077168e-02 -6.127830813160193e-03 1.064301336870916e-01 -1.101904653759080e-02 -1.039035873618589e-01 1.444720401951843e-01 2.048342036910326e-01 2.799260315743760e-01
            2.048261761677900e-01 2.799281088023501e-01 -1.038898198607546e-01 1.444450160487896e-01 1.066193313083001e-01 -1.086161995912026e-02 9.809795186311285e-02 -5.910677863918932e-03
            -1.038938891283426e-01 1.443471474544688e-01 2.048267162562573e-01 2.799077415327874e-01 9.813919861982519e-02 -6.015925072506383e-03 1.066048561853985e-01 -1.083095366750029e-02
910090000.0000000000 9.725217307892410e-02 -1.897444967131957e-02 8.996126046801937e-02 -1.434553679488261e-02 2.890463885673025e-01 1.937856519414910e-01 -4.716983727284710e-02 1.705749145494145e-01
            8.995528624566371e-02 -1.453787235806230e-02 9.729006093633451e-02 -1.892150996610153e-02 -4.715395885174238e-02 1.706074601827167e-01 2.890900277830783e-01 1.937639850501995e-01
            2.891313369694933e-01 1.938427316970395e-01 -4.716058179537224e-02 1.705962538044718e-01 9.738504574131160e-02 -1.878053709332441e-02 8.987480735325661e-02 -1.429384056795557e-02
            -4.712844668258597e-02 1.705479432591612e-01 2.890583463179579e-01 1.938160443657732e-01 8.988494070299000e-02 -1.435849151695837e-02 9.738192029824913e-02 -1.876661542767490e-02
910922500.0000000000 8.506345602065334e-02 -1.907906082406099e-02 7.827662000242423e-02 -1.526872039914506e-02 3.395967727425099e-01 8.337076553351999e-02 1.544719231021503e-02 1.751159932014943e-01
            7.823482431485781e-02 -1.525619051003114e-02 8.495487247052431e-02 -1.909004713193331e-02 1.549782571347623e-02 1.751056399487479e-01 3.395380753065283e-01 8.342246939277613e-02
            3.395620107758108e-01 8.331024331494148e-02 1.546641283505588e-02 1.750750241421284e-01 8.516906628417079e-02 -1.893150101101666e-02 7.821887201971035e-02 -1.503595777822051e-02
            1.542274536947727e-02 1.750557615243729e-01 3.395280025751857e-01 8.333339967506243e-02 7.819014291489440e-02 -1.509026276987960e-02 8.509162131088124e-02 -1.887684345719472e-02
911755000.0000000000 7.560709084548099e-02 -1.114872142092047e-02 6.899219938625960e-02 -7.999980874635307e-03 3.490534545598836e-01 -3.886439520870125e-02 7.526132561933944e-02 1.568680002361448e-01
            6.896421388306082e-02 -8.027673573271705e-03 7.562289966669386e-02 -1.117050074399900e-02 7.525277113520865e-02 1.568205890574520e-01 3.491604481719747e-01 -3.893048767280959e-02
            3.491120499383615e-01 -3.894390432173714e-02 7.517274855220085e-02 1.569237378591992e-01 7.570052716488126e-02 -1.097092198306464e-02 6.885808433334775e-02 -7.813941763222563e-03
            7.522269747926463e-02 1.568220762590326e-01 3.490732831880852e-01 -3.887047194391793e-02 6.883608136491264e-02 -7.856644855115244e-03 7.567254247490306e-02 -1.091623032029975e-02
912587500.0000000000 7.357750452376513e-02 1.022446327815645e-03 6.682511487556206e-02 3.719097336580876e-03 3.152269263529285e-01 -1.578296656861586e-01 1.236958044688773e-01 1.189045201255320e-01
            6.681052113064680e-02 3.731787857584331e-03 7.363998227003367e-02 1.020366020673854e-03 1.236888245524872e-01 1.188875654014624e-01 3.151441616944932e-01 -1.578154408564622e-01
            3.150901642508158e-01 -1.577846557298677e-01 1.236421232200048e-01 1.188639226277378e-01 7.364526822847223e-02 1.104380962870496e-03 6.658828017575387e-02 3.984721885343754e-03
            1.236859815907627e-01 1.188604495419303e-01 3.151557372896021e-01 -1.577715000300532e-01 6.660388433279796e-02 3.976310952529521e-03 7.362843374450895e-02 1.209586731861205e-03
913420000.0000000000 8.004976170307526e-02 1.144171551147895e-02 7.300854213801998e-02 1.405620443390710e-02 2.413081497900742e-01 -2.576191477361839e-01 1.547166900029198e-01 6.737709440828935e-02
            7.314445772404952e-02 1.396568725871886e-02 8.004891553800966e-02 1.146433214064840e-02 1.547290359002892e-01 6.737211094888766e-02 2.413287004509561e-01 -2.575823739212938e-01
            2.413928700421486e-01 -2.576083349804181e-01 1.547119065700936e-01 6.731969963357534e-02 7.991593338023126e-02 1.170807708577581e-02 7.287577279885475e-02 1.436093164070060e-02
            1.547117167541742e-01 6.733036250734664e-02 2.413565341671951e-01 -2.575288357700978e-01 7.281685730395580e-02 1.422118491603353e-02 8.005385429054490e-02 1.171251752368051e-02
914252500.0000000000 9.156930186533729e-02 1.511024328914103e-02 8.457800217321340e-02 1.771925194792739e-02 1.375371869511411e-01 -3.251079816760870e-01 1.657674644406533e-01 9.884620213552403e-03
            8.461422606700274e-02 1.773351532622902e-02 9.163409450843162e-02 1.507137461034717e-02 1.657884308323208e-01 9.896624987392334e-03 1.376185520898357e-01 -3.250885217106413e-01
            1.374952385503683e-01 -3.250331202838304e-01 1.657578161079452e-01 9.927367826775687e-03 9.146073292465494e-02 1.531113113709416e-02 8.436346188636408e-02 1.792728242835897e-02
            1.657879466110657e-01 9.918802470996375e-03 1.375223477123413e-01 -3.250020035865727e-01 8.433404633022455e-02 1.797180694147773e-02 9.151564050865792e-02 1.531172008927059e-02
915085000.0000000000 1.026676636588597e-01 1.047672433020905e-02 9.577104863479453e-02 1.307610542499148e-02 1.738884465811685e-02 -3.522697873602464e-01 1.572051091800119e-01 -4.660808447671399e-02
            9.582525724971894e-02 1.309402302955165e-02 1.026420878346589e-01 1.032060840356352e-02 1.571642609249406e-01 -4.671344272765390e-02 1.745811132711306e-02 -3.522057779442092e-01
            1.741658851335851e-02 -3.522619939816043e-01 1.571429227703561e-01 -4.670562364264813e-02 1.025005347360308e-01 1.066802672904871e-02 9.547057665274668e-02 1.329470324021386e-02
            1.571912888882783e-01 -4.674741816581912e-02 1.734772717176367e-02 -3.522188540732604e-01 9.557717208978965e-02 1.327227320702840e-02 1.024961155910197e-01 1.062044378761903e-02
915917500.0000000000 1.079086106491715e-01 -1.783778387292253e-04 1.013757587472697e-01 2.361221432036425e-03 -1.041211929662267e-01 -3.369121164303163e-01 1.306062723156903e-01 -9.677081373744088e-02
            1.013847695643524e-01 2.311780911698019e-03 1.078520850135475e-01 -2.058750273273717e-04 1.305318012637962e-01 -9.670487183988469e-02 -1.040821426143890e-01 -3.368761386649338e-01
            -1.041276936362350e-01 -3.368911209395316e-01 1.305544317947514e-01 -9.675203910679737e-02 1.076918320683981e-01 2.920681954889499e-05 1.010817064365416e-01 2.568283086978560e-03
            1.305265541716349e-01 -9.670861055630858e-02 -1.040712908147170e-01 -3.369097986588053e-01 1.011211518225706e-01 2.526735470936152e-03 1.075992450008488e-01 1.363112993083796e-06
916750000.0000000000 1.051767152255841e-01 -1.166236399136284e-02 9.884775209022263e-02 -9.623045384479821e-03 -2.131250215152763e-01 -2.816069771685121e-01 8.872862879103594e-02 -1.349992015234412e-01
            9.886023850233648e-02 -9.616580097366234e-03 1.050026190801980e-01 -1.161139175533976e-02 8.872442854221560e-02 -1.349767490572693e-01 -2.130964806712753e-01 -2.815954760343109e-01
            -2.131598872144362e-01 -2.815945867613117e-01 8.872718712481122e-02 -1.349697732065125e-01 1.048369033423696e-01 -1.135502312250706e-02 9.850110391326491e-02 -9.352646524304408e-03
            8.874162836329100e-02 -1.350028655777119e-01 -2.131074834220842e-01 -2.816335816342032e-01 9.844134782449893e-02 -9.365961950927334e-03 1.047399613213928e-01 -1.140248214937569e-02
917582500.0000000000 9.565902341078454e-02 -1.854884962529650e-02 8.934763327224965e-02 -1.704338127338254e-02 -2.975449521630683e-01 -1.925537730127317e-01 3.605772059869376e-02 -1.565470978648400e-01
            8.923765112149627e-02 -1.715884526554001e-02 9.560102259898748e-02 -1.858094092988803e-02 3.601736628921849e-02 -1.565135481099618e-01 -2.975895490927232e-01 -1.924148160150528e-01
            -2.975528633944880e-01 -1.924135956367660e-01 3.605712820018888e-02 -1.565115680467888e-01 9.509308035723306e-02 -1.823750559808889e-02 8.870693587656546e-02 -1.686207726917063e-02
            3.597338866612123e-02 -1.565727901494807e-01 -2.974718191314205e-01 -1.923818472632380e-01 8.871750178003564e-02 -1.687178771326089e-02 9.506114075065654e-02 -1.822551166643453e-02
918415000.0000000000 8.383027514038233e-02 -1.762699991488378e-02 7.722889296885502e-02 -1.669948724401174e-02 -3.470068534892828e-01 -7.913223533850593e-02 -2.109819537425023e-02 -1.579828781247024e-01
            7.721310564872433e-02 -1.671727369344926e-02 8.382594858797170e-02 -1.756743082565224e-02 -2.108151731294006e-02 -1.578980765177026e-01 -3.469444305352156e-01 -7.908552463120477e-02
            -3.469277458680382e-01 -7.909713733020443e-02 -2.109280763214577e-02 -1.579294106429264e-01 8.314627602479728e-02 -1.720998141762136e-02 7.648556461680127e-02 -1.637390686131468e-02
            -2.112178387723451e-02 -1.579431687447296e-01 -3.470407658246827e-01 -7.912819768387408e-02 7.640891410035161e-02 -1.636265619996490e-02 8.314008100045833e-02 -1.714934259080278e-02
919247500.0000000000 7.566070246668918e-02 -9.098434902354405e-03 6.835525092120256e-02 -8.614395444532198e-03 -3.544527834180577e-01 4.558676606682892e-02 -7.454060474952194e-02 -1.386717551852600e-01
            6.828889215317552e-02 -8.507637121943473e-03 7.560134781786665e-02 -9.171436812715259e-03 -7.452596703246617e-02 -1.387393647724368e-01 -3.544351881294895e-01 4.563425639636213e-02
            -3.544747953666789e-01 4.561089720739656e-02 -7.460318498525209e-02 -1.387426837416255e-01 7.469441319234307e-02 -8.484901400734055e-03 6.731151262157173e-02 -8.078954318258964e-03
            -7.465163431937823e-02 -1.386301136948672e-01 -3.544747116158801e-01 4.560619807119050e-02 6.731753026757131e-02 -8.039891430471634e-03 7.464269015181868e-02 -8.455763207427755e-03
920080000.0000000000 7.510313807412863e-02 2.699809654735224e-03 6.702535048948710e-02 3.360194851588792e-03 -3.177125081680974e-01 1.658647262094601e-01 -1.166801834788504e-01 -1.020664738259916e-01
            6.702027851540680e-02 3.241698710887080e-03 7.511216739633871e-02 2.610828390186955e-03 -1.166587146642313e-01 -1.019378754005678e-01 -3.177404154276278e-01 1.659274873538938e-01
            -3.176940624650762e-01 1.659279448495518e-01 -1.165898190531339e-01 -1.020308469949391e-01 7.394212202595912e-02 3.664383932402165e-03 6.594032016368645e-02 4.257677699032947e-03
            -1.165681486502260e-01 -1.019554240202263e-01 -3.176642839286841e-01 1.659408667231734e-01 6.592785101306144e-02 4.268236976663088e-03 7.402822668799666e-02 3.637928101561229e-03
920912500.0000000000 8.239683071423146e-02 1.178637009524186e-02 7.385432604470926e-02 1.295399359522181e-02 -2.408695243956312e-01 2.658543251046632e-01 -1.423044775653625e-01 -5.395320397413048e-02
            7.385756631340584e-02 1.295956870999680e-02 8.238398505482918e-02 1.176890461696008e-02 -1.422676621436681e-01 -5.405072722212322e-02 -2.408539808371855e-01 2.659314274085314e-01
            -2.408678275270641e-01 2.659297034582341e-01 -1.422399261290138e-01 -5.408991047439106e-02 8.137421394313171e-02 1.328323652793924e-02 7.277159839208205e-02 1.425581334170183e-02
            -1.422329046724348e-01 -5.399884429252161e-02 -2.409244910314002e-01 2.658783575548405e-01 7.282940674357276e-02 1.431132115863031e-02 8.135640412421570e-02 1.326994029193088e-02
921745000.0000000000 9.389791382611232e-02 1.370889580121920e-02 8.518120647105772e-02 1.559348757737779e-02 -1.343198776829848e-01 3.324618418373785e-01 -1.495830874157608e-01 -1.690515432954498e-03
            8.529025983855115e-02 1.548884743699372e-02 9.395084921521721e-02 1.374909583522736e-02 -1.496625948070401e-01 -1.723647942054184e-03 -1.342063070403471e-01 3.325019486151772e-01
            -1.343243663960184e-01 3.324762602630553e-01 -1.495728672464444e-01 -1.679289461612260e-03 9.301165013490566e-02 1.568050044139183e-02 8.437416333926095e-02 1.733828333962177e-02
            -1.496030322157320e-01 -1.805931134693493e-03 -1.343691120727486e-01 3.324465568582730e-01 8.439979196828712e-02 1.734924317066325e-02 9.297261003099476e-02 1.577209675207419e-02
922577500.0000000000 1.037994252296581e-01 7.823717726918587e-03 9.545152936790516e-02 1.013411667728414e-02 -1.193469340569814e-02 3.580903845184186e-01 -1.392132869009054e-01 4.881501112477610e-02
            9.549320259877309e-02 1.005905743052954e-02 1.038723860834578e-01 7.743915259301909e-03 -1.392310767563609e-01 4.886590948705471e-02 -1.194795473032102e-02 3.581046969093280e-01
            -1.190337387261979e-02 3.581107895949707e-01 -1.392254189876407e-01 4.880216732249184e-02 1.032863637336453e-01 9.962532265144432e-03 9.504232055344232e-02 1.210823684511783e-02
            -1.392058951884868e-01 4.882517431457351e-02 -1.199059909437838e-02 3.581248480088282e-01 9.494663074383912e-02 1.216075428233646e-02 1.032804882910228e-01 9.997153352316532e-03
923410000.0000000000 1.074203298643809e-01 -3.278101057046537e-03 9.952477236068431e-02 -7.531523634875344e-04 1.112150070187318e-01 3.405814221575073e-01 -1.130368128108895e-01 9.270571612388120e-02
            9.955087842291320e-02 -7.307709914993977e-04 1.073935583082220e-01 -3.260538426821711e-03 -1.130237458477413e-01 9.266336348130978e-02 1.112161690259730e-01 3.405217629193246e-01
            1.112189335199003e-01 3.406086294165013e-01 -1.130842685996114e-01 9.272111679054103e-02 1.074805315994952e-01 -8.790666462462571e-04 9.958724943931485e-02 1.428489688120839e-03
            -1.130923145073883e-01 9.271934869880953e-02 1.112161757445551e-01 3.405827501382749e-01 9.958079173333087e-02 1.425328000423758e-03 1.073746753565440e-01 -9.072993794980325e-04
924242500.0000000000 1.030149013116932e-01 -1.402591500690296e-02 9.569007350375543e-02 -1.168202418363953e-02 2.211667249171574e-01 2.825178645992230e-01 -7.351300432017530e-02 1.252657739181106e-01
            9.560858126794822e-02 -1.163296492469478e-02 1.029916027987036e-01 -1.407157925456641e-02 -7.345748207609462e-02 1.252063841718816e-01 2.211914950990900e-01 2.826300163188366e-01
            2.211885760283651e-01 2.826127236405004e-01 -7.356036940196239e-02 1.251591236930837e-01 1.034318152502886e-01 -1.173919371500409e-02 9.631758905942682e-02 -9.699955633373487e-03
            -7.352258539608023e-02 1.251802912213870e-01 2.211729195767913e-01 2.826215622553445e-01 9.629216821468746e-02 -9.552515320957135e-03 1.034787404748161e-01 -1.175516274417101e-02
925075000.0000000000 9.258358194873745e-02 -1.959013419606440e-02 8.537325313579329e-02 -1.751252715513538e-02 3.055036666425332e-01 1.906319955739909e-01 -2.488998860890630e-02 1.420883305792919e-01
            8.536770068782351e-02 -1.757167423858524e-02 9.253503644634509e-02 -1.946135198885129e-02 -2.484004458811855e-02 1.421107334457920e-01 3.054150580691043e-01 1.906961724444557e-01
            3.054882065700026e-01 1.905252813890395e-01 -2.490204850633531e-02 1.420105982995899e-01 9.329031880566226e-02 -1.737258727796155e-02 8.639244044184055e-02 -1.575223030168791e-02
            -2.489320500954321e-02 1.420697092735499e-01 3.054285145887848e-01 1.905091816391348e-01 8.636851940861739e-02 -1.583195529098359e-02 9.327449200464982e-02 -1.730096280807345e-02
925907500.0000000000 8.105379198439805e-02 -1.679606739824053e-02 7.361679961566957e-02 -1.539006953602657e-02 3.537118445383681e-01 7.429316721556738e-02 2.661986081688982e-02 1.403186524084054e-01
            7.362292200486578e-02 -1.535326607368889e-02 8.099531509913965e-02 -1.680597295074873e-02 2.657842456361713e-02 1.402777555212907e-01 3.538141946889849e-01 7.441217356935363e-02
            3.538186717331220e-01 7.439653409300236e-02 2.662136312774321e-02 1.403492117761852e-01 8.190638457505336e-02 -1.490987800097296e-02 7.483611055303137e-02 -1.405807587667130e-02
            2.665079326322429e-02 1.403301792338468e-01 3.537552942991110e-01 7.444739125048520e-02 7.483502033120926e-02 -1.403323113400420e-02 8.197694271293211e-02 -1.495628586261258e-02
926740000.0000000000 7.394738924839769e-02 -7.105535216186685e-03 6.608459525873214e-02 -6.017277896465842e-03 3.590088874297774e-01 -5.249257917493109e-02 7.354843354282588e-02 1.200740580787848e-01
            6.609962429766812e-02 -5.991374892632517e-03 7.382401303475591e-02 -7.072929917510833e-03 7.348968754748868e-02 1.200517310524163e-01 3.589792494614170e-01 -5.254878448328763e-02
            3.589148259676850e-01 -5.250117451834633e-02 7.353941576490458e-02 1.200527928969436e-01 7.493287506430993e-02 -5.490787886949732e-03 6.725897277495722e-02 -5.042927136503787e-03
            7.346500286609435e-02 1.200320628345241e-01 3.589839048646568e-01 -5.250017377811705e-02 6.722608602926604e-02 -5.034377892950579e-03 7.483914287612722e-02 -5.477337053946960e-03
927572500.0000000000 7.500043437165710e-02 4.878551983199112e-03 6.648410136511730e-02 6.141046859847311e-03 3.193630242900850e-01 -1.738738402713294e-01 1.090271759323193e-01 8.488156971165085e-02
            6.650797557034606e-02 6.118815536393653e-03 7.509316342464374e-02 4.850689652434508e-03 1.090725923058018e-01 8.500713997315121e-02 3.192929738247651e-01 -1.737769106879735e-01
            3.192442210007573e-01 -1.738192420113343e-01 1.090193732036732e-01 8.494930349224958e-02 7.577741669664656e-02 6.251059010788673e-03 6.746738726328155e-02 6.722312602827277e-03
            1.090752385187084e-01 8.486542623009018e-02 3.192251789429423e-01 -1.738951358786180e-01 6.744051328995414e-02 6.787946823271216e-03 7.586654358259477e-02 6.348045102607104e-03
928405000.0000000000 8.359162194349698e-02 1.316939743041151e-02 7.467935332168439e-02 1.492555627769317e-02 2.395045844229203e-01 -2.735942833698611e-01 1.291339611123683e-01 4.081452286880156e-02
            7.467338743254646e-02 1.484229524809954e-02 8.361322088448910e-02 1.313963697811979e-02 1.291697181467509e-01 4.082040005611304e-02 2.395221310253768e-01 -2.736507312965371e-01
            2.394675435527796e-01 -2.736279968053190e-01 1.291457883441041e-01 4.089427683534202e-02 8.429701777345711e-02 1.470392827432198e-02 7.531292426855835e-02 1.541390595750537e-02
            1.291735074368372e-01 4.088084489023806e-02 2.395055521568289e-01 -2.736263028168618e-01 7.539431780598319e-02 1.544863018975847e-02 8.429558473529115e-02 1.464550242604835e-02
929237500.0000000000 9.553399370921864e-02 1.384507046969588e-02 8.645949368467264e-02 1.620550689063115e-02 1.303970652246308e-01 -3.390919199673272e-01 1.328324016736343e-01 -5.971269001930756e-03
            8.643641833719141e-02 1.624151565235776e-02 9.540575960269460e-02 1.377811346744875e-02 1.328362255556429e-01 -6.023481898148214e-03 1.304809855964586e-01 -3.389994396507916e-01
            1.303822393864327e-01 -3.390951544365087e-01 1.328505966062822e-01 -6.043979032425330e-03 9.608939184061792e-02 1.541937778421743e-02 8.696945460117804e-02 1.686960866740082e-02
            1.327759428945212e-01 -6.022454365494956e-03 1.304633306956262e-01 -3.391053486186517e-01 8.688526128110392e-02 1.684570208321894e-02 9.605173978258577e-02 1.540193463724749e-02
930070000.0000000000 1.048453884330894e-01 6.500035434404204e-03 9.621155408694616e-02 9.643810011579493e-03 6.255172942026494e-03 -3.628849239278581e-01 1.211105637660790e-01 -5.033222387304793e-02
            9.619482150778973e-02 9.553697631482313e-03 1.049022540361928e-01 6.498934223964495e-03 1.209746493217444e-01 -5.036583206890969e-02 6.215770845781662e-03 -3.629016621977650e-01
            6.150109813592775e-03 -3.628850378963748e-01 1.210034026387216e-01 -5.033305810911332e-02 1.055256811212512e-01 8.292427134017457e-03 9.658994564484918e-02 1.047405143018114e-02
            1.209156127530602e-01 -5.039104357452963e-02 6.234175317359992e-03 -3.627881530253499e-01 9.651774538981250e-02 1.047643743594159e-02 1.055930381178865e-01 8.388145748819919e-03
930902500.0000000000 1.072036442553974e-01 -4.983812302767357e-03 9.915533505907642e-02 -1.607837298893039e-03 -1.181695741030998e-01 -3.431620396234473e-01 9.548260074987440e-02 -8.800479372099450e-02
            9.920180852461319e-02 -1.667989895562009e-03 1.072570781500477e-01 -5.080979498488812e-03 9.541621730679146e-02 -8.798056055258048e-02 -1.181168934521786e-01 -3.431389382456048e-01
            -1.181562286907261e-01 -3.431543320012692e-01 9.536888229800436e-02 -8.798649817626436e-02 1.082356583772137e-01 -3.143740943862733e-03 9.970297660330155e-02 -6.394156758761509e-04
            9.538467495916354e-02 -8.800455017745579e-02 -1.181987022179068e-01 -3.431048148944425e-01 9.970169377561361e-02 -5.683215572617682e-04 1.081707213946932e-01 -3.068704450787555e-03
931735000.0000000000 1.015236888067274e-01 -1.539335312406944e-02 9.425326393934307e-02 -1.212953710784090e-02 -2.286272708321786e-01 -2.826870210417756e-01 5.850103849779562e-02 -1.149237858322069e-01
            9.430706892629166e-02 -1.219236576012694e-02 1.016458073620898e-01 -1.534261481627287e-02 5.849558098487971e-02 -1.148072588451860e-01 -2.285782851791594e-01 -2.827701639158946e-01
            -2.286100763627846e-01 -2.827273015101620e-01 5.844756412312691e-02 -1.148253359495259e-01 1.027995861463029e-01 -1.347278758970811e-02 9.494450732077502e-02 -1.100202293240965e-02
            5.846693949970877e-02 -1.147989614973450e-01 -2.285427549777943e-01 -2.827230277462773e-01 9.498560083631416e-02 -1.099064140004809e-02 1.027616564763652e-01 -1.348018827470244e-02
932567500.0000000000 9.041387581788445e-02 -1.973992022653941e-02 8.364877089643830e-02 -1.697721355997832e-02 -3.125705683697481e-01 -1.879151058163492e-01 1.410889020979378e-02 -1.270668193298832e-01
            8.366793698014247e-02 -1.694645841691398e-02 9.059977866291143e-02 -1.971275866602371e-02 1.423049655253278e-02 -1.270056227176128e-01 -3.125075563250237e-01 -1.880520366864525e-01
            -3.125586477779728e-01 -1.879173775666070e-01 1.417408175794320e-02 -1.270462991208368e-01 9.186972464470024e-02 -1.802119840959021e-02 8.457657211592183e-02 -1.583522628114122e-02
            1.419522694212905e-02 -1.270615529231796e-01 -3.126200991668453e-01 -1.879874064519033e-01 8.462854625620206e-02 -1.586015338831067e-02 9.191631847403403e-02 -1.802581493023584e-02
933400000.0000000000 7.928930529636892e-02 -1.577201728191135e-02 7.235553304603941e-02 -1.355856674848643e-02 -3.595230337163000e-01 -6.930862275447069e-02 -3.152661727840884e-02 -1.223634246053738e-01
            7.233275136737601e-02 -1.364535378199076e-02 7.917068206743899e-02 -1.573171483956487e-02 -3.152047315450013e-02 -1.224055622459447e-01 -3.595324153525051e-01 -6.940507621194000e-02
            -3.595153652365489e-01 -6.932751067158625e-02 -3.156759124434812e-02 -1.224835704910853e-01 8.067532798459516e-02 -1.433745460383792e-02 7.345033735409567e-02 -1.268437563362106e-02
            -3.156112583094525e-02 -1.224044240930464e-01 -3.595355860288408e-01 -6.927073793237853e-02 7.340669426849246e-02 -1.270378427387237e-02 8.066904301472491e-02 -1.437497143896360e-02
934232500.0000000000 7.325155398177297e-02 -5.274780206491965e-03 6.600363667913302e-02 -3.658567152511784e-03 -3.624147403035464e-01 5.925375974124210e-02 -7.186544603648309e-02 -1.013979558369899e-01
            6.602317030414918e-02 -3.580210668387655e-03 7.323218728076343e-02 -5.280025847080567e-03 -7.184885768905583e-02 -1.014769449447531e-01 -3.623715583825859e-01 5.928988585121962e-02
            -3.624517315338755e-01 5.927590179850442e-02 -7.181653082117095e-02 -1.014288632833431e-01 7.458216715740869e-02 -4.171561377933318e-03 6.706565625867823e-02 -2.961967049751044e-03
            -7.180040405310575e-02 -1.014637245834401e-01 -3.624320739632098e-01 5.926798702048924e-02 6.701505837224900e-02 -2.940592213844767e-03 7.464337292018935e-02 -4.102460482428995e-03
935065000.0000000000 7.553678734858300e-02 6.579925933373316e-03 6.778784864985296e-02 7.976299812294946e-03 -3.199358625050309e-01 1.812946106473162e-01 -1.009442375978032e-01 -6.809610647503625e-02
            6.789410917468057e-02 7.965139207540614e-03 7.557429012795784e-02 6.570840736739099e-03 -1.008852914100003e-01 -6.805385437090916e-02 -3.199537393859997e-01 1.812592953951505e-01
            -3.200138289173929e-01 1.812760903369392e-01 -1.009299540413820e-01 -6.799625930756735e-02 7.681547681226304e-02 7.530569463344299e-03 6.876677634923664e-02 8.598855990773126e-03
            -1.009016420444756e-01 -6.809418615308248e-02 -3.199189712949039e-01 1.812732214627359e-01 6.877744696501768e-02 8.613586269798343e-03 7.675348714500267e-02 7.503587595860700e-03
935897500.0000000000 8.499836114745486e-02 1.393728722689090e-02 7.673926933336901e-02 1.563519708747789e-02 -2.374618250216918e-01 2.806086216838222e-01 -1.156857750831037e-01 -2.793569340016085e-02
            7.674002366269414e-02 1.557823681725808e-02 8.499096700928870e-02 1.394330031919490e-02 -1.156861870548437e-01 -2.797107527546498e-02 -2.374937046343819e-01 2.805680799107971e-01
            -2.374511539005856e-01 2.805658377995518e-01 -1.157353773174070e-01 -2.791623484664807e-02 8.600737657173443e-02 1.489023408575317e-02 7.752861655024332e-02 1.616193244204087e-02
            -1.157000821569088e-01 -2.794637778697254e-02 -2.374610558223793e-01 2.806119866455069e-01 7.750809613431850e-02 1.622273885038029e-02 8.605878153852206e-02 1.497320327281715e-02
936730000.0000000000 9.686736853025461e-02 1.319500927191992e-02 8.835410584841916e-02 1.548435475188893e-02 -1.262178027258231e-01 3.447824785085619e-01 -1.158488675857973e-01 1.340227961640055e-02
            8.839575080463929e-02 1.550319649127852e-02 9.685046014243583e-02 1.319773615230863e-02 -1.158878587801955e-01 1.341725976368366e-02 -1.262525927935168e-01 3.448002855626831e-01
            -1.262195445726356e-01 3.447709563457760e-01 -1.159576443495498e-01 1.338640197940046e-02 9.772862264646136e-02 1.437617558675387e-02 8.905147263342308e-02 1.621890266700508e-02
            -1.159242637821446e-01 1.336125155130544e-02 -1.261874103664917e-01 3.447636125096935e-01 8.906366824468465e-02 1.621913788556480e-02 9.775650754587879e-02 1.435155203438465e-02
937562500.0000000000 1.054009636154992e-01 5.099281860047392e-03 9.710445696168789e-02 7.778050397460915e-03 -4.119899463245250e-04 3.667377258639857e-01 -1.027185597098275e-01 5.158841389751195e-02
            9.704882329694595e-02 7.810459313128076e-03 1.053864625299215e-01 5.150721822739719e-03 -1.026848596711689e-01 5.149742504862885e-02 -3.830949289457281e-04 3.667416111834790e-01
            -4.580450428280157e-04 3.667494389232975e-01 -1.026531886048794e-01 5.145313277541279e-02 1.061780470839211e-01 6.592202088364100e-03 9.779221868523551e-02 8.812771927137314e-03
            -1.026907054002321e-01 5.154476860871375e-02 -4.497740555401580e-04 3.667283908113466e-01 9.782598532867402e-02 8.700736469647309e-03 1.061540038690155e-01 6.520241282034447e-03
938395000.0000000000 1.065319922717151e-01 -6.471006869338382e-03 9.860889911480941e-02 -3.581328051741911e-03 1.249173290019994e-01 3.448897796821721e-01 -7.783636805602509e-02 8.290202387358386e-02
            9.862728435379250e-02 -3.608997207138560e-03 1.065356394128845e-01 -6.498023149926731e-03 -7.775865888253997e-02 8.286443748208169e-02 1.248044450555937e-01 3.448914866988882e-01
            1.248177366822708e-01 3.448801652346146e-01 -7.780673613501200e-02 8.289529567774843e-02 1.074903040308683e-01 -4.940363113404152e-03 9.961189249096841e-02 -2.460362648817605e-03
            -7.779664405521639e-02 8.288301038591284e-02 1.248614469852556e-01 3.448854398018859e-01 9.957498135743977e-02 -2.476235963055562e-03 1.076295466523354e-01 -4.907706266004560e-03
939227500.0000000000 9.990518324650155e-02 -1.614854670525622e-02 9.248731585557941e-02 -1.338144575771793e-02 2.356094174554776e-01 2.821122118500466e-01 -4.355576352814992e-02 1.041144513563049e-01
            9.249462756418161e-02 -1.334244537755703e-02 9.985201379583539e-02 -1.606434649178928e-02 -4.355072637003184e-02 1.040532718603512e-01 2.356146500843193e-01 2.819802587191751e-01
            2.356049474030870e-01 2.820690516946406e-01 -4.357674297643687e-02 1.040138996990455e-01 1.011681180960772e-01 -1.458279251098806e-02 9.379795446047735e-02 -1.223880559646551e-02
            -4.357683212830755e-02 1.040488666845779e-01 2.356491524745209e-01 2.820267355986804e-01 9.376710247747848e-02 -1.226230753301499e-02 1.012066485659239e-01 -1.455679778298517e-02
940060000.0000000000 8.849302364164661e-02 -1.915704885941603e-02 8.129292295838793e-02 -1.678486235524771e-02 3.189219308304019e-01 1.848346078279955e-01 -3.771055063903652e-03 1.116810055945524e-01
            8.134648871459954e-02 -1.687267274016084e-02 8.843313572383517e-02 -1.909695855978399e-02 -3.717426221394797e-03 1.117043575946655e-01 3.190477557250167e-01 1.848317548823294e-01
            3.189441485231770e-01 1.848502866204653e-01 -3.764794079420953e-03 1.117220500517540e-01 8.995547906653596e-02 -1.764531420384045e-02 8.296170055709924e-02 -1.584853521127561e-02
            -3.740726674724994e-03 1.117578052595605e-01 3.189089563395354e-01 1.848386297949987e-01 8.292577037581844e-02 -1.588477044267346e-02 9.002800232975865e-02 -1.773433498006867e-02
940892500.0000000000 7.773390634896407e-02 -1.386845544431790e-02 7.040080180781456e-02 -1.212343452296290e-02 3.643013811958257e-01 6.403904836933504e-02 3.604292583616935e-02 1.041979966909313e-01
            7.045288637955092e-02 -1.210566889930867e-02 7.778782895630520e-02 -1.391446666536198e-02 3.606084495706086e-02 1.041903695320851e-01 3.643291573874722e-01 6.397783348408262e-02
            3.643707937430052e-01 6.394823698964608e-02 3.609578248689122e-02 1.042032750032070e-01 7.947346293648648e-02 -1.273348126953713e-02 7.235317930893428e-02 -1.150653798875135e-02
            3.603980715337370e-02 1.041875148144227e-01 3.643914492096842e-01 6.393351305896515e-02 7.241505672894871e-02 -1.153118807991661e-02 7.950562103146475e-02 -1.276476624582287e-02
941725000.0000000000 7.303067195362295e-02 -2.827042399807438e-03 6.523369712066948e-02 -1.422230831962680e-03 3.648863138866121e-01 -6.605322604013332e-02 6.967760867513023e-02 8.272198916157232e-02
            6.522357823225440e-02 -1.464435374521120e-03 7.301183722273487e-02 -2.805675250637879e-03 6.970750146132038e-02 8.279754598232868e-02 3.648683901773421e-01 -6.606340132067751e-02
            3.648195132767501e-01 -6.610421405623954e-02 6.966876826533720e-02 8.272127673139516e-02 7.474597273337771e-02 -2.009572388154466e-03 6.720593962886502e-02 -1.241231147237783e-03
            6.964543617781456e-02 8.268758570940640e-02 3.648377829318886e-01 -6.597199029198665e-02 6.719793483193706e-02 -1.307616118656055e-03 7.474852984571094e-02 -2.079612401368456e-03
942557500.0000000000 7.691134967204932e-02 8.790310601984321e-03 6.822730408807960e-02 1.005958185329634e-02 3.197376142821753e-01 -1.883095389929716e-01 9.230832525740021e-02 5.129192832447373e-02
            6.825982950979592e-02 1.001374988530479e-02 7.685061238601171e-02 8.793084643735205e-03 9.222193262392843e-02 5.125566980777796e-02 3.197566793400738e-01 -1.882616110514757e-01
            3.197277046379950e-01 -1.883803080701379e-01 9.227228097216862e-02 5.131914798364982e-02 7.841556219614018e-02 9.074472983425013e-03 7.013230876612987e-02 9.817376316094431e-03
            9.221836546884443e-02 5.136359071833017e-02 3.196745743265680e-01 -1.884087335459795e-01 7.012750899569625e-02 9.743950140740443e-03 7.838784960891158e-02 9.095478270473528e-03
943390000.0000000000 8.728008249737615e-02 1.493701431679543e-02 7.793874734274694e-02 1.675319904119408e-02 2.347646524651938e-01 -2.869027011118693e-01 1.017811953817259e-01 1.530809902435064e-02
            7.795241801166568e-02 1.674283989505625e-02 8.717089434755902e-02 1.492806514290409e-02 1.017925241200796e-01 1.537969280996035e-02 2.347902260941857e-01 -2.869860012035180e-01
            2.347583202914459e-01 -2.868631881233653e-01 1.017869678697099e-01 1.529055207371321e-02 8.833811850551666e-02 1.501996230618873e-02 7.954297154253703e-02 1.618393287846043e-02
            1.018402996683294e-01 1.541715234790448e-02 2.347612856089821e-01 -2.868784783021194e-01 7.955240292785909e-02 1.615782631960991e-02 8.839985194549529e-02 1.501087569762242e-02
944222500.0000000000 9.903768950299192e-02 1.297170178881274e-02 8.943503470296181e-02 1.550171004019370e-02 1.217032236928210e-01 -3.495615433129433e-01 9.868508861595728e-02 -2.040900729657111e-02
            8.946499903849033e-02 1.557128619086208e-02 9.913177107356028e-02 1.297103360767966e-02 9.870403688560130e-02 -2.035111477882618e-02 1.216301599656953e-01 -3.495903067333341e-01
            1.216594708579905e-01 -3.495687396659306e-01 9.870820044040660e-02 -2.028770558694828e-02 9.976955769380376e-02 1.293070562584527e-02 9.068268212543693e-02 1.482387947299728e-02
            9.870579413002380e-02 -2.032070643129856e-02 1.216862703815799e-01 -3.495957378172399e-01 9.070620087911047e-02 1.472480720938749e-02 9.981463626744237e-02 1.285850819831297e-02
945055000.0000000000 1.067985010422223e-01 3.965334367322109e-03 9.731035930862467e-02 7.330812207105215e-03 -5.434687767887940e-03 -3.697190629916927e-01 8.419234583539396e-02 -5.215022763808397e-02
            9.719324693637307e-02 7.282043021489589e-03 1.067786071414606e-01 3.960505558530798e-03 8.423703337721498e-02 -5.228052888237721e-02 -5.344850574954756e-03 -3.696837215146314e-01
            -5.439480188263028e-03 -3.696854205403525e-01 8.417919065452097e-02 -5.225949653785342e-02 1.070021245795888e-01 3.857846681841127e-03 9.817092267173132e-02 6.551279750538191e-03
            8.420552260356795e-02 -5.227122276101661e-02 -5.364744707320620e-03 -3.696771064877616e-01 9.815010268751390e-02 6.501340330307504e-03 1.070066143835571e-01 3.856045324171528e-03
945887500.0000000000 1.068434338764917e-01 -7.850806572953031e-03 9.784885190490253e-02 -3.842689595885776e-03 -1.313861701781449e-01 -3.457493372847675e-01 6.024006670047710e-02 -7.725443159816350e-02
            9.791867125125879e-02 -3.843153845681468e-03 1.068409140806863e-01 -7.828676796999718e-03 6.015735372683226e-02 -7.735383926089050e-02 -1.313160822489334e-01 -3.457558639252046e-01
            -1.313154529066418e-01 -3.457188167283116e-01 6.021218441755129e-02 -7.734140024396999e-02 1.066415510618425e-01 -7.814498748276258e-03 9.847175723547744e-02 -4.539799524260154e-03
            6.020251319437182e-02 -7.741756815879766e-02 -1.312969676176371e-01 -3.457825562099093e-01 9.852045741640426e-02 -4.566004740805653e-03 1.066211710588535e-01 -7.768782711905373e-03
946720000.0000000000 9.941575961569259e-02 -1.685543552615311e-02 9.109821771450585e-02 -1.256814581877151e-02 -2.419984343045517e-01 -2.806055841743955e-01 2.877622632799393e-02 -9.282712395809609e-02
            9.109790531432610e-02 -1.249887204235572e-02 9.948869725952963e-02 -1.682849000111130e-02 2.880076001093363e-02 -9.287356781798214e-02 -2.421506292859412e-01 -2.805418354025270e-01
            -2.421137818388187e-01 -2.805865840049567e-01 2.878629553469745e-02 -9.279785888610967e-02 9.868077185216360e-02 -1.655942704639706e-02 9.149564923388363e-02 -1.325453372401894e-02
            2.880134227905966e-02 -9.279286119343237e-02 -2.421868850660193e-01 -2.805714506439364e-01 9.144842065171849e-02 -1.331330891228656e-02 9.867373403535019e-02 -1.649643762085441e-02
947552500.0000000000 8.796898493869056e-02 -1.886996931845978e-02 8.012021286084973e-02 -1.458451600442867e-02 -3.245936602593518e-01 -1.810998103794970e-01 -6.369059098726722e-03 -9.597451298420169e-02
            8.010701032866675e-02 -1.469117619049486e-02 8.794133112744912e-02 -1.881783580711524e-02 -6.414983159335381e-03 -9.603442967898373e-02 -3.245924425229393e-01 -1.810337427377840e-01
            -3.246096441353116e-01 -1.810962554432590e-01 -6.336474793956660e-03 -9.600023793493150e-02 8.673570247338774e-02 -1.818530726066301e-02 8.031525131256258e-02 -1.531661522202689e-02
            -6.331276967838593e-03 -9.594805266967407e-02 -3.246463521326169e-01 -1.810821686299527e-01 8.035383063056295e-02 -1.529889790470562e-02 8.674801225623764e-02 -1.809841458327345e-02
948385000.0000000000 7.801554868210761e-02 -1.282171732273864e-02 7.040455812948690e-02 -8.842686210768790e-03 -3.682196218870146e-01 -5.840716116014094e-02 -4.011480083677130e-02 -8.578691197655075e-02
            7.043357677241338e-02 -8.954872422066988e-03 7.811494997869291e-02 -1.281587123351472e-02 -4.010136902980919e-02 -8.579065286849084e-02 -3.681910036407988e-01 -5.832029596215228e-02
            -3.681782366728520e-01 -5.835180003905201e-02 -4.004871847249857e-02 -8.569654667340922e-02 7.649932945050292e-02 -1.154945610786364e-02 7.042794340848697e-02 -9.550526856501465e-03
            -4.005247655581542e-02 -8.578393298813161e-02 -3.681704961664345e-01 -5.828689833613011e-02 7.041483584073732e-02 -9.558891175338254e-03 7.644801855703681e-02 -1.149532424133017e-02
949217500.0000000000 7.457209686739250e-02 -1.772463009840881e-03 6.705921412841268e-02 1.999588702731962e-03 -3.663962866677143e-01 7.265748746347689e-02 -6.692734213188475e-02 -6.399344030207918e-02
            6.699648428476575e-02 1.935361771917473e-03 7.463557661761806e-02 -1.753950029180339e-03 -6.690733878166195e-02 -6.399188565284879e-02 -3.662321560992897e-01 7.268272585156124e-02
            -3.662485405861742e-01 7.270381479790039e-02 -6.700781170971881e-02 -6.395758543222776e-02 7.286595301078017e-02 3.405133396273389e-04 6.684673411487776e-02 1.410463911759673e-03
            -6.697794871195897e-02 -6.392831340541080e-02 -3.662477680500313e-01 7.263285319427197e-02 6.688833733124795e-02 1.472923297838108e-03 7.283935065730802e-02 3.151182335995373e-04
950050000.0000000000 7.947304410449284e-02 8.788385598246459e-03 7.167541009159216e-02 1.238153659188545e-02 -3.185489384465948e-01 1.949667092896691e-01 -8.313400587608763e-02 -3.470011535593653e-02
            7.167799133815857e-02 1.243490615529550e-02 7.937140630796195e-02 8.767851192869080e-03 -8.305741412790102e-02 -3.474398808964377e-02 -3.184703315182911e-01 1.949019400713725e-01
            -3.185029011598972e-01 1.949470918155614e-01 -8.314288684690622e-02 -3.475010338627393e-02 7.777187287749543e-02 1.163700050425377e-02 7.126110189595551e-02 1.206489652303161e-02
            -8.316301511554554e-02 -3.479047060696169e-02 -3.184746138181693e-01 1.949294168720695e-01 7.126316177531446e-02 1.214228364981942e-02 7.778913099644842e-02 1.154702763653022e-02
950882500.0000000000 8.990249245552928e-02 1.334929172880027e-02 8.203489168908855e-02 1.733675325204601e-02 -2.313880776530833e-01 2.924313667698792e-01 -8.754123150420938e-02 -3.109134346779665e-03
            8.214276485459052e-02 1.733170161256757e-02 8.985654944469811e-02 1.338994074560400e-02 -8.757515386405622e-02 -3.135781953105910e-03 -2.314113985923004e-01 2.925060172221062e-01
            -2.314088574518093e-01 2.924549742190604e-01 -8.749796700233822e-02 -3.153595531109490e-03 8.865208012289884e-02 1.703220635492220e-02 8.157678698402254e-02 1.730057788865043e-02
            -8.754641850184461e-02 -3.091103476895661e-03 -2.314471864364026e-01 2.925033932947733e-01 8.154685883323369e-02 1.727337694568221e-02 8.868593798178685e-02 1.701701518913693e-02
951715000.0000000000 1.008964860595967e-01 9.906658875197429e-03 9.319050779323410e-02 1.432432897271713e-02 -1.166568869726282e-01 3.535349571875457e-01 -8.112018733762269e-02 2.686545734941354e-02
            9.314082428535621e-02 1.431514207635435e-02 1.009562766941676e-01 9.946604512161806e-03 -8.119684515869187e-02 2.689080745096511e-02 -1.166966862123720e-01 3.534850546979054e-01
            -1.167346027583624e-01 3.534803021790388e-01 -8.120515808267520e-02 2.687274578427089e-02 1.002846181457305e-01 1.418937362240600e-02 9.259934441652319e-02 1.449565211165887e-02
            -8.117974618897224e-02 2.683547092226317e-02 -1.166893043988145e-01 3.534828292875369e-01 9.263160240692485e-02 1.450931738907702e-02 1.002078200080666e-01 1.404809979957903e-02
952547500.0000000000 1.070024637065665e-01 2.617723665635337e-04 9.974462084458081e-02 4.899431896519555e-03 1.125247616113852e-02 3.717050441236057e-01 -6.575803136880055e-02 5.232582940246143e-02
            9.970316862340300e-02 4.962272385829586e-03 1.069944646755439e-01 1.685149945453986e-04 -6.571819455711486e-02 5.237382169278650e-02 1.127952327957047e-02 3.716490013134983e-01
            1.128221698270900e-02 3.716550409638223e-01 -6.572739354954482e-02 5.240809539902874e-02 1.071070849400779e-01 4.589191441137748e-03 9.911647430012417e-02 5.317799804058452e-03
            -6.571569776435333e-02 5.234340719654930e-02 1.126037056607741e-02 3.716841426539343e-01 9.925171421470955e-02 5.226972568788181e-03 1.070855883580521e-01 4.527003330351772e-03
953380000.0000000000 1.053078358395563e-01 -1.115702211411583e-02 9.872661615776467e-02 -6.365418378082603e-03 1.375982422785119e-01 3.456393896509543e-01 -4.270643756447689e-02 7.129335226099170e-02
            9.874272255243081e-02 -6.433258068595034e-03 1.053850364615967e-01 -1.118179373562646e-02 -4.268816673655627e-02 7.127046305084639e-02 1.376140799687077e-01 3.456428226152231e-01
            1.375988913293943e-01 3.455816910868699e-01 -4.270702498083437e-02 7.123801712226153e-02 1.059868386696468e-01 -6.877379162300828e-03 9.829709321919687e-02 -5.883490562109648e-03
            -4.268572514870591e-02 7.130167543397706e-02 1.375854365076808e-01 3.456231587015166e-01 9.823723783354821e-02 -5.916237092052124e-03 1.061309519937141e-01 -6.895225965541896e-03
954212500.0000000000 9.660306539898315e-02 -1.884874823338442e-02 9.064417318346828e-02 -1.439045464946978e-02 2.479625177687127e-01 2.782972303040011e-01 -1.437407740340405e-02 8.107931251376366e-02
            9.061977787539661e-02 -1.433986420684337e-02 9.663724626210064e-02 -1.880862750762746e-02 -1.432894546690279e-02 8.118964059865399e-02 2.480213818071392e-01 2.783598934995625e-01
            2.479157946504903e-01 2.782791267501987e-01 -1.428677367094488e-02 8.110550447300290e-02 9.784872943709937e-02 -1.497428147043708e-02 9.024808162516322e-02 -1.376673422573647e-02
            -1.430824174904338e-02 8.116753610504325e-02 2.479670804733104e-01 2.782551162736979e-01 9.022673805905308e-02 -1.380417717517795e-02 9.788789283831213e-02 -1.486838458584516e-02
955045000.0000000000 8.488404928091535e-02 -1.897400490953795e-02 7.932930764627873e-02 -1.517468112003023e-02 3.293513372785759e-01 1.767348472930229e-01 1.606155008258477e-02 7.995848893992463e-02
            7.939249585103360e-02 -1.517322429944790e-02 8.490590792321330e-02 -1.904413040352726e-02 1.606086967641294e-02 7.997789704552682e-02 3.293028124918746e-01 1.767917846934035e-01
            3.294080228391898e-01 1.768034715998238e-01 1.603314117660837e-02 7.977320570103158e-02 8.621977259442873e-02 -1.541179803245690e-02 7.885028631362488e-02 -1.448918195382546e-02
            1.608362038647090e-02 7.990528051466822e-02 3.293645285272306e-01 1.767603920635311e-01 7.887416672853267e-02 -1.462280979455590e-02 8.615840107069882e-02 -1.544688912367576e-02
955877500.0000000000 7.592827982049748e-02 -1.148586229450748e-02 7.031373711446298e-02 -8.349831684531390e-03 3.709610323259140e-01 5.254091992737573e-02 4.359060200011282e-02 6.721862783979107e-02
            7.032150709587345e-02 -8.230542590188343e-03 7.588404001127361e-02 -1.148184239374615e-02 4.362067137637977e-02 6.725537207984433e-02 3.710175871035935e-01 5.250391089566046e-02
            3.710348816803887e-01 5.248207785476082e-02 4.364414748146123e-02 6.725126890354498e-02 7.699607817760712e-02 -8.201450299605373e-03 6.976989264735184e-02 -7.545066493662092e-03
            4.359518876115203e-02 6.723172589219321e-02 3.709654494899842e-01 5.247068046851798e-02 6.974657403987544e-02 -7.558759953372094e-03 7.701977622040619e-02 -8.199609515901003e-03
956710000.0000000000 7.410946801780111e-02 2.629562461484873e-04 6.820799400130387e-02 2.879569452908834e-03 3.666942631558520e-01 -7.923524552715423e-02 6.366994198557051e-02 4.537541531708844e-02
            6.815243354378284e-02 2.808718367970893e-03 7.405963773206882e-02 2.876240078752772e-04 6.369430110540147e-02 4.527075283584626e-02 3.666389311826030e-01 -7.906747227357418e-02
            3.667287507924890e-01 -7.916691503909346e-02 6.372164278435861e-02 4.530001041538883e-02 7.486300320773208e-02 3.561554747984574e-03 6.746829326579487e-02 3.790599591406592e-03
            6.360181538540979e-02 4.526115795919752e-02 3.667189322341361e-01 -7.914394220270352e-02 6.744315085075815e-02 3.780253658974372e-03 7.489356489501163e-02 3.602531172516257e-03
957542500.0000000000 8.059510963520961e-02 1.024460811646990e-02 7.398212235699048e-02 1.267964379497197e-02 3.164843005298498e-01 -2.010226421268567e-01 7.349927657893816e-02 1.848896014691162e-02
            7.400163805429037e-02 1.254501871222081e-02 8.054940497712064e-02 1.019498701235064e-02 7.349570022114400e-02 1.855017593787925e-02 3.164573433907553e-01 -2.009468456134135e-01
            3.165647102197939e-01 -2.009671289529062e-01 7.344480763227518e-02 1.849813714590129e-02 8.099246219148667e-02 1.400181314471967e-02 7.307422607555070e-02 1.401141229365755e-02
            7.347295235633731e-02 1.853932871957848e-02 3.164882284581144e-01 -2.009676464237326e-01 7.307005311272270e-02 1.397619307701490e-02 8.099421301299924e-02 1.399913685515059e-02
958375000.0000000000 9.196618809021286e-02 1.350806131336068e-02 8.486703767180158e-02 1.613158972930943e-02 2.273686378359029e-01 -2.971632856218336e-01 7.298021228088658e-02 -8.593721606336141e-03
            8.483478379348396e-02 1.618565478040638e-02 9.201491684814585e-02 1.348962584533002e-02 7.299084662889616e-02 -8.544508834922590e-03 2.273405451638434e-01 -2.971977971640664e-01
            2.273993433155725e-01 -2.971367597255363e-01 7.296603728835610e-02 -8.594675256654995e-03 9.241980529399024e-02 1.799397285416585e-02 8.393533760659980e-02 1.799878788867763e-02
            7.299202138148328e-02 -8.614491478611031e-03 2.274287179407442e-01 -2.972172691790129e-01 8.393952897516366e-02 1.798005179821916e-02 9.239955703396510e-02 1.789292936128755e-02
959207500.0000000000 1.027286927826322e-01 8.536387553755896e-03 9.543324365712874e-02 1.171967028287078e-02 1.114281777296459e-01 -3.564048098417484e-01 6.366052610750716e-02 -3.282575794421389e-02
            9.537340457490200e-02 1.181822394983444e-02 1.026972087642933e-01 8.546304340641303e-03 6.354663071657830e-02 -3.279639293350510e-02 1.114520837188234e-01 -3.564573400785306e-01
            1.114460969845759e-01 -3.564123162504768e-01 6.359771933834649e-02 -3.272621043151715e-02 1.036228905559042e-01 1.360536211273297e-02 9.482578347390556e-02 1.410555089656489e-02
            6.360440707211591e-02 -3.289760191396210e-02 1.113649790018489e-01 -3.564060213214465e-01 9.475816889628511e-02 1.411233784693389e-02 1.035543999681860e-01 1.359310820118498e-02
960040000.0000000000 1.078084945077786e-01 -2.216991673903309e-03 1.006078788941600e-01 1.529432923991778e-03 -1.714342513485970e-02 -3.725898526429835e-01 4.726019314788801e-02 -5.213727113359273e-02
            1.006554861860848e-01 1.483640995082345e-03 1.078145620196305e-01 -2.179248994314065e-03 4.723564233960813e-02 -5.208904332033799e-02 -1.709355312511489e-02 -3.726507524352850e-01
            -1.709000502296842e-02 -3.726631913220557e-01 4.727484499094192e-02 -5.207613076178574e-02 1.092746632863933e-01 3.285200748816273e-03 1.005270317250347e-01 4.234936399120016e-03
            4.728728560040758e-02 -5.208814964769962e-02 -1.707735690875052e-02 -3.725996148060338e-01 1.004697395401402e-01 4.248471216592967e-03 1.092788791079036e-01 3.246101456812589e-03
960872500.0000000000 1.047002125271650e-01 -1.376624460831747e-02 9.812985912647558e-02 -9.692039106680254e-03 -1.433853245410038e-01 -3.445544697668914e-01 2.546932126544265e-02 -6.480163881419243e-02
            9.811111856996968e-02 -9.693125902251456e-03 1.046935905730260e-01 -1.372418960885175e-02 2.546823522038769e-02 -6.478824317548261e-02 -1.433375713966845e-01 -3.445668514763792e-01
            -1.432916612301247e-01 -3.445518053968053e-01 2.556735272426369e-02 -6.479849275474442e-02 1.072385449982244e-01 -8.155972826636495e-03 9.857098503819788e-02 -6.872836890592504e-03
            2.548327004659139e-02 -6.481211934443525e-02 -1.433165401263183e-01 -3.445825009058309e-01 9.864589965357201e-02 -6.882579536674603e-03 1.071986308644400e-01 -8.190410525352413e-03
961705000.0000000000 9.493759369044294e-02 -2.070711583080910e-02 8.888238081942176e-02 -1.666275992660362e-02 -2.530200210755776e-01 -2.752917911798605e-01 2.138623890743066e-04 -6.908222492505983e-02
            8.894860666594537e-02 -1.669620947012687e-02 9.484992927037225e-02 -2.075238837890114e-02 2.564866251612213e-04 -6.908832845688567e-02 -2.529991067041693e-01 -2.752809027671936e-01
            -2.531240049281564e-01 -2.752539938951702e-01 2.005207881723049e-04 -6.912323674080478e-02 9.816785462680172e-02 -1.551263230244601e-02 8.999869073293887e-02 -1.405547055982286e-02
            2.578592259432742e-04 -6.912111477896200e-02 -2.530792962430918e-01 -2.753152366833545e-01 8.990646444312807e-02 -1.411014467699991e-02 9.817520262146312e-02 -1.564494907841697e-02
962537500.0000000000 8.294742742308786e-02 -1.969492994697023e-02 7.733342029243052e-02 -1.614178248455888e-02 -3.330783805669105e-01 -1.720073723840642e-01 -2.514381385854124e-02 -6.373601646206915e-02
            7.734642296671207e-02 -1.606429994487859e-02 8.281808538838813e-02 -1.965273553984615e-02 -2.517487638852286e-02 -6.364324638841551e-02 -3.330698060676122e-01 -1.720100515263616e-01
            -3.331938191080987e-01 -1.721285335716258e-01 -2.511914777616684e-02 -6.378624404619318e-02 8.661565859840621e-02 -1.523293712905814e-02 7.877379702109577e-02 -1.390260467813202e-02
            -2.508854772469977e-02 -6.366526009262585e-02 -3.331332540276035e-01 -1.719834615300163e-01 7.881135790551771e-02 -1.386409254133792e-02 8.656752964474743e-02 -1.512970707425905e-02
963370000.0000000000 7.432148129897613e-02 -1.106979948864937e-02 6.892780930026712e-02 -8.138552113800058e-03 -3.727883009390883e-01 -4.663148742610505e-02 -4.650248293147851e-02 -4.878110548074020e-02
            6.896998129740847e-02 -8.154299242495111e-03 7.437101252122455e-02 -1.096344237936970e-02 -4.653857752465349e-02 -4.880493130075982e-02 -3.728071718841863e-01 -4.658301306357616e-02
            -3.728508274533739e-01 -4.664073185763169e-02 -4.656280313706637e-02 -4.867375646079942e-02 7.807691539941289e-02 -7.297448033082127e-03 7.038801661241517e-02 -6.327935303292745e-03
            -4.650211157627777e-02 -4.868718583652632e-02 -3.728061140611109e-01 -4.660442521026828e-02 7.047623141496347e-02 -6.381581590575790e-03 7.801159433081653e-02 -7.356325614164559e-03
964202500.0000000000 7.367719966946044e-02 1.121050170897258e-03 6.791507328272990e-02 3.508836794762058e-03 -3.661372112077348e-01 8.528965665945695e-02 -6.000485408049027e-02 -2.697371012178033e-02
            6.790958682371856e-02 3.357808035698040e-03 7.361161456423813e-02 1.140432102549700e-03 -6.000396373483935e-02 -2.697079661096047e-02 -3.661096564150865e-01 8.531681827796689e-02
            -3.661838322154350e-01 8.523147176451441e-02 -5.990807778089184e-02 -2.695794613887753e-02 7.694217627263199e-02 4.329638560022068e-03 6.907558891746983e-02 4.871518780236412e-03
            -5.998331188583796e-02 -2.699186523818069e-02 -3.660763076168465e-01 8.524955841705568e-02 6.920237192078693e-02 4.764240374922553e-03 7.687516239772967e-02 4.449475956808793e-03
965035000.0000000000 8.103494936732385e-02 1.061363225762052e-02 7.483613743855834e-02 1.273787160572572e-02 -3.137871678810932e-01 2.063136415598337e-01 -6.362384941296846e-02 -2.568936673328298e-03
            7.482615299712947e-02 1.279105964971718e-02 8.101780461060312e-02 1.058327426179024e-02 -6.361508812631779e-02 -2.698001798420386e-03 -3.137646252049780e-01 2.063614163938434e-01
            -3.137431105451552e-01 2.063638319753283e-01 -6.374444928510496e-02 -2.717169418201059e-03 8.371261314020692e-02 1.381753223780415e-02 7.563222787654857e-02 1.410190776207231e-02
            -6.358202778108557e-02 -2.617836255486607e-03 -3.137332633230318e-01 2.063725086134473e-01 7.556216458970789e-02 1.403486713378045e-02 8.371534011261553e-02 1.377036535775896e-02
965867500.0000000000 9.286522936683739e-02 1.311639019259688e-02 8.606998912870564e-02 1.534220255256968e-02 -2.229959826700259e-01 3.011312436721686e-01 -5.830727017069927e-02 1.994384187781709e-02
            8.600480720096619e-02 1.527104187947438e-02 9.274031454370536e-02 1.290657827669873e-02 -5.824813473903086e-02 1.993837940504618e-02 -2.228910256788716e-01 3.011056879092204e-01
            -2.230070314614791e-01 3.011142921282209e-01 -5.832974303253776e-02 2.005624658693641e-02 9.509559335864791e-02 1.654469412152759e-02 8.647011077765726e-02 1.676427034292807e-02
            -5.828622184231994e-02 2.003772592767204e-02 -2.230129536185229e-01 3.010749893819659e-01 8.647771122581636e-02 1.670375506037002e-02 9.509134718684173e-02 1.658870182074626e-02
966700000.0000000000 1.031443577656932e-01 7.141943473723509e-03 9.614081578161678e-02 9.946020028702632e-03 -1.060413277606449e-01 3.585508013341760e-01 -4.612163081178187e-02 3.840018467591987e-02
            9.610507224033775e-02 9.907833339004276e-03 1.030820428529642e-01 7.137088501587140e-03 -4.606149266467342e-02 3.849791268545117e-02 -1.060277097196541e-01 3.586129116001336e-01
            -1.059633467800878e-01 3.586109386341639e-01 -4.605815128813774e-02 3.847585289622113e-02 1.053136845628422e-01 1.122534709741572e-02 9.644124372279197e-02 1.174088929362918e-02
            -4.609710906737365e-02 3.846549746581215e-02 -1.060168788249173e-01 3.586627998405311e-01 9.632158855059282e-02 1.174172640381438e-02 1.054820025360020e-01 1.120537535551192e-02
967532500.0000000000 1.072592922191225e-01 -3.934997531987799e-03 1.004848027575195e-01 -5.605069093189630e-04 2.284503646786397e-02 3.728058567179643e-01 -2.888413705799172e-02 5.155429302294013e-02
            1.004502971925104e-01 -5.965949034942528e-04 1.072574833452629e-01 -4.010609167721292e-03 -2.892880154766497e-02 5.148810314560855e-02 2.283593609163653e-02 3.727670183372113e-01
            2.286165887300515e-02 3.728196726363318e-01 -2.890376026932806e-02 5.150169413242554e-02 1.097372776510461e-01 5.281441760247391e-04 1.006853675284850e-01 1.512474491533694e-03
            -2.894484714408804e-02 5.147602428498863e-02 2.284178692870705e-02 3.728532809031076e-01 1.007311639607238e-01 1.472032240321497e-03 1.099028564106714e-01 4.850995250647247e-04
968365000.0000000000 1.031864799932613e-01 -1.505814032591766e-02 9.697568308025196e-02 -1.140936630056715e-02 1.488697997192089e-01 3.427734675873854e-01 -8.382113932767502e-03 5.796668457807094e-02
            9.692690015502879e-02 -1.142878854964420e-02 1.032859782966146e-01 -1.511073616011908e-02 -8.310662768797602e-03 5.803165158742844e-02 1.488273634397561e-01 3.428801090436782e-01
            1.489276695164171e-01 3.427979717049323e-01 -8.366375096580682e-03 5.803103024600063e-02 1.062750828971120e-01 -1.043630977211284e-02 9.748078515642389e-02 -9.108444935250893e-03
            -8.369531402923904e-03 5.802874819342589e-02 1.488462258065115e-01 3.428401358161653e-01 9.738661151105454e-02 -9.158508390217718e-03 1.062757409134039e-01 -1.052627105188977e-02
969197500.0000000000 9.290351321514757e-02 -2.099842400774418e-02 8.730397729508441e-02 -1.741915356304020e-02 2.577336686925138e-01 2.716741231869007e-01 1.360755641753056e-02 5.685898982248109e-02
            8.735564439509694e-02 -1.741469568635710e-02 9.294614717136920e-02 -2.106397308113140e-02 1.361418507809660e-02 5.679922111457979e-02 2.577545261766248e-01 2.715545330547002e-01
            2.576571645304831e-01 2.716661277712641e-01 1.363952712196830e-02 5.683565791069859e-02 9.650417833667235e-02 -1.659493379909255e-02 8.792887070619922e-02 -1.509087438927089e-02
            1.358360345621012e-02 5.684682555393272e-02 2.577332521128657e-01 2.716127850045900e-01 8.790482530244113e-02 -1.503421783246924e-02 9.646223715944061e-02 -1.653644569853976e-02
970030000.0000000000 8.129995057879123e-02 -1.874848500161591e-02 7.627154705258142e-02 -1.587390456424120e-02 3.363268903288225e-01 1.668110620235921e-01 3.412267926193336e-02 4.721550475578707e-02
            7.622476488547081e-02 -1.585626522096043e-02 8.127624757769220e-02 -1.878695529693601e-02 3.409035849946641e-02 4.722409623680001e-02 3.362961599722122e-01 1.667740532839628e-01
            3.362168428103889e-01 1.668440428635826e-01 3.401989632221459e-02 4.723218763008398e-02 8.493852113825238e-02 -1.488192682546603e-02 7.671611541165169e-02 -1.334591393568868e-02
            3.405163871100582e-02 4.719866919041783e-02 3.362257938940123e-01 1.667831331658803e-01 7.673870347686733e-02 -1.337800678462591e-02 8.491936032253526e-02 -1.472774130797294e-02
970862500.0000000000 7.395705605027121e-02 -9.465692552211401e-03 6.903448306485939e-02 -7.310438754827500e-03 3.737438666595429e-01 4.049119916865582e-02 4.902472927851157e-02 3.012143045793331e-02
            6.899847502429046e-02 -7.336582923976135e-03 7.394189703316277e-02 -9.513937725162838e-03 4.900008448408175e-02 3.013698180318251e-02 3.736728183781890e-01 4.052286162880488e-02
            3.737337533909981e-01 4.051188538665236e-02 4.906729985288139e-02 3.015818453632618e-02 7.728663240583040e-02 -5.738916231179328e-03 6.923036878317299e-02 -4.660816542769886e-03
            4.908841878549420e-02 3.015167398688398e-02 3.737603394035852e-01 4.043938144045883e-02 6.912903690932004e-02 -4.638865787473511e-03 7.726217145472145e-02 -5.820863959248701e-03
971695000.0000000000 7.461237859997136e-02 2.409708362081926e-03 6.937228258144817e-02 3.756447893336644e-03 3.646810543072678e-01 -9.135174642872650e-02 5.574333042517539e-02 8.587266613229064e-03
            6.941465806361430e-02 3.767460870912268e-03 7.462667913958961e-02 2.394958143812137e-03 5.580391077362656e-02 8.671210706335771e-03 3.646687993353050e-01 -9.133300302970901e-02
            3.646733154207542e-01 -9.127694327274323e-02 5.577081361264808e-02 8.695686594963416e-03 7.737778304419754e-02 6.048354778124343e-03 6.922174750503550e-02 6.924371749524693e-03
            5.579099878547818e-02 8.613607683568739e-03 3.646711135014116e-01 -9.132946015194147e-02 6.918688119833998e-02 7.048871494610969e-03 7.737445631090067e-02 6.088021280242545e-03
972527500.0000000000 8.303686130150986e-02 1.079138176095168e-02 7.710959770745020e-02 1.181362155653996e-02 3.102175326909123e-01 -2.113102848773320e-01 5.340064287877637e-02 -1.297298775988806e-02
            7.704729550510780e-02 1.170841974895731e-02 8.297696512985896e-02 1.085216721568631e-02 5.333415095918032e-02 -1.299609938777402e-02 3.102129365615478e-01 -2.112712008937398e-01
            3.101713962088490e-01 -2.113021418628820e-01 5.332162052787666e-02 -1.301783106988251e-02 8.513572438120375e-02 1.489396616555121e-02 7.673824216283794e-02 1.584372443578215e-02
            5.337194699960224e-02 -1.295149426584559e-02 3.101576822755121e-01 -2.113411619604788e-01 7.675806696398453e-02 1.585024120283470e-02 8.521458613860805e-02 1.491524662778434e-02
973360000.0000000000 9.485188935310922e-02 1.162363346806621e-02 8.809523223780159e-02 1.251758870830898e-02 2.180073950844714e-01 -3.044493486651955e-01 4.333114962047337e-02 -3.095786782397953e-02
            8.814032087544889e-02 1.249081932360885e-02 9.480673946963762e-02 1.163295864670074e-02 4.341799840943104e-02 -3.101089612219309e-02 2.179503246179810e-01 -3.043531418973460e-01
            2.179588462025658e-01 -3.043666652286467e-01 4.337474716334812e-02 -3.103044055598244e-02 9.678671620819633e-02 1.660097149447367e-02 8.812563043585403e-02 1.764502512373865e-02
            4.331641970661155e-02 -3.111199236296897e-02 2.179815636778868e-01 -3.043405952438099e-01 8.810381540010244e-02 1.766435459781012e-02 9.674489251093994e-02 1.656118319564619e-02
974192500.0000000000 1.043480213076949e-01 4.545421717110355e-03 9.693765821198910e-02 5.715952292420569e-03 1.002944699781492e-01 -3.597471863243541e-01 2.842450347887003e-02 -4.365898506331260e-02
            9.699247468764141e-02 5.707870915817941e-03 1.043079438845054e-01 4.546949117870625e-03 2.842936778858295e-02 -4.372847118867140e-02 1.003142062627159e-01 -3.598136700862989e-01
            1.003158511369133e-01 -3.597983667664663e-01 2.837569617084686e-02 -4.365446393396873e-02 1.065037342220908e-01 1.050990809355750e-02 9.793242455315999e-02 1.200057728631113e-02
            2.842332286728058e-02 -4.369219165183524e-02 1.002958189009131e-01 -3.598164910523861e-01 9.787052599305619e-02 1.193019685938946e-02 1.065833213569733e-01 1.058672161106150e-02
975025000.0000000000 1.070190696603950e-01 -6.912338579696620e-03 9.927038546927973e-02 -5.354554477772834e-03 -2.863310263577338e-02 -3.721046290768577e-01 1.061655369509856e-02 -5.042816854624722e-02
            9.930699462361321e-02 -5.360078890074818e-03 1.069883404971312e-01 -6.944582664999760e-03 1.063353751313303e-02 -5.045259120007688e-02 -2.869402989032654e-02 -3.720092233899117e-01
            -2.852943959067303e-02 -3.721279761295287e-01 1.062185991722786e-02 -5.041308899732660e-02 1.099979077804718e-01 -3.211038224910542e-04 1.016369408406393e-01 1.508003592894836e-03
            1.061260329516664e-02 -5.048180127703575e-02 -2.867031857156980e-02 -3.720742522424668e-01 1.016439347809775e-01 1.613780543361242e-03 1.099651128857480e-01 -2.663569124867528e-04
975857500.0000000000 1.016874136447921e-01 -1.754765510023342e-02 9.395502600895482e-02 -1.548542373448276e-02 -1.540841518859880e-01 -3.401567374136156e-01 -8.558389085732695e-03 -5.077018152842255e-02
            9.395909925112680e-02 -1.554546218496709e-02 1.016300880548095e-01 -1.761484205693769e-02 -8.562401538743495e-03 -5.079017090421266e-02 -1.541948764390142e-01 -3.400858410240943e-01
            -1.541157894189415e-01 -3.401402603182274e-01 -8.531360258833207e-03 -5.078263076572487e-02 1.056209186022442e-01 -1.059004989259464e-02 9.785794544937336e-02 -8.591525561692626e-03
            -8.547428138253800e-03 -5.084998697504856e-02 -1.540878417049852e-01 -3.401406425701277e-01 9.787677307667278e-02 -8.624657257222558e-03 1.056001991843288e-01 -1.065889613011160e-02
976690000.0000000000 9.071969975911880e-02 -2.217915332002193e-02 8.325912351796272e-02 -2.000445448234472e-02 -2.618333036918486e-01 -2.672447800361634e-01 -2.713642174390494e-02 -4.421193421020703e-02
            8.321741923796387e-02 -1.990531465700222e-02 9.066853299133706e-02 -2.222250470478176e-02 -2.716872077270473e-02 -4.429094091001994e-02 -2.618194385664590e-01 -2.671318171649328e-01
            -2.617366598065165e-01 -2.671131010486638e-01 -2.718280389769682e-02 -4.416298204983213e-02 9.556602693501967e-02 -1.551180742825908e-02 8.849507706854372e-02 -1.376842799464165e-02
            -2.713607029158257e-02 -4.423440398417250e-02 -2.618284825048776e-01 -2.671808986255113e-01 8.850453575834023e-02 -1.378714971223734e-02 9.546315951521903e-02 -1.562695857069789e-02
977522500.0000000000 7.933345793900541e-02 -1.855703566844123e-02 7.204379109188266e-02 -1.638926158481165e-02 -3.384958218152054e-01 -1.610200099500087e-01 -4.241180749144891e-02 -3.068863255089395e-02
            7.203975203511016e-02 -1.645604847283754e-02 7.941958573460906e-02 -1.859298646172628e-02 -4.245780794993653e-02 -3.058312428915304e-02 -3.384613412814356e-01 -1.609904715611286e-01
            -3.385549673319560e-01 -1.610760062318475e-01 -4.240077291714459e-02 -3.062105681626206e-02 8.455835568931308e-02 -1.259642903080900e-02 7.807809596790397e-02 -1.130882758046847e-02
            -4.232143205435008e-02 -3.055096090385381e-02 -3.385186697541076e-01 -1.610681830298654e-01 7.801336503933436e-02 -1.136268158074467e-02 8.449841273252555e-02 -1.251345992714797e-02
978355000.0000000000 7.334985396907041e-02 -8.412630865465644e-03 6.590148690261131e-02 -6.435636394208687e-03 -3.736785667057984e-01 -3.421859431907320e-02 -5.105434203108974e-02 -1.147473916032298e-02
            6.591803565434497e-02 -6.491029644312572e-03 7.340202323942101e-02 -8.345586491576951e-03 -5.102129282152585e-02 -1.144932598962635e-02 -3.735652338535098e-01 -3.420094787126776e-02
            -3.736729449806845e-01 -3.418918786528661e-02 -5.102144337703990e-02 -1.145415188750065e-02 7.814571334230881e-02 -2.768912349511268e-03 7.175080191016234e-02 -2.556047046806030e-03
            -5.105749093011335e-02 -1.143136475789682e-02 -3.737138671564704e-01 -3.412161453424924e-02 7.184407643481633e-02 -2.477749928315281e-03 7.816283804326363e-02 -2.816360473572629e-03
979187500.0000000000 7.568245160353834e-02 3.239477584467554e-03 6.778015426706020e-02 5.025300250211864e-03 -3.621116252634634e-01 9.707178107277765e-02 -5.099962047204572e-02 9.556489440667700e-03
            6.787860915885476e-02 4.956484946564216e-03 7.557344937500472e-02 3.274737778990678e-03 -5.102425602112029e-02 9.578392941912551e-03 -3.621290480005076e-01 9.705183408003425e-02
            -3.621885984277974e-01 9.703822582676218e-02 -5.098785727516700e-02 9.599221548124225e-03 7.966366182207203e-02 8.968930896874328e-03 7.313505636647462e-02 8.430344795468369e-03
            -5.097097527232895e-02 9.462584236200651e-03 -3.621389595267942e-01 9.710751010704438e-02 7.316794091691502e-02 8.291331824389131e-03 7.978326613822587e-02 8.928291429263624e-03
980020000.0000000000 8.527247976303769e-02 1.047476907967262e-02 7.691458689940937e-02 1.230309306696850e-02 -3.057337902631729e-01 2.157349863247598e-01 -4.259639418147537e-02 2.815469160077833e-02
            7.684049331910024e-02 1.224283615538273e-02 8.522430490056630e-02 1.043725502217084e-02 -4.260057185477226e-02 2.824022452432135e-02 -3.056299353736248e-01 2.156965675090927e-01
            -3.057026715836005e-01 2.157019180730793e-01 -4.259752817266967e-02 2.817905134634003e-02 8.854649067474424e-02 1.694164008826832e-02 8.134388354951964e-02 1.576413414965094e-02
            -4.264480892869247e-02 2.818178434495022e-02 -3.057018213853058e-01 2.156529778850231e-01 8.139148294535258e-02 1.576057964378650e-02 8.860525679595936e-02 1.695644510788602e-02
980852500.0000000000 9.723024604551646e-02 9.569217067658202e-03 8.842515387442754e-02 1.174085567859454e-02 -2.122224038836276e-01 3.066674655713262e-01 -2.813324917824666e-02 4.141609041445848e-02
            8.841734381559382e-02 1.179884807101732e-02 9.729899909816175e-02 9.511126614428827e-03 -2.816460352279614e-02 4.145906016376624e-02 -2.123570028557892e-01 3.067459710065674e-01
            -2.122723541201892e-01 3.067695527647389e-01 -2.818778425155037e-02 4.142439321443429e-02 1.004803089493042e-01 1.752932191752556e-02 9.259628363207008e-02 1.598014355962640e-02
            -2.813351608163786e-02 4.140061560156023e-02 -2.122358265674429e-01 3.066852743280393e-01 9.254933593538024e-02 1.607532802515951e-02 1.004970829635307e-01 1.752985774514827e-02
981685000.0000000000 1.059633169638419e-01 8.454733854649510e-04 9.697304218104728e-02 3.863981827315214e-03 -9.423261397399786e-02 3.600022083335682e-01 -1.071744352437610e-02 4.826009242487305e-02
            9.699671629565099e-02 3.863655326355842e-03 1.059238483174545e-01 8.572710050727397e-04 -1.065517985970866e-02 4.827611807491376e-02 -9.425807976197383e-02 3.599873406237634e-01
            -9.428145023133927e-02 3.599474360647928e-01 -1.064505262270471e-02 4.822718787851583e-02 1.098126144408866e-01 1.050824059918505e-02 1.012483757938141e-01 9.174076664744974e-03
            -1.076341840798009e-02 4.826761310045808e-02 -9.424870879134370e-02 3.599872321411563e-01 1.012946118440959e-01 9.218792643381383e-03 1.098424208867342e-01 1.054620833028280e-02
982517500.0000000000 1.072859368737397e-01 -1.149031768047813e-02 9.839298857382039e-02 -7.772488048436437e-03 3.426183773077070e-02 3.702252347240654e-01 7.581278741446471e-03 4.879139768917821e-02
            9.843140333768585e-02 -7.821626945611672e-03 1.071923047682837e-01 -1.143101684843491e-02 7.555708906567031e-03 4.870797901941601e-02 3.425043315547883e-02 3.701980697673160e-01
            3.423771724253424e-02 3.701781784861380e-01 7.568862188102802e-03 4.872547591560855e-02 1.125519783340870e-01 -5.244677335338101e-04 1.036137542802813e-01 -1.477660483272133e-03
            7.601365830106384e-03 4.876319767365925e-02 3.429198619823856e-02 3.701664318077528e-01 1.036569157123673e-01 -1.403192209927791e-03 1.125428856794688e-01 -5.650271830322834e-04
983350000.0000000000 1.003649403109461e-01 -2.180209142922303e-02 9.212267759566589e-02 -1.774853478582017e-02 1.588449012399792e-01 3.363943203374558e-01 2.518105367678396e-02 4.306068449270013e-02
            9.214801527527244e-02 -1.773720683878276e-02 1.005050727497198e-01 -2.177103829113569e-02 2.510613250823405e-02 4.304396739820981e-02 1.588295610785088e-01 3.363898448196520e-01
            1.587866378757636e-01 3.364687282246596e-01 2.512579409361394e-02 4.306501348521640e-02 1.074542703538231e-01 -1.048867951755958e-02 9.861009377501398e-02 -1.093651709098763e-02
            2.507056063417539e-02 4.305009108823953e-02 1.588957191524339e-01 3.364577056826656e-01 9.862636690519250e-02 -1.103359091623905e-02 1.074655914204781e-01 -1.043225428912063e-02
984182500.0000000000 8.873048581716948e-02 -2.540124265026175e-02 8.096517961753597e-02 -2.146885785717581e-02 2.650813011527970e-01 2.620028708204077e-01 4.016345156841607e-02 3.117705542070176e-02
            8.102202484538261e-02 -2.145590391815463e-02 8.882766040600738e-02 -2.545666789562902e-02 4.017461374326559e-02 3.116953068820909e-02 2.650640754181297e-01 2.619743667696547e-01
            2.651154986831770e-01 2.619410221945436e-01 4.017940491823408e-02 3.112471717261963e-02 9.718006119243042e-02 -1.438563461699576e-02 8.868404536947951e-02 -1.485280173755852e-02
            4.010888939013100e-02 3.111605636885831e-02 2.650783187632866e-01 2.619842367720843e-01 8.871681585157172e-02 -1.494248711880815e-02 9.720228141791304e-02 -1.456111509172630e-02
985015000.0000000000 7.783462097011232e-02 -2.072313580320764e-02 7.034507702901673e-02 -1.718639433984399e-02 3.396688627422552e-01 1.548104997812634e-01 5.007224458681618e-02 1.367243465607482e-02
            7.026019590547196e-02 -1.711642885761930e-02 7.782065374785015e-02 -2.079446911772279e-02 5.006891827269700e-02 1.375708789195312e-02 3.396507645174426e-01 1.548636512884962e-01
            3.395859565116706e-01 1.549246363712903e-01 5.016318560449884e-02 1.374261362625060e-02 8.670003676374646e-02 -1.028586008083612e-02 7.854551683753534e-02 -1.107922637612253e-02
            5.013956090496798e-02 1.374701227922837e-02 3.396413671845477e-01 1.548252285961383e-01 7.855931753625393e-02 -1.109203164254605e-02 8.660313072649509e-02 -1.034524411032147e-02
985847500.0000000000 7.310690166250443e-02 -1.025638934695756e-02 6.547039340603718e-02 -7.090926866941406e-03 3.724086601862434e-01 2.780822023138254e-02 5.220769322037738e-02 -7.023185467199648e-03
            6.547356487638073e-02 -7.101228764569306e-03 7.312379003123159e-02 -1.013628485340566e-02 5.229466331318684e-02 -7.075637563591657e-03 3.723284484402151e-01 2.783533572209095e-02
            3.723562717513206e-01 2.787325873264854e-02 5.230940602120484e-02 -7.083141612878980e-03 8.150859496527772e-02 2.237401885693222e-04 7.345826271181496e-02 -1.092719890066896e-03
            5.231759514445938e-02 -7.060743114427313e-03 3.723722924551841e-01 2.777753177009282e-02 7.354619340669155e-02 -1.161461507562069e-03 8.151212301327197e-02 2.733644095482401e-04
986680000.0000000000 7.697037157562803e-02 3.999726031903780e-04 6.898580644000649e-02 3.248916030206932e-03 3.585336503606740e-01 -1.025422178901861e-01 4.555950433949491e-02 -2.728590908387089e-02
            6.900466817647759e-02 3.208692270170122e-03 7.705346718994655e-02 4.687714631199432e-04 4.557765716156614e-02 -2.731537945355718e-02 3.584999321032424e-01 -1.025788262665391e-01
            3.584070326745880e-01 -1.026322941822660e-01 4.561158141835688e-02 -2.727371856758942e-02 8.463886543800858e-02 1.230794844301726e-02 7.635111448530482e-02 1.023287934472897e-02
            4.561037499509907e-02 -2.727899730828085e-02 3.584391612280848e-01 -1.025537327955397e-01 7.642339323064021e-02 1.018674566296961e-02 8.471042204650764e-02 1.240387186520476e-02
987512500.0000000000 8.759877081324531e-02 5.113908507147879e-03 7.868197597054577e-02 7.997068494069177e-03 3.002113398688850e-01 -2.191575117347893e-01 3.120763575942247e-02 -4.270282885266128e-02
            7.874103751895098e-02 8.010838016250832e-03 8.765075926377690e-02 5.078383207194867e-03 3.126605570348590e-02 -4.272647376300383e-02 3.000991199516092e-01 -2.192350928202925e-01
            3.001993702233292e-01 -2.192354570263445e-01 3.127468881544239e-02 -4.272849101030023e-02 9.539567946363643e-02 2.025353868668004e-02 8.615364266176218e-02 1.749646777638334e-02
            3.125691891372306e-02 -4.272466488068582e-02 3.000867469896609e-01 -2.191844920407396e-01 8.614770637510560e-02 1.746258001945077e-02 9.536168455795939e-02 2.018169474071140e-02
988345000.0000000000 9.917194962138740e-02 7.402812166301380e-04 8.953147084559314e-02 4.253035419330065e-03 2.059110246228822e-01 -3.077575883645186e-01 1.262199089533637e-02 -5.093601193279140e-02
            8.958102691073816e-02 4.281977189400185e-03 9.923725839380179e-02 7.510083665456847e-04 1.261302630618348e-02 -5.101730005532361e-02 2.059505556164579e-01 -3.077924851934971e-01
            2.058746572690491e-01 -3.078133066592529e-01 1.262407515521727e-02 -5.093784914993905e-02 1.090227215939180e-01 2.031127734952291e-02 9.886957896628741e-02 1.742862795935987e-02
            1.258761843371330e-02 -5.097208154848275e-02 2.059393423525467e-01 -3.078587277603565e-01 9.890394043888498e-02 1.741537026607991e-02 1.090103654747515e-01 2.032413677950722e-02
989177500.0000000000 1.054365878334353e-01 -1.148846251701270e-02 9.558829100450299e-02 -6.861430579831473e-03 8.813951472191824e-02 -3.585837393240984e-01 -6.942363789020862e-03 -5.168488637351386e-02
            9.554092690667387e-02 -6.879170770938694e-03 1.055286690232600e-01 -1.141077001041970e-02 -6.967556548831859e-03 -5.162914002631616e-02 8.809160023152871e-02 -3.585884571133099e-01
            8.811192536451332e-02 -3.585914865726388e-01 -6.964532116858437e-03 -5.161587954708621e-02 1.205032999103614e-01 1.247121969318301e-02 1.093746137195152e-01 9.966589042861280e-03
            -6.886870400182530e-03 -5.170185841316707e-02 8.814637447427352e-02 -3.585464432339309e-01 1.093110097614077e-01 9.952052251962908e-03 1.205025221600749e-01 1.256196244296763e-02
990010000.0000000000 1.024708275671386e-01 -2.647368447902313e-02 9.285706205494260e-02 -2.083259294203153e-02 -3.923849647249692e-02 -3.666760832526414e-01 -2.500376457988814e-02 -4.580944257198703e-02
            9.284495196401966e-02 -2.071772626413524e-02 1.024723654195561e-01 -2.643717037044518e-02 -2.501698044239726e-02 -4.587513475037335e-02 -3.926868616837061e-02 -3.667079094330624e-01
            -3.927587203463830e-02 -3.666048183326817e-01 -2.499926130040952e-02 -4.582095594789142e-02 1.257275363482733e-01 1.472107499726413e-04 1.138995557876555e-01 -1.682237573393196e-03
            -2.505590900971920e-02 -4.585151652643753e-02 -3.922484912176685e-02 -3.666605120474433e-01 1.139125950957673e-01 -1.642912896653648e-03 1.257349289851874e-01 5.085864363167016e-06
990842500.0000000000 8.989498470106788e-02 -3.781169089919331e-02 8.119699184535881e-02 -3.141329939139096e-02 -1.620188015701617e-01 -3.314803545311261e-01 -4.016423020568212e-02 -3.453492481638204e-02
            8.115377273265638e-02 -3.138039300901237e-02 8.997039553602956e-02 -3.785867336702402e-02 -4.017627348527045e-02 -3.454375943675698e-02 -1.620029458622933e-01 -3.314497549948999e-01
            -1.619607243731284e-01 -3.315430730216554e-01 -4.017124720334340e-02 -3.452360261283930e-02 1.236573456298211e-01 -1.225864769210120e-02 1.115757467245819e-01 -1.329142274180033e-02
            -4.018558250425634e-02 -3.452725590574700e-02 -1.619635163526426e-01 -3.314990701143034e-01 1.116214253655774e-01 -1.326599427927912e-02 1.236912635835876e-01 -1.227522226950277e-02
991675000.0000000000 7.175462708772019e-02 -4.046300532754445e-02 6.403050787213189e-02 -3.374856214191706e-02 -2.659919073217072e-01 -2.565099595069453e-01 -5.117546536417136e-02 -1.838642025498521e-02
            6.401073865735420e-02 -3.379785307930429e-02 7.174051931546568e-02 -4.044574653407149e-02 -5.114962040940200e-02 -1.829437926316028e-02 -2.660768985131900e-01 -2.565365245268093e-01
            -2.661137555769927e-01 -2.565759665604723e-01 -5.113271979987147e-02 -1.828706540676549e-02 1.161981071007641e-01 -2.064910197372063e-02 1.044530598150841e-01 -2.095511792851325e-02
            -5.120555947190683e-02 -1.839230937694301e-02 -2.660462162807423e-01 -2.564845510274497e-01 1.045120281822972e-01 -2.089138660577777e-02 1.162111671344542e-01 -2.067791914568436e-02
992507500.0000000000 5.422219324235038e-02 -3.207361956433669e-02 4.747810441647914e-02 -2.581913953626521e-02 -3.387885502954021e-01 -1.497855579005474e-01 -5.610501554230890e-02 1.674251282521655e-03
            4.749799227257460e-02 -2.569684816660199e-02 5.431049994284716e-02 -3.200963367621821e-02 -5.611591199050314e-02 1.689746996784491e-03 -3.387374791091293e-01 -1.497754443716196e-01
            -3.387086546307623e-01 -1.498185900488186e-01 -5.610272433290107e-02 1.740668212499274e-03 1.074931400715854e-01 -2.295319154154598e-02 9.619008358387542e-02 -2.291074186247657e-02
            -5.605108444321964e-02 1.743535770405712e-03 -3.387760607655890e-01 -1.497404332625904e-01 9.604976371298660e-02 -2.300510229385095e-02 1.073073756830794e-01 -2.288734399427833e-02
993340000.0000000000 4.412319103146659e-02 -1.525233256225606e-02 3.769250072851095e-02 -9.706695442420921e-03 -3.700449149832408e-01 -2.371831501301261e-02 -5.303991490059509e-02 2.325709110919201e-02
            3.766280337279946e-02 -9.720693140012678e-03 4.412475242167705e-02 -1.519279106494914e-02 -5.296946677824684e-02 2.321699009695263e-02 -3.700889248050566e-01 -2.371002249188282e-02
            -3.700679249842651e-01 -2.373323723697056e-02 -5.296552022478008e-02 2.324321900138618e-02 1.012796341881471e-01 -2.046872057825241e-02 9.035059933727622e-02 -2.054989856492056e-02
            -5.302233059933495e-02 2.316230787882090e-02 -3.700611856815562e-01 -2.376845198049855e-02 9.044567550329102e-02 -2.061406744163337e-02 1.012387196396418e-01 -2.037011557596449e-02
994172500.0000000000 4.482137009896221e-02 3.954006470414068e-03 3.812838855923212e-02 8.611510274632287e-03 -3.554026338521243e-01 1.054975451123414e-01 -4.135638455447335e-02 4.263541231392300e-02
            3.813030035911817e-02 8.616402635464945e-03 4.484182384217530e-02 4.003254592325513e-03 -4.135746914491581e-02 4.259713007290803e-02 -3.554407711521085e-01 1.055228646858464e-01
            -3.554431376606197e-01 1.055629243110717e-01 -4.135405434949407e-02 4.256618470374983e-02 9.987244743077950e-02 -1.670259665630492e-02 8.904011917119896e-02 -1.719694879279762e-02
            -4.136336562209413e-02 4.265094642117975e-02 -3.553913079065480e-01 1.055086369323977e-01 8.917686128085084e-02 -1.725598443587794e-02 9.980935447616836e-02 -1.672616027246067e-02
995005000.0000000000 5.518790798053021e-02 1.849394726387233e-02 4.791097874058545e-02 2.273394497890377e-02 -2.967445355782982e-01 2.214030944516489e-01 -2.254637207427434e-02 5.609122209539805e-02
            4.793917668782348e-02 2.266231237660639e-02 5.518739710873106e-02 1.851084165563581e-02 -2.261813259578277e-02 5.610692684889104e-02 -2.968000644303917e-01 2.213908667348537e-01
            -2.968016559591642e-01 2.213477635913332e-01 -2.253533667015255e-02 5.604382084762519e-02 1.019337138055690e-01 -1.556097411656423e-02 9.109795790440166e-02 -1.647472033479888e-02
            -2.254026918849139e-02 5.603844307254156e-02 -2.968915720407905e-01 2.213789004377106e-01 9.101896336681604e-02 -1.653375575004602e-02 1.020329625818014e-01 -1.553598291400039e-02
995837500.0000000000 7.003736856537235e-02 2.414629343434451e-02 6.187599024293693e-02 2.841915782592047e-02 -2.021312965176575e-01 3.093034238252059e-01 -9.345526524277829e-05 6.121083920246728e-02
            6.189591258696225e-02 2.853175154069535e-02 6.998824841932184e-02 2.399723865968874e-02 -1.980734796133577e-05 6.124170313453232e-02 -2.021354271021375e-01 3.094011740597130e-01
            -2.020847512035117e-01 3.093887200892517e-01 -4.754728371160131e-05 6.112450641080996e-02 1.045402708328927e-01 -1.892070498191864e-02 9.307681147815848e-02 -2.003458687985872e-02
            -5.416537455378884e-05 6.117409017643992e-02 -2.021694373329356e-01 3.092979719806075e-01 9.298189734796106e-02 -1.998532350680203e-02 1.045016680141078e-01 -1.886782306390271e-02
996670000.0000000000 8.303782909100761e-02 2.049768549999193e-02 7.419033726044305e-02 2.570516398471019e-02 -8.366375496903072e-02 3.592928517642594e-01 2.260280307392691e-02 5.767691589300497e-02
            7.429291828836738e-02 2.559311559708041e-02 8.307665112010980e-02 2.053822403126551e-02 2.261312276066723e-02 5.769308255646411e-02 -8.364669607257094e-02 3.593918024866184e-01
            -8.360899354546836e-02 3.593994709943276e-01 2.257380993682927e-02 5.767078862644894e-02 1.034450241400129e-01 -2.552406049366996e-02 9.142112868894808e-02 -2.644394269238012e-02
            2.266562841801667e-02 5.771021198944391e-02 -8.365542303899787e-02 3.594176577021325e-01 9.142081117596945e-02 -2.646154231888803e-02 1.035345665434495e-01 -2.548838627723073e-02
997502500.0000000000 8.952611513881559e-02 1.178080173745628e-02 8.059711863656835e-02 1.781542653880232e-02 4.459259135365348e-02 3.660325535728136e-01 4.256181578578382e-02 4.638780941700221e-02
            8.058715422747441e-02 1.780041361065745e-02 8.956371236558985e-02 1.167791043707084e-02 4.255428405637425e-02 4.640174149030692e-02 4.449774648109896e-02 3.660983369040217e-01
            4.454594471373204e-02 3.661244465018422e-01 4.255155752151620e-02 4.635676117617197e-02 9.697811261847543e-02 -3.198359843667951e-02 8.454156427790600e-02 -3.241492455483973e-02
            4.259021238814048e-02 4.634733933159974e-02 4.456500318397692e-02 3.660669403216369e-01 8.453129499386905e-02 -3.250690893810585e-02 9.702907142051007e-02 -3.193270305777010e-02
998335000.0000000000 8.839008575371497e-02 3.177851656771955e-03 7.992402246393578e-02 1.015209881776001e-02 1.676059559658162e-01 3.287223540082229e-01 5.775688200495527e-02 2.861470720337953e-02
            7.984967562976310e-02 1.005580762036440e-02 8.835772159307967e-02 3.210287580786818e-03 5.767665061017185e-02 2.864134531760185e-02 1.676295232768382e-01 3.287107706343178e-01
            1.675611723596716e-01 3.286735549392601e-01 5.768267772786125e-02 2.863966019447598e-02 8.600771083111668e-02 -3.426665739853237e-02 7.355410594758148e-02 -3.407231241035174e-02
            5.771090501555027e-02 2.863578668737167e-02 1.676019914142800e-01 3.286925127107739e-01 7.356322012884527e-02 -3.412458541240278e-02 8.596258549692017e-02 -3.422735970061999e-02
999167500.0000000000 8.234874449948959e-02 -4.720252184732313e-04 7.447400430786336e-02 6.965989131598356e-03 2.706117518167049e-01 2.510796360733568e-01 6.596635536211670e-02 5.928603672378491e-03
            7.451709067597605e-02 6.938627437875772e-03 8.231145229782902e-02 -5.365508345082155e-04 6.586216620612699e-02 5.905757324808370e-03 2.706835762632474e-01 2.511196639678925e-01
            2.706245141717441e-01 2.510589517965788e-01 6.602417878399079e-02 5.865614116775061e-03 7.416878389661963e-02 -2.954317598930571e-02 6.215869751150695e-02 -2.894983490461740e-02
            6.601587691897132e-02 5.874320230939177e-03 2.705975263327369e-01 2.511061423416371e-01 6.213787200942739e-02 -2.893275977351293e-02 7.419046710661908e-02 -2.962575269425886e-02
1000000000.0000000000 7.623634231653874e-02 2.456509980107974e-03 6.901869988865132e-02 9.883480330834034e-03 3.408291894743815e-01 1.422193234174349e-01 6.540474286656864e-02 -1.928010839894893e-02
            6.903880100375115e-02 9.911026219766236e-03 7.622631016411753e-02 2.484027148575312e-03 6.542660774335296e-02 -1.922610673692271e-02 3.407336774526400e-01 1.421102355701729e-01
            3.407067956933105e-01 1.421597125875605e-01 6.541943846974832e-02 -1.925572562065753e-02 6.628492305513654e-02 -1.843275870098761e-02 5.495909640637660e-02 -1.785223229927094e-02
            6.541084422785048e-02 -1.938168288012732e-02 3.408185756300935e-01 1.421065600429627e-01 5.500476419525091e-02 -1.774730155275923e-02 6.627455864975430e-02 -1.844812888062700e-02
