! synthetic lab measurement T=-40C
! synthetic measurement, noise -85.0 dB
# Hz S RI R 50
1000000.0000000000 5.848396196798115e-02 4.565100486735742e-02 2.983201063173822e-02 6.212634787866702e-02 8.705758619730201e-01 -4.091999612317460e-01 -9.527510140511564e-03 -1.097122156778772e-02
            2.981596347964510e-02 6.217723309954616e-02 5.849334078789632e-02 4.568008276754654e-02 -9.479829686834421e-03 -1.096688107942199e-02 8.705880557920095e-01 -4.092176413956736e-01
            8.705224135019320e-01 -4.091711048318222e-01 -9.581998972918376e-03 -1.102239512285694e-02 5.843451382387385e-02 4.570941082868342e-02 2.983834704798713e-02 6.217803802222902e-02
            -9.624132786072362e-03 -1.091856152712818e-02 8.705416965733220e-01 -4.091699779465608e-01 2.978716195554869e-02 6.221008005270007e-02 5.843017988103468e-02 4.563333550250308e-02
1832500.0000000000 1.058842617114255e-01 4.871111632296009e-02 8.256258258748508e-02 7.917669390073075e-02 6.600982906114863e-01 -6.789376202451169e-01 -2.142192920798576e-02 -6.375205809267264e-03
            8.257004880752426e-02 7.926447911409149e-02 1.059602387933246e-01 4.866097945713356e-02 -2.148983371897626e-02 -6.450426590659144e-03 6.600959000091361e-01 -6.789174578828165e-01
            6.601178478951453e-01 -6.789475989532653e-01 -2.145964496491026e-02 -6.391670905907025e-03 1.058306759721692e-01 4.886597438333148e-02 8.253810011105556e-02 7.923383893499274e-02
            -2.148158402388650e-02 -6.468134923032452e-03 6.600906784624713e-01 -6.789808877309352e-01 8.253460518221102e-02 7.923672159577572e-02 1.058519225710716e-01 4.880045325577718e-02
2665000.0000000000 1.420620967772766e-01 2.029913339443945e-02 1.315459896525631e-01 5.833351346716725e-02 3.784767101084435e-01 -8.550609026465307e-01 -2.489138621628371e-02 5.879480114588438e-03
            1.314984851817129e-01 5.841238227608483e-02 1.420632742303134e-01 2.041527683157913e-02 -2.487434345477915e-02 5.839727793053783e-03 3.785275586063653e-01 -8.550288242727565e-01
            3.784181096044401e-01 -8.550758664282572e-01 -2.484531812876844e-02 5.963356482932993e-03 1.420747674153215e-01 2.046773690173076e-02 1.315565389436968e-01 5.837419887027165e-02
            -2.489500140085701e-02 5.862279359774020e-03 3.784556918213290e-01 -8.550938881636295e-01 1.315834472979224e-01 5.832833439125436e-02 1.420991974518610e-01 2.050492453292598e-02
3497500.0000000000 1.511035631774951e-01 -2.453983269394120e-02 1.548905621906196e-01 1.229980491541820e-02 6.058776061812900e-02 -9.263088105795370e-01 -1.912645349957258e-02 1.520769354855393e-02
            1.548380919020664e-01 1.223465011084618e-02 1.510580275687004e-01 -2.463909587124847e-02 -1.912963628561820e-02 1.511558013581630e-02 6.058926135958537e-02 -9.263815424055187e-01
            6.059064280984017e-02 -9.263456388922564e-01 -1.905072935739188e-02 1.510401804137643e-02 1.509802165927113e-01 -2.433160864022892e-02 1.548141772308337e-01 1.228865420424924e-02
            -1.909576068646133e-02 1.520698713580446e-02 6.052703444836261e-02 -9.263852077922490e-01 1.549096522831325e-01 1.226480469646301e-02 1.510075821463099e-01 -2.433257563363396e-02
4330000.0000000000 1.288225838435974e-01 -6.591595425161743e-02 1.430956007145675e-01 -3.753466810151414e-02 -2.619888909882934e-01 -8.894135266615476e-01 -1.211886384782238e-02 1.634862723722538e-02
            1.431310668134983e-01 -3.756893325122128e-02 1.287218835023191e-01 -6.586969219759532e-02 -1.216929721402959e-02 1.629469302512664e-02 -2.620246696890493e-01 -8.894395331823307e-01
            -2.620119344071050e-01 -8.894411411467318e-01 -1.219593623933161e-02 1.638085662910637e-02 1.289585630507694e-01 -6.561885433950107e-02 1.430561564465460e-01 -3.763273095032704e-02
            -1.219767076364403e-02 1.630860022444674e-02 -2.620146745755345e-01 -8.893345762336721e-01 1.431106120364611e-01 -3.766774920093016e-02 1.289657356459953e-01 -6.570333513841385e-02
5162500.0000000000 8.356645581545553e-02 -8.456438757624009e-02 1.012780819809169e-01 -6.794958611229776e-02 -5.572273174829655e-01 -7.448502917312195e-01 -1.210287032660455e-02 1.446430067371480e-02
            1.012524549353415e-01 -6.799592795070779e-02 8.358402701595705e-02 -8.454471622676973e-02 -1.203637329023910e-02 1.446922857309808e-02 -5.571608279859791e-01 -7.448609809453488e-01
            -5.572423100176456e-01 -7.448180552066455e-01 -1.199231761246419e-02 1.442118803563570e-02 8.371361932443618e-02 -8.433734334621425e-02 1.013691459402880e-01 -6.790301734904856e-02
            -1.207669159400242e-02 1.452908617062171e-02 -5.572415496394650e-01 -7.448059194502079e-01 1.013164742490490e-01 -6.798290916612550e-02 8.376606109835247e-02 -8.435977933673434e-02
5995000.0000000000 3.481305150007246e-02 -6.888940291251963e-02 4.893028675662366e-02 -6.253204586519644e-02 -7.879377192257268e-01 -5.016316815988479e-01 -1.726615280866125e-02 1.980959166227408e-02
            4.897355790117731e-02 -6.252606121373654e-02 3.484600368016225e-02 -6.887242079052325e-02 -1.721695634254491e-02 1.982115723318794e-02 -7.879271081329433e-01 -5.015853768813865e-01
            -7.878496723433043e-01 -5.015265088507022e-01 -1.726133639980251e-02 1.985656695855611e-02 3.499971192008292e-02 -6.875705016393803e-02 4.898050176616276e-02 -6.250994066479094e-02
            -1.729989697907170e-02 1.987469708194494e-02 -7.878690241651812e-01 -5.015912723842280e-01 4.893267980352219e-02 -6.251452161971624e-02 3.503241137649597e-02 -6.880837394416238e-02
6827500.0000000000 7.718071678341079e-03 -2.356836630476179e-02 1.403723999257821e-02 -2.227020514089394e-02 -9.157595027518143e-01 -1.859130644772138e-01 -1.614251102035568e-02 3.552997058547794e-02
            1.408570647988994e-02 -2.224747675554139e-02 7.749953895571822e-03 -2.354528315309943e-02 -1.607880576266885e-02 3.560070449849858e-02 -9.157407863715569e-01 -1.859522713133621e-01
            -9.157557881899637e-01 -1.860521405120132e-01 -1.607879200375576e-02 3.560459375240548e-02 7.936673624129710e-03 -2.348253220400528e-02 1.396920014495386e-02 -2.220183127258787e-02
            -1.611772542788621e-02 3.556004372647833e-02 -9.158177041063518e-01 -1.860334658620121e-01 1.396936047481187e-02 -2.222245729368510e-02 7.943944751804433e-03 -2.346685564582137e-02
7660000.0000000000 1.827063880995856e-02 2.843606602296567e-02 1.662770554770928e-02 3.092119684839578e-02 -9.163885827444845e-01 1.546304102703988e-01 8.505927935860329e-04 5.155599168052285e-02
            1.668291627912520e-02 3.094651476117876e-02 1.834583193268520e-02 2.832252074797792e-02 8.393662848269066e-04 5.153960150415771e-02 -9.163056820998040e-01 1.546349267610163e-01
            -9.162913503244986e-01 1.546673588227475e-01 8.856542344388097e-04 5.152666065452750e-02 1.834444452308602e-02 2.834407361507027e-02 1.670646728674445e-02 3.088940207082709e-02
            8.534240738282469e-04 5.154752599137950e-02 -9.163302586854002e-01 1.546212912076432e-01 1.667237179185868e-02 3.086853999117142e-02 1.845371714944076e-02 2.834574095797214e-02
8492500.0000000000 6.020028981370985e-02 5.878405754740906e-02 5.413442196809745e-02 6.688323038276461e-02 -7.929835725853018e-01 4.656808365938692e-01 2.890028964547647e-02 5.293241131507036e-02
            5.411673440987535e-02 6.680619070450498e-02 6.023053989193819e-02 5.877661616881094e-02 2.889313810274538e-02 5.298229310596712e-02 -7.929046375654590e-01 4.657296662222189e-01
            -7.929417401781956e-01 4.657001773630199e-01 2.888431632511924e-02 5.302818618060771e-02 6.024701414117124e-02 5.875186089430193e-02 5.407618760159980e-02 6.683475316439985e-02
            2.891657678372529e-02 5.300992672807039e-02 -7.929121746487399e-01 4.657210354057197e-01 5.408810295919003e-02 6.688933965817517e-02 6.015211051655851e-02 5.877286555956339e-02
9325000.0000000000 1.096339113181645e-01 5.347076623876677e-02 1.042638183789149e-01 6.819108495107616e-02 -5.728421790547207e-01 7.056899870144222e-01 5.311281015182345e-02 3.637951759979659e-02
            1.043478808799565e-01 6.821978069900179e-02 1.096115302882954e-01 5.355476829254505e-02 5.312564478327354e-02 3.629164964183556e-02 -5.728802353221077e-01 7.057087514239642e-01
            -5.727556000188795e-01 7.055816544652438e-01 5.315868306191410e-02 3.636806670821496e-02 1.096574557908162e-01 5.367643829574842e-02 1.042700613264826e-01 6.817908381264870e-02
            5.315864993114934e-02 3.631234652254597e-02 -5.728063538878750e-01 7.057046861791322e-01 1.042925482563388e-01 6.822804465260993e-02 1.096089789571069e-01 5.363205442925824e-02
10157500.0000000000 1.422047259825622e-01 1.858694848971957e-02 1.418841094616985e-01 3.739328786444880e-02 -2.911987641439188e-01 8.527871827938097e-01 6.315452623756815e-02 1.092469500498888e-02
            1.418350660369325e-01 3.745647885346363e-02 1.422218651724746e-01 1.861658867601582e-02 6.318844691231108e-02 1.091294137393473e-02 -2.911297891232825e-01 8.527620691670557e-01
            -2.911391947354843e-01 8.527325856024995e-01 6.318473771375074e-02 1.096797710837760e-02 1.422308345464670e-01 1.864695160089577e-02 1.418988077506330e-01 3.737141447484869e-02
            6.317804206486644e-02 1.098790707736312e-02 -2.911406844629068e-01 8.528016014976727e-01 1.417662661435735e-01 3.740918725517075e-02 1.421977841226148e-01 1.864917905594899e-02
10990000.0000000000 1.446460529175973e-01 -2.817054573434903e-02 1.505762144598544e-01 -9.658043527654566e-03 1.975623874971699e-02 8.979451695778179e-01 6.061288883295023e-02 -1.144953253994579e-02
            1.505272239864071e-01 -9.536493207903906e-03 1.445795488568201e-01 -2.813161876146466e-02 6.052875558020509e-02 -1.145247024879468e-02 1.979081164744121e-02 8.980236565886579e-01
            1.974111229754619e-02 8.979594657731547e-01 6.052315567453494e-02 -1.142632846102234e-02 1.445279804422692e-01 -2.814848303913067e-02 1.506080728207375e-01 -9.622548462507244e-03
            6.057960228926690e-02 -1.143260023732235e-02 1.974855437942794e-02 8.980579189198005e-01 1.505855662830126e-01 -9.554780362160023e-03 1.445404066775988e-01 -2.812129020762559e-02
11822500.0000000000 1.161579017057686e-01 -6.568424908940569e-02 1.269170438918074e-01 -5.142669625408905e-02 3.295722844075491e-01 8.375957774324289e-01 5.396562194399509e-02 -2.692393004001747e-02
            1.268309501216014e-01 -5.134329182354572e-02 1.161997368258877e-01 -6.574001662158027e-02 5.386597971819252e-02 -2.687541838404293e-02 3.295893861921296e-01 8.376201999596298e-01
            3.295666005243976e-01 8.375805991816815e-01 5.385143849978846e-02 -2.692877477601550e-02 1.160926876205043e-01 -6.575923807965506e-02 1.269721133499768e-01 -5.136931709281135e-02
            5.387067820820006e-02 -2.701348617174312e-02 3.294866977127211e-01 8.375918622949549e-01 1.268244062324760e-01 -5.136814175715451e-02 1.161541483887222e-01 -6.573627522365312e-02
12655000.0000000000 6.904188560195135e-02 -7.593898463042269e-02 8.072366093525708e-02 -6.771311843693679e-02 6.051122171292403e-01 6.725887959563664e-01 4.887910924392923e-02 -4.090543799300280e-02
            8.065078780726559e-02 -6.769920601314229e-02 6.902181326404860e-02 -7.600285205245420e-02 4.885733362171365e-02 -4.092398060231271e-02 6.050137808506617e-01 6.724992595662762e-01
            6.051202492848159e-01 6.725544947626240e-01 4.894841865553631e-02 -4.093988498323815e-02 6.882047044979664e-02 -7.612529677940885e-02 8.058259890271474e-02 -6.784419427259414e-02
            4.881484448115371e-02 -4.093722585638617e-02 6.050340319761656e-01 6.725342931605647e-01 8.050606786018895e-02 -6.776439728922792e-02 6.882499789079001e-02 -7.614542779492826e-02
13487500.0000000000 2.582501033096602e-02 -5.154346354025421e-02 3.433882395859278e-02 -4.840826815003093e-02 8.079622661175652e-01 4.150178748585838e-01 4.143651860498541e-02 -6.042917287436447e-02
            3.442257947903658e-02 -4.838356027739318e-02 2.578136199973445e-02 -5.158127004850570e-02 4.144077198210919e-02 -6.037938288653000e-02 8.080297782319386e-01 4.149601891308937e-01
            8.079153826777189e-01 4.150245852720493e-01 4.140740158500657e-02 -6.033254894449054e-02 2.532334557843038e-02 -5.174423791051649e-02 3.427514826371061e-02 -4.836708335019075e-02
            4.149836257939596e-02 -6.034142553389091e-02 8.078916374020620e-01 4.150471531248386e-01 3.430869087320814e-02 -4.844545890330385e-02 2.534922521759423e-02 -5.169596128040473e-02
14320000.0000000000 1.024042258895405e-02 -3.397876401837610e-03 1.357324377051008e-02 -2.045307473426187e-03 9.022006267731646e-01 9.719684022957557e-02 2.118165970223412e-02 -8.305785638923420e-02
            1.353875353239987e-02 -1.988575536018073e-03 1.024895635476868e-02 -3.406224237527185e-03 2.104600058838871e-02 -8.307699943625524e-02 9.022198974029330e-01 9.714776697141760e-02
            9.022334267572720e-01 9.722592043061336e-02 2.111891208867589e-02 -8.309341632525338e-02 9.452357861990005e-03 -3.373674420158673e-03 1.346392393363398e-02 -1.969635027639709e-03
            2.103205745088013e-02 -8.306450219973500e-02 9.022007599702805e-01 9.715562775044828e-02 1.358089161746884e-02 -1.964109185612862e-03 9.518036481579669e-03 -3.303990241232389e-03
15152500.0000000000 3.191517801669144e-02 4.220517815271403e-02 3.029978096581028e-02 4.558629046981074e-02 8.709597279683587e-01 -2.308947365143725e-01 -1.564121112348180e-02 -9.527585633647689e-02
            3.035434150943441e-02 4.555261309792815e-02 3.191665179016733e-02 4.225650629612025e-02 -1.569150736888771e-02 -9.526088141237173e-02 8.710550793913158e-01 -2.309002745547896e-01
            8.710164812026910e-01 -2.307831959076222e-01 -1.565524276729327e-02 -9.532038963155234e-02 3.088268141212775e-02 4.258086165594435e-02 3.026521802561565e-02 4.569403801515823e-02
            -1.575709616827481e-02 -9.529993086383974e-02 8.710031197150667e-01 -2.308681632107657e-01 3.024370539767929e-02 4.578031319856976e-02 3.085158540844352e-02 4.260615386591268e-02
15985000.0000000000 7.768635213802415e-02 6.046170017176771e-02 7.392109989032482e-02 6.836402665880861e-02 7.251301665151116e-01 -5.183920445225066e-01 -5.770695855591861e-02 -8.548830094483900e-02
            7.391742376571431e-02 6.837062020195799e-02 7.774180761093796e-02 6.052809954809577e-02 -5.768805704826648e-02 -8.546998836012257e-02 7.251990738800979e-01 -5.184294680105676e-01
            7.251651146227904e-01 -5.183897711215778e-01 -5.763794601039474e-02 -8.545996338712664e-02 7.654972523308941e-02 6.131684494846498e-02 7.394134262790943e-02 6.857058124597094e-02
            -5.760208062156671e-02 -8.552824847248468e-02 7.252020432443851e-01 -5.184317039006875e-01 7.393042537053394e-02 6.842233085078109e-02 7.644986647250480e-02 6.138747725429278e-02
16817500.0000000000 1.224397589365146e-01 4.410194295661692e-02 1.199298491187463e-01 5.669100368041353e-02 4.941763777622136e-01 -7.310312043552184e-01 -8.886662886071493e-02 -5.555076676727242e-02
            1.199330624217216e-01 5.666520038224421e-02 1.224457826214470e-01 4.410926105279888e-02 -8.885204399996609e-02 -5.558384035887370e-02 4.941638014052713e-01 -7.309921705320254e-01
            4.942311241720532e-01 -7.310114202771061e-01 -8.888550815508166e-02 -5.550095465000549e-02 1.215815398229220e-01 4.554249877096184e-02 1.200562266275131e-01 5.680493668081139e-02
            -8.887353688666631e-02 -5.557761410844336e-02 4.941706941058918e-01 -7.309555274735526e-01 1.200126137395195e-01 5.686194680808686e-02 1.215674201617519e-01 4.559246068577039e-02
17650000.0000000000 1.450604505454690e-01 3.670388305484774e-03 1.465539951182238e-01 1.889618084828654e-02 2.106846067606118e-01 -8.512857607117345e-01 -1.015915820664642e-01 -1.790254993461382e-02
            1.466142043406867e-01 1.883447733109428e-02 1.450420902052518e-01 3.668983059647800e-03 -1.015869441904290e-01 -1.794102655240793e-02 2.107134826888070e-01 -8.512989034323146e-01
            2.107311216486941e-01 -8.513024920162859e-01 -1.016151618040037e-01 -1.793926257382180e-02 1.446509355310341e-01 5.537793961826206e-03 1.467080733865786e-01 1.891887260568605e-02
            -1.015779640720004e-01 -1.795372114389271e-02 2.107192919295006e-01 -8.512628269442809e-01 1.467823668058785e-01 1.892995899690950e-02 1.446257114414136e-01 5.497900972963175e-03
18482500.0000000000 1.364549035494342e-01 -4.150020699859811e-02 1.426050267477002e-01 -2.683508780099384e-02 -9.512175656002346e-02 -8.712845844824404e-01 -9.972919849472038e-02 1.645957979382286e-02
            1.426063518273647e-01 -2.686895674126008e-02 1.364515357719515e-01 -4.146719407595319e-02 -9.960329175492491e-02 1.642093851859066e-02 -9.515798225949881e-02 -8.712593909612515e-01
            -9.517889926172948e-02 -8.712936814176696e-01 -9.971812616127479e-02 1.649088248749711e-02 1.366579464144075e-01 -3.946110149449162e-02 1.428578638079300e-01 -2.689855630780447e-02
            -9.959423654950586e-02 1.650476858468021e-02 -9.514430364591679e-02 -8.713462782441502e-01 1.427978520479342e-01 -2.689640870585976e-02 1.367461441554303e-01 -3.952936962632678e-02
19315000.0000000000 1.003536372473443e-01 -7.073989704506660e-02 1.096360433957854e-01 -5.956502997324956e-02 -3.933038753158865e-01 -7.870417437338926e-01 -9.101397214785205e-02 4.534593050515515e-02
            1.096564045975494e-01 -5.954998113036773e-02 1.003780439415664e-01 -7.082500213362490e-02 -9.097839791706001e-02 4.528550149749160e-02 -3.933230209197930e-01 -7.870521697176776e-01
            -3.934172023908982e-01 -7.870565589815651e-01 -9.093252699210125e-02 4.525727388671738e-02 1.012400067166227e-01 -6.905336346735830e-02 1.098309922327645e-01 -5.969705470239389e-02
            -9.104454649370224e-02 4.529745579492214e-02 -3.934010508412528e-01 -7.871042765283972e-01 1.098509765710089e-01 -5.968859524033034e-02 1.011765887318393e-01 -6.897452069635894e-02
20147500.0000000000 5.266281554095463e-02 -6.937887697455468e-02 6.221464155673566e-02 -6.249031512604111e-02 -6.488962129077587e-01 -6.009630886289743e-01 -7.852806489952209e-02 7.357715450515832e-02
            6.221157949368931e-02 -6.242271405098611e-02 5.274760144457725e-02 -6.928616244392642e-02 -7.855589639492024e-02 7.344759210548343e-02 -6.489346984134390e-01 -6.010519068395229e-01
            -6.488732274167274e-01 -6.010572332766114e-01 -7.848378773152455e-02 7.359935990121644e-02 5.393839251924873e-02 -6.809774593069816e-02 6.232169967405011e-02 -6.259058577101506e-02
            -7.855564649765341e-02 7.359224098284582e-02 -6.489695251457707e-01 -6.009892889098671e-01 6.224102229992931e-02 -6.272969328276216e-02 5.393425095761825e-02 -6.799225065079868e-02
20980000.0000000000 1.741238807099313e-02 -3.535921840989889e-02 2.434408276807429e-02 -3.177140581079586e-02 -8.229011499322824e-01 -3.304144756125436e-01 -5.604746971150206e-02 1.041202293306457e-01
            2.432350239179775e-02 -3.181748840969077e-02 1.745865505234675e-02 -3.544522155081690e-02 -5.599119157465712e-02 1.041078057969458e-01 -8.228814847091415e-01 -3.302796549366832e-01
            -8.228706221005266e-01 -3.303243988415732e-01 -5.604590316447106e-02 1.040899803692302e-01 1.877192686129024e-02 -3.474713744493482e-02 2.434552702964439e-02 -3.204676126120968e-02
            -5.595940993860839e-02 1.040542630257663e-01 -8.229059403217633e-01 -3.303165563097852e-01 2.435640022793829e-02 -3.208261778566301e-02 1.876845710241659e-02 -3.469727768399746e-02
21812500.0000000000 1.476171415911320e-02 1.386315753777421e-02 1.786927499244747e-02 1.680848909770837e-02 -8.837590708537937e-01 -1.275793572329959e-02 -1.579240752267414e-02 1.291323848502724e-01
            1.779270717839117e-02 1.685099409794893e-02 1.481262132450918e-02 1.384336615601359e-02 -1.592123842668654e-02 1.290163203837012e-01 -8.836561069266737e-01 -1.280098166562919e-02
            -8.837171700820536e-01 -1.272437299190759e-02 -1.587035916914830e-02 1.290376296325285e-01 1.583210056536240e-02 1.404381078417975e-02 1.775654243333100e-02 1.668572445300542e-02
            -1.588944448794057e-02 1.290347788624739e-01 -8.838198558235955e-01 -1.273091474940700e-02 1.768255072764078e-02 1.670638288670681e-02 1.583728448064161e-02 1.410539279055067e-02
22645000.0000000000 4.613288023971990e-02 5.111400569957617e-02 4.614623308445091e-02 5.611268686873563e-02 -8.229138512583346e-01 3.006056125133086e-01 3.837563362941500e-02 1.335474774831935e-01
            4.605638871605922e-02 5.620447307053261e-02 4.620543411302418e-02 5.106416257099736e-02 3.842457559647840e-02 1.335889983937102e-01 -8.229661211479036e-01 3.005904627685622e-01
            -8.228703912472668e-01 3.005741384813763e-01 3.836763703709313e-02 1.335787167970063e-01 4.673473618071869e-02 5.102898142025357e-02 4.592219368344788e-02 5.609772289456715e-02
            3.842436803938414e-02 1.336083066137173e-01 -8.229915007144598e-01 3.006025824682018e-01 4.600597937188777e-02 5.607256244324432e-02 4.674430302935550e-02 5.103437693295457e-02
23477500.0000000000 9.300471190784095e-02 5.705541244371561e-02 9.215908420859331e-02 6.563686301885337e-02 -6.577338418257678e-01 5.645291802436764e-01 9.093528298655797e-02 1.106566739977205e-01
            9.207779715534679e-02 6.566635164554800e-02 9.302074255809276e-02 5.707720157323040e-02 9.088978487187892e-02 1.106666027376360e-01 -6.577492851160888e-01 5.645653588884442e-01
            -6.576979261627044e-01 5.645860447241575e-01 9.093446250713560e-02 1.106945877141068e-01 9.323481490573732e-02 5.711492348824431e-02 9.206305562384991e-02 6.575630553390154e-02
            9.093529066479243e-02 1.105779336433840e-01 -6.576766792095169e-01 5.645479516348348e-01 9.196208138146618e-02 6.571783570582716e-02 9.320844087917271e-02 5.708629137485643e-02
24310000.0000000000 1.306851546113816e-01 3.141027548306696e-02 1.317134379101030e-01 4.317283651508324e-02 -4.177369914245550e-01 7.509712937916165e-01 1.262878855727832e-01 6.741911954764333e-02
            1.317477135279614e-01 4.311530048956054e-02 1.306587281041233e-01 3.142998689698145e-02 1.262570328865398e-01 6.741786981187847e-02 -4.177819222676823e-01 7.510002830862902e-01
            -4.177844439389841e-01 7.509854996336219e-01 1.263175629474871e-01 6.752453222414934e-02 1.306805879613129e-01 3.171742815164803e-02 1.316839038180695e-01 4.326857826469664e-02
            1.262193543658099e-01 6.746883108538949e-02 -4.178260539263212e-01 7.509016882023993e-01 1.316108965491058e-01 4.317433475001496e-02 1.307295427777826e-01 3.161597084149564e-02
25142500.0000000000 1.423560610184337e-01 -1.159781445308515e-02 1.469643834569596e-01 1.187826861134032e-03 -1.332252276469514e-01 8.457795656545418e-01 1.399712999400316e-01 1.794938905762389e-02
            1.469393404179914e-01 1.180907100320870e-03 1.422998731220181e-01 -1.154051306832665e-02 1.398768509163431e-01 1.798179515582298e-02 -1.332274447120649e-01 8.458335733096152e-01
            -1.332008899261614e-01 8.457689515046362e-01 1.400367996473131e-01 1.796365892454668e-02 1.423316166067877e-01 -1.115153540203023e-02 1.470356672148423e-01 1.320340923574417e-03
            1.399608459366235e-01 1.804269483426198e-02 -1.332033783165636e-01 8.457701275235268e-01 1.468249081443741e-01 1.278567242606798e-03 1.423436485471257e-01 -1.115222078521430e-02
25975000.0000000000 1.234560140878228e-01 -5.190103407041294e-02 1.316446417666247e-01 -4.063775612361070e-02 1.673732034714962e-01 8.409458237714467e-01 1.371744210219897e-01 -2.830292362144525e-02
            1.315464541820581e-01 -4.068059474509278e-02 1.233874874888977e-01 -5.186725396996808e-02 1.371423214251495e-01 -2.831690675947248e-02 1.673788404572537e-01 8.410484836108783e-01
            1.674464558280809e-01 8.410245796580025e-01 1.371707650609090e-01 -2.837178253173340e-02 1.235376003542477e-01 -5.137234738965708e-02 1.316478472544007e-01 -4.074257786398004e-02
            1.371793285262942e-01 -2.826569153183195e-02 1.673656694406394e-01 8.409980104784388e-01 1.316876647021767e-01 -4.070817156540215e-02 1.234939477816586e-01 -5.135307009937452e-02
26807500.0000000000 8.211761784307754e-02 -7.051285202129676e-02 9.199680304624927e-02 -6.282897774513327e-02 4.528636441953545e-01 7.329789916840302e-01 1.243397273905394e-01 -7.049728535166752e-02
            9.202176766742723e-02 -6.279127862858234e-02 8.214414870652448e-02 -7.047192055972668e-02 1.242581559274631e-01 -7.037662710335831e-02 4.528879093961044e-01 7.329454917335069e-01
            4.529658657468610e-01 7.330508420292972e-01 1.243372255283310e-01 -7.033135577684860e-02 8.238113285733419e-02 -6.996777970606793e-02 9.202677997346144e-02 -6.289073850588282e-02
            1.243540341201392e-01 -7.045598499107242e-02 4.528886939223622e-01 7.329709839446034e-01 9.199768894337011e-02 -6.285358670755721e-02 8.238720763570946e-02 -7.003188115041833e-02
27640000.0000000000 3.763489062186123e-02 -5.654919682598079e-02 4.658728060857353e-02 -5.269847767922962e-02 6.865108082794199e-01 5.268809456910808e-01 1.012404401209818e-01 -1.117920431358615e-01
            4.666919803732390e-02 -5.263908501995376e-02 3.773124968318456e-02 -5.651643036980684e-02 1.012107916499103e-01 -1.117507252935879e-01 6.864535927484686e-01 5.268766739515348e-01
            6.864728269370681e-01 5.268597645382245e-01 1.012486691362241e-01 -1.117449152312045e-01 3.787466669563521e-02 -5.617758249390577e-02 4.654239725126342e-02 -5.279402605795817e-02
            1.013083163962378e-01 -1.117337251584660e-01 6.864388678666137e-01 5.269440018308058e-01 4.662447354491154e-02 -5.282155503355515e-02 3.791566506905671e-02 -5.625364972266324e-02
28472500.0000000000 1.386101391908733e-02 -1.524543597447038e-02 1.979246483103655e-02 -1.369033668839927e-02 8.298223825331236e-01 2.458827526958838e-01 6.126783331157889e-02 -1.500173650874308e-01
            1.972166982806183e-02 -1.366491448913927e-02 1.393722315819019e-02 -1.516680779086789e-02 6.128543006078329e-02 -1.500375236413072e-01 8.297893910239327e-01 2.458808181287080e-01
            8.297347643621014e-01 2.458109404358968e-01 6.126797903563795e-02 -1.498769551562287e-01 1.389303883558209e-02 -1.501614627557201e-02 1.954288092312697e-02 -1.374483296308357e-02
            6.124204911236057e-02 -1.499871222389633e-01 8.298086716644447e-01 2.457925806955908e-01 1.966210899177117e-02 -1.365512517222348e-02 1.394974926985612e-02 -1.509294644213520e-02
29305000.0000000000 2.497856868034394e-02 3.146980860317112e-02 2.700839662845862e-02 3.314261950714283e-02 8.577152479402068e-01 -6.755654588154304e-02 1.343887000699792e-03 -1.725951048598470e-01
            2.709142801765810e-02 3.310647927256921e-02 2.495113347632292e-02 3.150654589316135e-02 1.370920942328533e-03 -1.726094765956087e-01 8.576960951541053e-01 -6.741187066122276e-02
            8.577303774522248e-01 -6.741599733020191e-02 1.355444474644303e-03 -1.726081588194659e-01 2.471311777610227e-02 3.163424390894647e-02 2.691650189529840e-02 3.316815764806753e-02
            1.326209172366737e-03 -1.725970718743740e-01 8.576404306287413e-01 -6.748618595156952e-02 2.694763149759337e-02 3.313806458703616e-02 2.474842449784538e-02 3.156089200148872e-02
30137500.0000000000 6.423973790896559e-02 5.768038346505842e-02 6.365808495833231e-02 6.167608434147664e-02 7.702877132423563e-01 -3.635123487885772e-01 -6.786653077683570e-02 -1.660520940126952e-01
            6.366649031545522e-02 6.160376699854969e-02 6.429241654481906e-02 5.759148837820923e-02 -6.787187221695659e-02 -1.660051340090125e-01 7.703034337655573e-01 -3.634803109204200e-01
            7.703247077993772e-01 -3.634460203996256e-01 -6.794543830770086e-02 -1.660424538639460e-01 6.392643432924680e-02 5.794769304931661e-02 6.358891088598265e-02 6.180244263169855e-02
            -6.788376820016881e-02 -1.660480923034302e-01 7.702423128319584e-01 -3.634106536006654e-01 6.356021824364778e-02 6.176764574224853e-02 6.394622393538005e-02 5.800529168813465e-02
30970000.0000000000 1.096786866210117e-01 5.097799460216085e-02 1.085771573847085e-01 5.836286495628479e-02 5.888732169027180e-01 -6.032921406164694e-01 -1.278223321950219e-01 -1.287181968245996e-01
            1.086443936286026e-01 5.843350031103995e-02 1.096368124885842e-01 5.087203036816530e-02 -1.278009036467455e-01 -1.288409686487097e-01 5.888839284187309e-01 -6.032673823750370e-01
            5.888659791641546e-01 -6.032297249611420e-01 -1.278268171277945e-01 -1.288363976527794e-01 1.092417488323206e-01 5.139518537062740e-02 1.086414462261550e-01 5.849143686151059e-02
            -1.278358908846794e-01 -1.288076524582472e-01 5.888958292443693e-01 -6.032784984422556e-01 1.085639255104079e-01 5.851291456444963e-02 1.092542109671993e-01 5.147326357780822e-02
31802500.0000000000 1.388355290510557e-01 1.719791220663203e-02 1.394609871667548e-01 2.734364435246803e-02 3.422078821619453e-01 -7.643529719619543e-01 -1.649410945041621e-01 -7.227281960134228e-02
            1.394695792025940e-01 2.736330324262469e-02 1.387736890277461e-01 1.712583067006718e-02 -1.650026107054002e-01 -7.235760720091219e-02 3.421839851943498e-01 -7.642513747915645e-01
            3.421359562480980e-01 -7.642673502841103e-01 -1.649946297751206e-01 -7.236722331812961e-02 1.385236423112317e-01 1.773297579290935e-02 1.397086819619227e-01 2.732562512141053e-02
            -1.649293213491159e-01 -7.235598483548275e-02 3.422122922550480e-01 -7.642706200407446e-01 1.396265789205259e-01 2.738415411068433e-02 1.385639708120338e-01 1.775656341387769e-02
32635000.0000000000 1.393362188318727e-01 -2.681128743086921e-02 1.430286397794379e-01 -1.571471225737039e-02 5.803107228777725e-02 -8.341901459810372e-01 -1.777539709075749e-01 -1.100379304182865e-02
            1.430381241284469e-01 -1.578324143696212e-02 1.393631471986022e-01 -2.677352250542558e-02 -1.777635326975267e-01 -1.103234378446773e-02 5.798989521052616e-02 -8.341690378257349e-01
            5.792437940857157e-02 -8.342223562905874e-01 -1.778007563515549e-01 -1.096334967584546e-02 1.392107197320008e-01 -2.640685068777258e-02 1.431672384730275e-01 -1.597397687299337e-02
            -1.776811441103809e-01 -1.100456930034008e-02 5.802452724539293e-02 -8.342476661977493e-01 1.431408476392641e-01 -1.602916495266248e-02 1.392279105017695e-01 -2.639120565606195e-02
33467500.0000000000 1.114802766960894e-01 -6.076384391401243e-02 1.176680810121200e-01 -5.126446614028697e-02 -2.356650456849007e-01 -8.051055145240976e-01 -1.720828882711339e-01 4.731015181403467e-02
            1.177228755716153e-01 -5.124112186679310e-02 1.115319842553114e-01 -6.075678853251143e-02 -1.720692839124041e-01 4.717587409202057e-02 -2.356649896952751e-01 -8.051286880055940e-01
            -2.356169663684388e-01 -8.050657219667409e-01 -1.719984419131357e-01 4.728445998045352e-02 1.112021130143168e-01 -6.081905369336923e-02 1.176297929479722e-01 -5.163709266540290e-02
            -1.719439081873045e-01 4.724267808599272e-02 -2.356602527567236e-01 -8.050735822678083e-01 1.176426270447909e-01 -5.155326622596129e-02 1.111787920613627e-01 -6.085669857947814e-02
34300000.0000000000 6.740776050550926e-02 -6.848216569210797e-02 7.447365523978339e-02 -6.171858333130622e-02 -5.062865018925038e-01 -6.740781013871237e-01 -1.521767576612203e-01 1.019343161719834e-01
            7.443697092798211e-02 -6.164233030164804e-02 6.733820392546024e-02 -6.847667434401915e-02 -1.521497729844394e-01 1.019253271927083e-01 -5.063126671945808e-01 -6.742165632324644e-01
            -5.062666780308352e-01 -6.741208681014217e-01 -1.520963121303258e-01 1.019025911595322e-01 6.651862927327316e-02 -6.894793371338649e-02 7.397848225424912e-02 -6.200658410546135e-02
            -1.520997341562537e-01 1.019886226604488e-01 -5.062406895820363e-01 -6.741620749505559e-01 7.403886462598795e-02 -6.208236760931155e-02 6.652521845267517e-02 -6.889492950860375e-02
35132500.0000000000 2.879346445279471e-02 -4.423651039558145e-02 3.437329926234244e-02 -4.005656051391095e-02 -7.154807797803693e-01 -4.507373110095889e-01 -1.156291683982842e-01 1.538542079828925e-01
            3.437679031864198e-02 -3.988939373773426e-02 2.879422136484812e-02 -4.418112238417985e-02 -1.155577753441948e-01 1.538184988087327e-01 -7.155209469489652e-01 -4.506035962481057e-01
            -7.154838098672424e-01 -4.506940170562215e-01 -1.156083362058520e-01 1.538160871385904e-01 2.684047742703570e-02 -4.482916058796954e-02 3.367003966041111e-02 -3.998774116507549e-02
            -1.156930409068995e-01 1.538285674806506e-01 -7.154407241448324e-01 -4.506071974309366e-01 3.361788397023253e-02 -3.992937877207863e-02 2.685182788446961e-02 -4.475891801723576e-02
35965000.0000000000 1.705435591996038e-02 3.124987551483136e-04 1.974446456201037e-02 3.807721556486365e-03 -8.276140633191270e-01 -1.635160976130563e-01 -5.692063601639751e-02 1.953994515394458e-01
            1.980463554357218e-02 3.756895537274770e-03 1.704541828235629e-02 3.289351598118894e-04 -5.697802747329334e-02 1.953525491594591e-01 -8.275571744234508e-01 -1.634910701884941e-01
            -8.276173159467478e-01 -1.635195507631443e-01 -5.701599976616805e-02 1.953347290694809e-01 1.394179629227079e-02 3.823360052515728e-04 1.891205886938225e-02 4.305380240245719e-03
            -5.694246393668050e-02 1.953348402209547e-01 -8.275954351569001e-01 -1.635654080855219e-01 1.896078710141277e-02 4.351179282732774e-03 1.390365392150055e-02 4.304758220424877e-04
36797500.0000000000 3.919853256875357e-02 4.034990046486320e-02 3.907617367787845e-02 4.530852760288019e-02 -8.248431171710002e-01 1.416549158874187e-01 2.079936928256572e-02 2.114353830780850e-01
            3.901161630384692e-02 4.526408531037351e-02 3.924423188813739e-02 4.039400714769924e-02 2.092527673655372e-02 2.114509025963713e-01 -8.248252200855247e-01 1.416889513555042e-01
            -8.248234209826906e-01 1.416727382465900e-01 2.091477605767297e-02 2.114069756313623e-01 3.505791227479822e-02 4.179719575751199e-02 3.838976304031147e-02 4.646306847945829e-02
            2.092387941097790e-02 2.114341377692520e-01 -8.247924509572963e-01 1.417156198907479e-01 3.834136764154828e-02 4.640344155792773e-02 3.505215530073479e-02 4.184155892393916e-02
37630000.0000000000 8.176206000687274e-02 5.409984606862131e-02 8.033709370054049e-02 6.216656302639088e-02 -7.143935733571815e-01 4.187317957314544e-01 1.017021646826445e-01 1.918651687677991e-01
            8.031335463583104e-02 6.221260302362029e-02 8.176806947469367e-02 5.407708824648693e-02 1.017167872345419e-01 1.918476478135900e-01 -7.144144115143611e-01 4.187455873767040e-01
            -7.143498361412222e-01 4.187618554324347e-01 1.016898035555759e-01 1.918179783177008e-01 7.739227090835460e-02 5.737439645164904e-02 8.027658105384708e-02 6.373805778276616e-02
            1.017489549036168e-01 1.918142849152315e-01 -7.143666887025091e-01 4.187531816696963e-01 8.037916126941778e-02 6.372682651707660e-02 7.744265671521390e-02 5.732153751286480e-02
38462500.0000000000 1.214118770700128e-01 3.610645448975281e-02 1.210708903319200e-01 4.792672798550918e-02 -5.197383936440154e-01 6.350354491427689e-01 1.661511835415656e-01 1.404385609640987e-01
            1.211045228269569e-01 4.791013090726688e-02 1.213804925532999e-01 3.611140520503457e-02 1.661036643860791e-01 1.404148735404355e-01 -5.197234490537975e-01 6.350375167421083e-01
            -5.196836489680569e-01 6.350374791829779e-01 1.661236336661222e-01 1.405018672931082e-01 1.177649260493691e-01 4.134409126863738e-02 1.218747743223526e-01 4.929033287134775e-02
            1.661466793342069e-01 1.403761622640829e-01 -5.197554066359203e-01 6.349437961928132e-01 1.218526512250581e-01 4.929819781406583e-02 1.177579267706193e-01 4.128907158451358e-02
39295000.0000000000 1.390749579929874e-01 -2.912481944172242e-03 1.420151520317597e-01 1.124471102155506e-02 -2.679071228926011e-01 7.717146595049146e-01 2.035774165499972e-01 7.139750735131416e-02
            1.419693570411248e-01 1.128583413491868e-02 1.391817358911934e-01 -2.814905423411151e-03 2.036397705381767e-01 7.145113821697838e-02 -2.679362057200524e-01 7.716936456463470e-01
            -2.678836925444809e-01 7.716507348584428e-01 2.035928695390163e-01 7.146081102054407e-02 1.371105441258354e-01 3.860039204880385e-03 1.434790251914222e-01 1.220247223268382e-02
            2.036495255928328e-01 7.144330119972328e-02 -2.678757015127526e-01 7.716447568008592e-01 1.435551736529151e-01 1.222189435844018e-02 1.371589641799159e-01 3.881675881036097e-03
40127500.0000000000 1.274660609063042e-01 -4.400179322777133e-02 1.343437517641005e-01 -2.996791798888627e-02 1.513492817433698e-02 8.171532308373487e-01 2.146938464539511e-01 -1.609652011946076e-03
            1.344387046345162e-01 -2.993873228880255e-02 1.275061483929980e-01 -4.403099573290672e-02 2.146515445455213e-01 -1.560215613369867e-03 1.509846011274085e-02 8.171635284834268e-01
            1.503643325467710e-02 8.171419471584880e-01 2.146884999336993e-01 -1.609500766521318e-03 1.276328574294485e-01 -3.663557622057886e-02 1.361734730779440e-01 -2.996766631487149e-02
            2.147275708605237e-01 -1.531065991053529e-03 1.505367529336200e-02 8.171232552758184e-01 1.361917667490693e-01 -2.985207973567749e-02 1.276183395266190e-01 -3.676453002685000e-02
40960000.0000000000 9.107539557109921e-02 -6.820931776859740e-02 1.013979804622617e-01 -5.661296256416952e-02 3.005108745554031e-01 7.636975088226583e-01 2.044717637165776e-01 -7.212385119803069e-02
            1.012829902530897e-01 -5.658320926773289e-02 9.114552524456876e-02 -6.826513776645064e-02 2.044437458962735e-01 -7.207343707989275e-02 3.004331474579109e-01 7.636148104335434e-01
            3.005055013626167e-01 7.637723639156009e-01 2.044800534950940e-01 -7.215978189836586e-02 9.351974311002555e-02 -6.142854146729679e-02 1.030585462840520e-01 -5.747378245547059e-02
            2.044095735822863e-01 -7.213403346915177e-02 3.004126024620373e-01 7.636201109721465e-01 1.029143395602783e-01 -5.742184888399086e-02 9.361771543551858e-02 -6.142245792603084e-02
41792500.0000000000 4.653474857086688e-02 -6.242544245267638e-02 5.791878174112561e-02 -5.459298288626412e-02 5.536742197670916e-01 6.104253665538382e-01 1.748801144211605e-01 -1.391964031493823e-01
            5.790612871640442e-02 -5.462781483910559e-02 4.651624426053568e-02 -6.246735027031115e-02 1.749319887152795e-01 -1.391584599924636e-01 5.537172683126946e-01 6.104723265929872e-01
            5.536347371663697e-01 6.104572286796485e-01 1.749133504501988e-01 -1.392729146849425e-01 5.065475025433622e-02 -5.718726254449297e-02 5.884131841641679e-02 -5.614273105225741e-02
            1.748838540750313e-01 -1.392159912772488e-01 5.536354142757579e-01 6.104067143748352e-01 5.883299683896552e-02 -5.613239320162530e-02 5.062745877487312e-02 -5.717949011146396e-02
42625000.0000000000 1.657689188626678e-02 -2.736221768157004e-02 2.666577082951270e-02 -2.306827815412308e-02 7.358781944266829e-01 3.720275088438389e-01 1.220550628261181e-01 -1.991557417706365e-01
            2.662905270273504e-02 -2.309790690623394e-02 1.658091337107678e-02 -2.731058713720953e-02 1.220350498187314e-01 -1.992893485672854e-01 7.358791656825684e-01 3.719324703105970e-01
            7.358512970356981e-01 3.719779682326735e-01 1.220556182471690e-01 -1.992382332337554e-01 2.123696689293144e-02 -2.419089044555922e-02 2.667988724145063e-02 -2.482233316710173e-02
            1.221067897606273e-01 -1.992434066284877e-01 7.358542203111255e-01 3.719878192100356e-01 2.669430206868308e-02 -2.482760602703362e-02 2.119102690003517e-02 -2.415148398435115e-02
43457500.0000000000 1.854898727652693e-02 1.911835055156442e-02 2.549340033710654e-02 2.163225546561520e-02 8.160929194029340e-01 8.303343265964019e-02 4.366582935577953e-02 -2.398881108016222e-01
            2.557380991551588e-02 2.163828015730216e-02 1.848931314010537e-02 1.912844654318711e-02 4.363920623207506e-02 -2.398745960153735e-01 8.160130865811628e-01 8.306930906747105e-02
            8.160274262641413e-01 8.299994677809711e-02 4.363128953114814e-02 -2.399139341984825e-01 2.249353357944149e-02 2.047937211417635e-02 2.466898538351295e-02 2.028157252475947e-02
            4.365720043891755e-02 -2.399178947223744e-01 8.160264885601008e-01 8.297692145533514e-02 2.467712387883388e-02 2.032561926922240e-02 2.253314428193725e-02 2.050625658900231e-02
44290000.0000000000 5.116495145642255e-02 5.143893384021191e-02 5.496790780550425e-02 5.452888391281666e-02 7.846484084200984e-01 -2.101369388843549e-01 -5.042411580276616e-02 -2.456446624481060e-01
            5.496533322746968e-02 5.449252095411938e-02 5.120020623577944e-02 5.142795758683023e-02 -5.048214871258270e-02 -2.455916149577211e-01 7.846522167619884e-01 -2.100959760986865e-01
            7.846146963531150e-01 -2.101118167309158e-01 -5.042223301466740e-02 -2.456710257653106e-01 5.379223739516278e-02 5.183803110439024e-02 5.363356249834685e-02 5.400443124934037e-02
            -5.047817611996637e-02 -2.455664544606628e-01 7.846833139844169e-01 -2.101650896432718e-01 5.365950643605093e-02 5.401321950989558e-02 5.383059898316395e-02 5.190552305292830e-02
45122500.0000000000 9.589651606972155e-02 5.324338341104500e-02 9.770994541501557e-02 5.883957056873132e-02 6.546499210473378e-01 -4.664615763423214e-01 -1.399019558545340e-01 -2.110223403615860e-01
            9.772770407593470e-02 5.882586183830418e-02 9.582247443024587e-02 5.315895273531712e-02 -1.398865109188192e-01 -2.111435057425678e-01 6.546282440883672e-01 -4.665030175149206e-01
            6.545899839094922e-01 -4.664357316392006e-01 -1.398954044107717e-01 -2.110057302311415e-01 9.701994040228654e-02 5.387366835397838e-02 9.658857088923890e-02 5.922393905445484e-02
            -1.399305271031430e-01 -2.110732458311957e-01 6.545302512745632e-01 -4.665680781754883e-01 9.649982108592668e-02 5.919521430210849e-02 9.700223047013995e-02 5.388875309710733e-02
45955000.0000000000 1.294801030813828e-01 2.596324559802820e-02 1.317033106947531e-01 3.449478015160867e-02 4.496655369166872e-01 -6.590678993688147e-01 -2.062690931003266e-01 -1.451586128540550e-01
            1.316976847233316e-01 3.453439786236839e-02 1.294544745192376e-01 2.591391270707911e-02 -2.063216628285891e-01 -1.452212851589804e-01 4.496043370853766e-01 -6.591180040590602e-01
            4.496095343656472e-01 -6.591642871664144e-01 -2.063704384397361e-01 -1.453335383452771e-01 1.297800946701940e-01 2.743743514557585e-02 1.311464625775432e-01 3.548978946184656e-02
            -2.063154148439267e-01 -1.453004727285252e-01 4.496083931307363e-01 -6.590429448953048e-01 1.311900786902149e-01 3.552355882215530e-02 1.297772753315819e-01 2.740817634335897e-02
46787500.0000000000 1.371413856112288e-01 -1.593718194465689e-02 1.416777240304203e-01 -5.317380328631547e-03 1.945702358126109e-01 -7.718704820646995e-01 -2.422058868763886e-01 -6.373295442315073e-02
            1.416827897834326e-01 -5.383892366014402e-03 1.371756040110210e-01 -1.595937643100549e-02 -2.422045465381912e-01 -6.378852508796019e-02 1.945717815520615e-01 -7.718106506654006e-01
            1.946067072841114e-01 -7.717951567715388e-01 -2.422075133953230e-01 -6.383347496976542e-02 1.374328285745302e-01 -1.332300375582984e-02 1.419476464158362e-01 -4.316901565932362e-03
            -2.422629310136907e-01 -6.381476739430418e-02 1.945413578970838e-01 -7.718390235057145e-01 1.418787720401069e-01 -4.289006101252890e-03 1.374258668290238e-01 -1.328771728521527e-02
47620000.0000000000 1.159378949308435e-01 -5.287641657440675e-02 1.234213959799234e-01 -4.229143129900436e-02 -8.518341272402828e-02 -7.931988137732316e-01 -2.496384900592221e-01 2.094286693820087e-02
            1.234156676455375e-01 -4.232694099311259e-02 1.159380036480685e-01 -5.295397267978524e-02 -2.496152023173439e-01 2.096088935953698e-02 -8.528438591761718e-02 -7.932251849755263e-01
            -8.517331829775202e-02 -7.932483131572206e-01 -2.496810903916031e-01 2.086877770670546e-02 1.169257402793322e-01 -4.936509280699367e-02 1.244110213192370e-01 -4.174681346177640e-02
            -2.496502761028961e-01 2.091155209129467e-02 -8.517023495927756e-02 -7.932190225471946e-01 1.244147253061294e-01 -4.177782509416320e-02 1.168701126162328e-01 -4.936446425678192e-02
48452500.0000000000 7.487667817968814e-02 -6.725672053614147e-02 8.481381831599234e-02 -5.865183027774497e-02 -3.599498881626173e-01 -7.159425405686516e-01 -2.325511328005012e-01 1.034453517042865e-01
            8.483440434328886e-02 -5.873113604752139e-02 7.490806017751170e-02 -6.723584334170030e-02 -2.325791399503187e-01 1.035010123438816e-01 -3.599200812148791e-01 -7.159843563695876e-01
            -3.599513701875494e-01 -7.159678207970540e-01 -2.325908532274214e-01 1.035679470653481e-01 7.706192037690474e-02 -6.362799092901056e-02 8.594851326276685e-02 -5.890626476582132e-02
            -2.325436507821388e-01 1.034812567146323e-01 -3.599268081936882e-01 -7.159777801432452e-01 8.589152557056973e-02 -5.891691689244673e-02 7.709954170450814e-02 -6.357106938489394e-02
49285000.0000000000 3.367196121392549e-02 -5.022419217378581e-02 4.409411771027304e-02 -4.476706936539485e-02 -5.929201724396779e-01 -5.424334516363466e-01 -1.904114279810654e-01 1.811910375947599e-01
            4.415756683856466e-02 -4.474322640973730e-02 3.381208992276685e-02 -5.020130015078098e-02 -1.903381750494635e-01 1.811674973019907e-01 -5.929550759328359e-01 -5.425149017406976e-01
            -5.929243897109404e-01 -5.423824305043983e-01 -1.904182691977964e-01 1.811052819724709e-01 3.690689401604833e-02 -4.727052659173203e-02 4.493899020358495e-02 -4.563375399478322e-02
            -1.903329834618230e-01 1.811448481401743e-01 -5.929546321564564e-01 -5.424169991744870e-01 4.493071269651583e-02 -4.563739215872149e-02 3.696789225142685e-02 -4.715733190564254e-02
50117500.0000000000 1.467750030359780e-02 -9.110628167253020e-03 2.345152253205956e-02 -6.171367362713907e-03 -7.464894162848572e-01 -2.930251882331135e-01 -1.192530069884730e-01 2.455963014542969e-01
            2.336295739464233e-02 -6.242306868589661e-03 1.458659586554881e-02 -9.133634336848873e-03 -1.192659456789311e-01 2.456427232705740e-01 -7.464733176980467e-01 -2.930213612948055e-01
            -7.465180330370076e-01 -2.930328532869909e-01 -1.192649347362832e-01 2.456147001243297e-01 1.811259119031424e-02 -7.200144001799849e-03 2.353743751235183e-02 -7.461423759958956e-03
            -1.192916925627333e-01 2.456702609098375e-01 -7.464662796770423e-01 -2.930665201161053e-01 2.349805447384641e-02 -7.464857001521901e-03 1.816604054236774e-02 -7.175300271701417e-03
50950000.0000000000 2.875341903693744e-02 3.406673011392417e-02 3.488223204932053e-02 3.591329935771044e-02 -7.956867108272299e-01 -6.843325424100372e-03 -2.198147170659431e-02 2.810535068507263e-01
            3.483506008766448e-02 3.590758376613853e-02 2.886763990561746e-02 3.413146554299287e-02 -2.195370184113041e-02 2.809781623323102e-01 -7.957276714266917e-01 -6.882073509835651e-03
            -7.957630333907674e-01 -6.821101151298338e-03 -2.199654156633166e-02 2.809488198757504e-01 3.189473721393341e-02 3.498279406499908e-02 3.407032062814147e-02 3.490435785123316e-02
            -2.204344278491595e-02 2.809951609489225e-01 -7.957475053755579e-01 -6.796915069014801e-03 3.410267975356632e-02 3.485080261785568e-02 3.188705078084665e-02 3.495711128087330e-02
51782500.0000000000 6.793847875905880e-02 5.564226764043139e-02 7.124685827196475e-02 5.847551500194938e-02 -7.388725265983922e-01 2.714792158808673e-01 8.552267243721272e-02 2.736986193539258e-01
            7.127262984944409e-02 5.844876705263127e-02 6.788564273306845e-02 5.558339986505360e-02 8.532939106915047e-02 2.737124914764397e-01 -7.389119337608537e-01 2.715134756162429e-01
            -7.389053389543246e-01 2.714900504668740e-01 8.538884040484195e-02 2.736665917692892e-01 7.000198326147952e-02 5.602807926058317e-02 6.997626907444543e-02 5.825306363495000e-02
            8.545105216896923e-02 2.735860287239908e-01 -7.389211213647020e-01 2.714504040933829e-01 7.002256982290332e-02 5.826344684413540e-02 6.992185069605983e-02 5.595977718546581e-02
52615000.0000000000 1.101583681572321e-01 4.567381526836629e-02 1.121375577816153e-01 5.116258233795447e-02 -5.926148504917834e-01 5.065356689749049e-01 1.805148202850286e-01 2.237292048968615e-01
            1.121219634210572e-01 5.108990164545597e-02 1.102310733422901e-01 4.575083891848544e-02 1.804135552681613e-01 2.236012137403401e-01 -5.925673369001497e-01 5.065417291553240e-01
            -5.925111163069243e-01 5.065512206659712e-01 1.804520530889325e-01 2.236408194170572e-01 1.112226714417633e-01 4.641786033768427e-02 1.110841464410369e-01 5.174754529670795e-02
            1.803856485906175e-01 2.236177076640782e-01 -5.925736824574717e-01 5.065270781979212e-01 1.110355399274348e-01 5.172990546518724e-02 1.112228845465650e-01 4.642105178150170e-02
53447500.0000000000 1.348910397414610e-01 1.130110310216290e-02 1.375756984059078e-01 1.949526167828136e-02 -3.794964909436001e-01 6.760861677906536e-01 2.468448827218773e-01 1.438913206355197e-01
            1.375760686839430e-01 1.956123190636224e-02 1.348867301703362e-01 1.127233615918484e-02 2.468044180584367e-01 1.437930329229987e-01 -3.795198346742588e-01 6.760712419217801e-01
            -3.794508093640914e-01 6.760887473436242e-01 2.468612069336283e-01 1.438765210614855e-01 1.354328054515210e-01 1.301907325965607e-02 1.372597191648025e-01 2.070803440268205e-02
            2.467994305921164e-01 1.437945796290238e-01 -3.794731400062487e-01 6.761074204808545e-01 1.371620980119222e-01 2.075599392417976e-02 1.353961717841766e-01 1.296992989027882e-02
54280000.0000000000 1.315036548320334e-01 -3.052320823033918e-02 1.365975826290312e-01 -2.062882994811624e-02 -1.228699773118632e-01 7.652505633104838e-01 2.799168520799236e-01 5.014287906878351e-02
            1.365793666164640e-01 -2.055837799522660e-02 1.314251597039586e-01 -3.047256555747451e-02 2.799350204042878e-01 5.011334950669287e-02 -1.228511338971312e-01 7.652887658148296e-01
            -1.228739349777980e-01 7.652655124999469e-01 2.799264520742851e-01 5.018406880237088e-02 1.322115361640331e-01 -2.777230776508233e-02 1.370390028014850e-01 -1.934603326539903e-02
            2.799357312517455e-01 5.017986121613630e-02 -1.228319818637663e-01 7.652532224933218e-01 1.370258922249785e-01 -1.938592618574395e-02 1.322496489969859e-01 -2.770526154778866e-02
55112500.0000000000 1.014869475607286e-01 -6.046865146466152e-02 1.093976360081890e-01 -5.076236675167946e-02 1.520400688477541e-01 7.627370738571813e-01 2.821975064727130e-01 -4.641213769110129e-02
            1.094121289305135e-01 -5.085070897614772e-02 1.013704554584065e-01 -6.036867222342432e-02 2.822085647868976e-01 -4.640171341023872e-02 1.520637445466670e-01 7.627369075508846e-01
            1.521392254716674e-01 7.627643115586304e-01 2.821810716817794e-01 -4.638627156800912e-02 1.031117393458519e-01 -5.677150913577481e-02 1.108522566483713e-01 -5.015684081139574e-02
            2.821600234713290e-01 -4.638037021404869e-02 1.520255478053849e-01 7.627646014103553e-01 1.107470700659473e-01 -5.005779427616957e-02 1.031493064405126e-01 -5.682831094869989e-02
55945000.0000000000 5.807404465904681e-02 -6.331456751462670e-02 6.820238881639828e-02 -5.579978306219747e-02 4.135006979677278e-01 6.624050652296469e-01 2.555424855490533e-01 -1.405520533509369e-01
            6.819505588153514e-02 -5.572656590320656e-02 5.815200521665630e-02 -6.329038989895189e-02 2.556462924550035e-01 -1.404991768976026e-01 4.134181385183712e-01 6.624002549163799e-01
            4.135593805796723e-01 6.624604139126585e-01 2.556135354429172e-01 -1.405701232010192e-01 6.116052654658332e-02 -5.962184937440278e-02 6.985043239976935e-02 -5.591076607762362e-02
            2.556729294241810e-01 -1.405490007058094e-01 4.134681204061252e-01 6.624440471093037e-01 6.986203406446848e-02 -5.600655524245837e-02 6.118362359937404e-02 -5.964942332529019e-02
56777500.0000000000 2.310488298632423e-02 -3.583214040730969e-02 3.360885432323467e-02 -3.117844583777013e-02 6.233926564843687e-01 4.710283833228268e-01 1.980951753705357e-01 -2.266450836065326e-01
            3.354929926038761e-02 -3.106323781485215e-02 2.302217605992333e-02 -3.572891018304988e-02 1.981325643561667e-01 -2.266105416386319e-01 6.234361343489948e-01 4.710500864647169e-01
            6.234944032143913e-01 4.710513705964121e-01 1.980469173015115e-01 -2.266471853962396e-01 2.746066380321975e-02 -3.280493018764611e-02 3.498400384162045e-02 -3.240200755345495e-02
            1.980359559469943e-01 -2.266469631790616e-01 6.235020698297726e-01 4.710694188463039e-01 3.497990969675566e-02 -3.230148825649200e-02 2.753394458637037e-02 -3.287379939261469e-02
57610000.0000000000 1.598413074373480e-02 8.704814979774054e-03 2.508279905333539e-02 1.100498771271334e-02 7.473435289478187e-01 2.150864848106054e-01 1.076110963061135e-01 -2.916189465711335e-01
            2.506448773419699e-02 1.098101928842297e-02 1.601536020184799e-02 8.716130938733236e-03 1.076613086136417e-01 -2.915083158177724e-01 7.473638672512221e-01 2.149994769794900e-01
            7.472446246268367e-01 2.150526503939670e-01 1.075847301690494e-01 -2.916497649636954e-01 2.113491543398683e-02 1.026212950295929e-02 2.562366554323528e-02 9.223163998452218e-03
            1.075541004466326e-01 -2.915201675946228e-01 7.472945041022410e-01 2.149839751892904e-01 2.565806462136603e-02 9.232933532771546e-03 2.111967846949517e-02 1.025676841984478e-02
58442500.0000000000 4.094367725079633e-02 4.592362010407668e-02 4.754146920006429e-02 4.729840189930886e-02 7.673632935687560e-01 -6.431255891113155e-02 -7.096000930425456e-03 -3.177028992852154e-01
            4.752548782848386e-02 4.729433710836221e-02 4.099511014063936e-02 4.596930128086520e-02 -7.068881465038238e-03 -3.177321397178490e-01 7.673656592887999e-01 -6.424801034592588e-02
            7.673589233656547e-01 -6.428621284167919e-02 -7.166327757191412e-03 -3.177020671564146e-01 4.598590265314756e-02 4.587826583014218e-02 4.703987455869012e-02 4.541423655312344e-02
            -7.158392381385574e-03 -3.176765768138906e-01 7.673765264237199e-01 -6.419679501441382e-02 4.707711679172920e-02 4.537520788238245e-02 4.599306593303422e-02 4.584836490907952e-02
59275000.0000000000 8.326689048132198e-02 5.635219890307037e-02 8.764048940996014e-02 5.852280849011527e-02 6.884792768385454e-01 -3.254266748508396e-01 -1.246913108301061e-01 -2.952981487609107e-01
            8.761950366611015e-02 5.864660319363409e-02 8.329839163825445e-02 5.636449288921047e-02 -1.247575670508677e-01 -2.952048233454277e-01 6.884748128009354e-01 -3.255056105215278e-01
            6.885064845733369e-01 -3.254923747358655e-01 -1.247107977699842e-01 -2.952736441863662e-01 8.753035993017938e-02 5.483225924064612e-02 8.642876252857892e-02 5.703031373111190e-02
            -1.247470448449441e-01 -2.952050031597241e-01 6.885059777168991e-01 -3.254780990251543e-01 8.636024318300356e-02 5.705553904764276e-02 8.760326398604541e-02 5.485047155981700e-02
60107500.0000000000 1.206247917806068e-01 3.673218597790803e-02 1.240464415383290e-01 4.093677614490345e-02 5.288228262927557e-01 -5.391742501933395e-01 -2.225980534581211e-01 -2.296496947691467e-01
            1.240187683407343e-01 4.101708119976231e-02 1.206503602429758e-01 3.671874756780501e-02 -2.226559118738829e-01 -2.295930666869808e-01 5.288695337156862e-01 -5.391596316181463e-01
            5.288729170714840e-01 -5.391032996021913e-01 -2.226043043379805e-01 -2.296459159645043e-01 1.237232412911757e-01 3.433819845647875e-02 1.224261936874298e-01 4.012309866382723e-02
            -2.225490175860265e-01 -2.295656555181504e-01 5.288595499298988e-01 -5.392008920600929e-01 1.224399660152825e-01 4.013951992163921e-02 1.238137840329346e-01 3.427246620065974e-02
60940000.0000000000 1.357219811945801e-01 -1.558637288619202e-03 1.399436141079840e-01 4.696674964694041e-03 3.097201330491620e-01 -6.860369979947916e-01 -2.872935895830486e-01 -1.362755896787909e-01
            1.399445449974991e-01 4.599125955610064e-03 1.356635030700337e-01 -1.503730603015832e-03 -2.872630857946887e-01 -1.362607831113618e-01 3.097141333107383e-01 -6.859685411542918e-01
            3.096319562310933e-01 -6.860469267265060e-01 -2.872659046575743e-01 -1.362386918195548e-01 1.375770603535676e-01 -4.334352788626218e-03 1.383840467672050e-01 4.413624400712876e-03
            -2.872521915053562e-01 -1.362954050292864e-01 3.096718404706866e-01 -6.859605994454655e-01 1.384013331470079e-01 4.469086870662240e-03 1.376048239669027e-01 -4.369465722366003e-03
61772500.0000000000 1.225371270531750e-01 -4.012532388931507e-02 1.288187932402254e-01 -3.317025894478655e-02 5.306972849477334e-02 -7.519018220362342e-01 -3.162296144005009e-01 -3.055275829423552e-02
            1.288252519774439e-01 -3.309632830082732e-02 1.224628158315727e-01 -3.994869073473556e-02 -3.162256844065285e-01 -3.049290846404394e-02 5.300518414135369e-02 -7.519793251002279e-01
            5.303944873505338e-02 -7.519553310964093e-01 -3.161642520141223e-01 -3.057723128888852e-02 1.230725437118920e-01 -4.294452557269401e-02 1.273330918589055e-01 -3.303642173339914e-02
            -3.162315164237854e-01 -3.056649524807288e-02 5.302152095502442e-02 -7.520273356065263e-01 1.272906755556926e-01 -3.305190618899095e-02 1.230588274678976e-01 -4.295955625040802e-02
62605000.0000000000 8.684862098882988e-02 -6.058064325767194e-02 9.525187713282970e-02 -5.487062200113671e-02 -2.148587721752225e-01 -7.256357553591822e-01 -3.113899913671438e-01 7.781928303243313e-02
            9.527761177981733e-02 -5.485043488292844e-02 8.686576723694828e-02 -6.058644654457277e-02 -3.113307565206508e-01 7.788895410778519e-02 -2.149135209418473e-01 -7.256541102192563e-01
            -2.148902716408639e-01 -7.256794230259686e-01 -3.114595951503040e-01 7.790448367284432e-02 8.610308502951576e-02 -6.326340158081208e-02 9.389048243834477e-02 -5.456221501316842e-02
            -3.113674980096768e-01 7.786708091397106e-02 -2.148452776487075e-01 -7.256625228032048e-01 9.387792550578264e-02 -5.451110110912506e-02 8.608612408818321e-02 -6.328947329581545e-02
63437500.0000000000 4.570553653128630e-02 -5.188044688505684e-02 5.496140461405929e-02 -4.867259515081864e-02 -4.600838384144775e-01 -6.034625221090765e-01 -2.728136966415557e-01 1.827692401576172e-01
            5.489887845613496e-02 -4.874287016439003e-02 4.569732740307320e-02 -5.191702906291645e-02 -2.728262824750003e-01 1.827715683064524e-01 -4.600746237380034e-01 -6.034806383099499e-01
            -4.601456924450020e-01 -6.034993519774953e-01 -2.728404896549206e-01 1.827685684910221e-01 4.372182521536074e-02 -5.402398289370677e-02 5.351663802153764e-02 -4.810000399041616e-02
            -2.727886556270280e-01 1.827208212924332e-01 -4.601636765746332e-01 -6.035319219100217e-01 5.350047833491629e-02 -4.810859555393573e-02 4.373858371126307e-02 -5.400761481951072e-02
64270000.0000000000 2.110211461753745e-02 -1.665319885146720e-02 2.919809281776231e-02 -1.628676141553105e-02 -6.446897222423055e-01 -3.974172985748616e-01 -1.974210092067271e-01 2.743235603008601e-01
            2.910217836499914e-02 -1.630618357279598e-02 2.105172680226427e-02 -1.666328513590230e-02 -1.973915214300596e-01 2.743485139403691e-01 -6.447646433974680e-01 -3.975407914008348e-01
            -6.447015683085187e-01 -3.975647869374572e-01 -1.974262770410441e-01 2.744214939709847e-01 1.783455327682175e-02 -1.795417206046688e-02 2.772172810070413e-02 -1.532092621392482e-02
            -1.973941199279957e-01 2.743506772875141e-01 -6.446571271109389e-01 -3.974428367409444e-01 2.763986452258702e-02 -1.527074386813442e-02 1.790266444299498e-02 -1.795532582309878e-02
65102500.0000000000 2.752782319418066e-02 2.634832754434941e-02 3.257463259633202e-02 2.485698367219730e-02 -7.385515788217368e-01 -1.393708413830256e-01 -8.713123004376090e-02 3.354194532098801e-01
            3.272466281152878e-02 2.494302998516177e-02 2.747412645227126e-02 2.628782106988793e-02 -8.720181090942263e-02 3.354622831828056e-01 -7.385998826937665e-01 -1.394158291473957e-01
            -7.385398659471244e-01 -1.393219210004627e-01 -8.726385720363392e-02 3.354299721723519e-01 2.324749072254480e-02 2.643822047676546e-02 3.144109997733918e-02 2.668942479725882e-02
            -8.719337207911265e-02 3.353860681092512e-01 -7.385625199710092e-01 -1.394060758129589e-01 3.139238664370866e-02 2.674163609228470e-02 2.339689031172877e-02 2.640040964272587e-02
65935000.0000000000 6.143859702301335e-02 5.309516403558374e-02 6.296210451709416e-02 5.207530532247200e-02 -7.317722838874098e-01 1.292402849379839e-01 4.260061299861985e-02 3.489129797286118e-01
            6.302236052238969e-02 5.205644539359136e-02 6.137410778623949e-02 5.321690179769743e-02 4.256685132860406e-02 3.489538417828534e-01 -7.318066728685196e-01 1.292447779494601e-01
            -7.318691334081243e-01 1.292014889517726e-01 4.257307582801530e-02 3.489573458318964e-01 5.675119138574237e-02 5.491543222411920e-02 6.233704607758452e-02 5.442543910897676e-02
            4.254770932068420e-02 3.489579145380808e-01 -7.318168864614978e-01 1.292971812395344e-01 6.230532222739175e-02 5.441046152807689e-02 5.668559904833292e-02 5.494186867959265e-02
66767500.0000000000 1.037310163640405e-01 5.020610948215603e-02 1.024273564287524e-01 5.160257221319606e-02 -6.342683870143333e-01 3.720204576073973e-01 1.673800505725150e-01 3.101342549907143e-01
            1.024924795604183e-01 5.158695740152545e-02 1.037079509141094e-01 5.014385240472514e-02 1.673746273286626e-01 3.100747488185173e-01 -6.341635437319711e-01 3.721236746965635e-01
            -6.342749490829340e-01 3.720373395527122e-01 1.673560088570926e-01 3.101742225829385e-01 9.935366236544897e-02 5.378278163565142e-02 1.030104418206008e-01 5.419595887492436e-02
            1.673859161790846e-01 3.102221013036798e-01 -6.342319143936278e-01 3.720492651847859e-01 1.029544100811875e-01 5.425237334135322e-02 9.932052821961684e-02 5.381241853883893e-02
67600000.0000000000 1.332124674180156e-01 2.081241242835508e-02 1.310218836078967e-01 2.593076190071426e-02 -4.640177640427907e-01 5.642286796145083e-01 2.655738432334621e-01 2.290196671881994e-01
            1.310301317349728e-01 2.592782246712997e-02 1.331589680566592e-01 2.073552603674894e-02 2.656380959772613e-01 2.290377724864898e-01 -4.639725802946004e-01 5.642221992583817e-01
            -4.639666544412737e-01 5.642879788855530e-01 2.656719289905011e-01 2.290418301714169e-01 1.297315097824029e-01 2.584189585526342e-02 1.327655461782599e-01 2.803473229846351e-02
            2.656136722625402e-01 2.290766284232716e-01 -4.640317992270976e-01 5.641809183472642e-01 1.328117924513426e-01 2.792254024538028e-02 1.296154642557944e-01 2.591031057565329e-02
68432500.0000000000 1.365560922571587e-01 -2.027427831251384e-02 1.359287355997537e-01 -1.167110830967707e-02 -2.406574020264526e-01 6.888391535371264e-01 3.270400368544763e-01 1.224810031515859e-01
            1.358689743443814e-01 -1.176604673142713e-02 1.364928295061466e-01 -2.029165753138001e-02 3.270060900605051e-01 1.224837393104500e-01 -2.407401330464594e-01 6.887286424846870e-01
            -2.407258341200897e-01 6.888560701982540e-01 3.270293528516282e-01 1.224915948694644e-01 1.344858189736659e-01 -1.427188748050757e-02 1.384351053112233e-01 -1.071399691993354e-02
            3.270606730519002e-01 1.224748274804120e-01 -2.407133337622217e-01 6.887936724423043e-01 1.383479883670467e-01 -1.076936616702369e-02 1.344729275720642e-01 -1.422014073069803e-02
69265000.0000000000 1.125120806201577e-01 -5.409562651134632e-02 1.149317242536007e-01 -4.356494699655874e-02 1.403984962426505e-02 7.316020923131511e-01 3.501825971679068e-01 4.707129250561771e-03
            1.149746048986979e-01 -4.354947497897984e-02 1.124677882444466e-01 -5.401722546915635e-02 3.502627717398408e-01 4.664949115511846e-03 1.409246637178232e-02 7.315297024896567e-01
            1.407120889306411e-02 7.315936917872380e-01 3.502906759120384e-01 4.693540277452464e-03 1.120586939954354e-01 -4.791521623541010e-02 1.174722826479828e-01 -4.420503706440267e-02
            3.502410147373402e-01 4.772061716307892e-03 1.396784970267957e-02 7.316439497684155e-01 1.174724768736393e-01 -4.415815192444487e-02 1.119953270296701e-01 -4.790527890448698e-02
70097500.0000000000 7.134278917852238e-02 -6.400561255966335e-02 7.746625584441610e-02 -5.408373921052498e-02 2.724617438562904e-01 6.821056490989739e-01 3.360505947402274e-01 -1.152368738747259e-01
            7.753482158936362e-02 -5.412455148648896e-02 7.142880941941714e-02 -6.403188622339791e-02 3.360907712701416e-01 -1.151796144950104e-01 2.724180138572312e-01 6.821474324369308e-01
            2.724566741301529e-01 6.820958177780511e-01 3.360429354896988e-01 -1.151829928128141e-01 7.220590918626055e-02 -5.858519276458214e-02 7.898159571621495e-02 -5.595249811891220e-02
            3.360694224202131e-01 -1.151753461629903e-01 2.724722153541941e-01 6.820592254217024e-01 7.904535542812999e-02 -5.591289265365901e-02 7.217746353548475e-02 -5.867583049868106e-02
70930000.0000000000 3.340111196203581e-02 -4.349614041196076e-02 4.182205515555504e-02 -3.619841944072507e-02 4.986345651688097e-01 5.399909059562416e-01 2.826838353436084e-01 -2.289702931418874e-01
            4.181497897322965e-02 -3.621529626860937e-02 3.335883681572414e-02 -4.346791762026585e-02 2.826210112261087e-01 -2.289800220274519e-01 4.987268479668980e-01 5.400858564750650e-01
            4.987541550627006e-01 5.400861589596497e-01 2.827608547333807e-01 -2.289890947793733e-01 3.426434409963748e-02 -3.934255268147040e-02 4.164347235622240e-02 -3.861834085104766e-02
            2.826180800465249e-01 -2.289554691671789e-01 4.987525198143059e-01 5.400823456496417e-01 4.154900040910186e-02 -3.854933601336483e-02 3.432114107814935e-02 -3.931718968506660e-02
71762500.0000000000 1.929094168268176e-02 -1.803291026339503e-03 2.788296821372500e-02 1.890174236935835e-03 6.561520069192913e-01 3.234899009258096e-01 1.878332718970617e-01 -3.224695456690124e-01
            2.782759758769037e-02 1.872230527854563e-03 1.923404411144826e-02 -1.834183930394802e-03 1.879046080475804e-01 -3.224493130419870e-01 6.561776057086206e-01 3.234755039729140e-01
            6.561646545219459e-01 3.234894898721143e-01 1.879743237620372e-01 -3.224323759934410e-01 1.936764225479122e-02 1.258908781251108e-03 2.581821041015832e-02 1.823521076596214e-04
            1.879547745360571e-01 -3.225021059343122e-01 6.561258226870281e-01 3.234535997707178e-01 2.584487905930472e-02 2.614338691677517e-04 1.934854490468666e-02 1.380838352066088e-03
72595000.0000000000 3.744108644866637e-02 3.819296201790703e-02 4.394662676365957e-02 3.904956639038739e-02 7.209699880254585e-01 6.770133379672028e-02 5.889796561609806e-02 -3.756038113596377e-01
            4.393000135356565e-02 3.902562418218538e-02 3.748120101222873e-02 3.821981373967996e-02 5.890958326347503e-02 -3.756349625748674e-01 7.210182405016627e-01 6.761768111837491e-02
            7.209514300043929e-01 6.768608664908556e-02 5.888554266434453e-02 -3.756362014980322e-01 3.611314097691005e-02 4.136007730381625e-02 4.099833503353852e-02 3.928986914353876e-02
            5.885241495683596e-02 -3.756622054791953e-01 7.209920770601822e-01 6.774272250115335e-02 4.092255861237474e-02 3.928476274710908e-02 3.621368806189190e-02 4.129257424115113e-02
73427500.0000000000 7.768202905278514e-02 5.506225267184747e-02 8.041920951150454e-02 5.488445020162613e-02 6.903826738096978e-01 -1.874989780827162e-01 -8.311505850497117e-02 -3.739649538549974e-01
            8.048069832105344e-02 5.492700410611578e-02 7.758595369172010e-02 5.508461718988293e-02 -8.314227292165194e-02 -3.739798132048089e-01 6.904121267441907e-01 -1.875371147281311e-01
            6.904131039825057e-01 -1.874959973370055e-01 -8.323589803376917e-02 -3.739833883241699e-01 7.490101640195791e-02 5.941281259769183e-02 7.784543980950574e-02 5.737871091673430e-02
            -8.315224298291328e-02 -3.740081697030918e-01 6.905017235941109e-01 -1.874939721758265e-01 7.786124566455632e-02 5.729076685061365e-02 7.488716507343331e-02 5.947957878765130e-02
74260000.0000000000 1.179755987159846e-01 4.118843236035957e-02 1.171418392173771e-01 4.252175720997879e-02 5.772583812950358e-01 -4.109552780212629e-01 -2.121500662652569e-01 -3.181682014956717e-01
            1.171483866309292e-01 4.251938401224361e-02 1.179421539879923e-01 4.123268504024925e-02 -2.120598766329775e-01 -3.181797346703773e-01 5.773415936186082e-01 -4.108919769505053e-01
            5.772166006327957e-01 -4.109477676381432e-01 -2.120952088096512e-01 -3.180986638966981e-01 1.146240718656030e-01 4.762452451546535e-02 1.164625485168285e-01 4.657094607649837e-02
            -2.120789423633979e-01 -3.181907893484822e-01 5.772741628978442e-01 -4.109681018157676e-01 1.164031254042574e-01 4.659670941319913e-02 1.146425852058802e-01 4.765053323794915e-02
75092500.0000000000 1.393171631221951e-01 5.078292004115920e-03 1.364301480255109e-01 9.663576189689957e-03 3.988960133152398e-01 -5.818641405424189e-01 -3.087628548304679e-01 -2.219655346195060e-01
            1.364253577375120e-01 9.675199820453308e-03 1.392934661351185e-01 5.055373280544870e-03 -3.087637565204366e-01 -2.219797313720064e-01 3.987629908562055e-01 -5.818163643120945e-01
            3.988163143958850e-01 -5.817955480789221e-01 -3.086900630794422e-01 -2.219690211004313e-01 1.367157467194148e-01 1.384902833375951e-02 1.382506078052191e-01 1.390924700310500e-02
            -3.087175169319081e-01 -2.220204022267712e-01 3.988226243220233e-01 -5.817933539285930e-01 1.382844437153379e-01 1.393078865975572e-02 1.366865141140597e-01 1.386467579582471e-02
75925000.0000000000 1.325403003209315e-01 -3.616523482282039e-02 1.298715010389354e-01 -2.769578982388623e-02 1.732576792050949e-01 -6.843059838971375e-01 -3.653282028058980e-01 -1.024861110637951e-01
            1.298628191269914e-01 -2.771690149138523e-02 1.325192869540065e-01 -3.623520272466873e-02 -3.652635014588754e-01 -1.025352465071964e-01 1.733257032292203e-01 -6.843274323910209e-01
            1.733335611313078e-01 -6.843501813690507e-01 -3.653790641805451e-01 -1.025585688585090e-01 1.318233840368939e-01 -2.548618347039666e-02 1.339282645366522e-01 -2.491973233348019e-02
            -3.652392100463820e-01 -1.024813703429736e-01 1.733079955313442e-01 -6.843805915394691e-01 1.339949880527730e-01 -2.489858296855031e-02 1.317659509335934e-01 -2.549496456338566e-02
76757500.0000000000 1.004631863813847e-01 -6.376948625753152e-02 1.000063220507105e-01 -5.232751772431516e-02 -7.735676500392648e-02 -7.043374071308316e-01 -3.808868524260850e-01 2.714198235801957e-02
            9.997761803750591e-02 -5.225774853070798e-02 1.004941555052330e-01 -6.374914722708182e-02 -3.808070226546667e-01 2.704536820186387e-02 -7.743515389062691e-02 -7.043298427933768e-01
            -7.735209424894669e-02 -7.043412531658999e-01 -3.809035100360463e-01 2.707000811637644e-02 1.023862858174432e-01 -5.239207427920912e-02 1.052452401303756e-01 -5.209192445112895e-02
            -3.808607287691521e-01 2.706346569757451e-02 -7.739500541747490e-02 -7.043141403057978e-01 1.052635906216577e-01 -5.209293562137190e-02 1.024881975142034e-01 -5.237649998018621e-02
77590000.0000000000 5.742140058450740e-02 -6.349992192651435e-02 6.036749983798437e-02 -5.107899634541366e-02 -3.235004674003922e-01 -6.327924490731779e-01 -3.549510893087648e-01 1.574397585963901e-01
            6.036210654003656e-02 -5.112491724698138e-02 5.740074429071066e-02 -6.364376071362697e-02 -3.549843774560336e-01 1.574369304733783e-01 -3.234981298218246e-01 -6.328160461975054e-01
            -3.234732847461960e-01 -6.327923372575376e-01 -3.549282165369607e-01 1.574633789090812e-01 6.212438120278539e-02 -5.310373424942093e-02 6.486785481608355e-02 -5.378468140018573e-02
            -3.549192685100575e-01 1.574778232583355e-01 -3.234441681959834e-01 -6.327898331856948e-01 6.490220016481277e-02 -5.383525348329160e-02 6.205734464649405e-02 -5.317776356307399e-02
78422500.0000000000 2.500636875789779e-02 -3.413386311650119e-02 3.103753783573945e-02 -2.267161912791192e-02 -5.282158176203026e-01 -4.738900006831971e-01 -2.844463811902772e-01 2.774308461111178e-01
            3.102197824149992e-02 -2.269958122617201e-02 2.499053763309873e-02 -3.420305493886794e-02 -2.844247993745619e-01 2.775503393846544e-01 -5.282903737023030e-01 -4.739415863866669e-01
            -5.281971144246651e-01 -4.739515236577293e-01 -2.844740639970172e-01 2.774583998496620e-01 3.134218549905888e-02 -2.569132908449143e-02 3.314994075430399e-02 -2.736739259598613e-02
            -2.844255474374531e-01 2.774166241146601e-01 -5.282597085717975e-01 -4.739052304133314e-01 3.311755559668714e-02 -2.743010910609310e-02 3.138926011599743e-02 -2.568430639689163e-02
79255000.0000000000 2.130366861296554e-02 9.594020648048585e-03 2.884191322081151e-02 1.870034877194776e-02 -6.580943468709473e-01 -2.510108746339020e-01 -1.698655276964464e-01 3.687457467181807e-01
            2.886970270634465e-02 1.861967751759734e-02 2.135701926559620e-02 9.627613389889570e-03 -1.699126554128955e-01 3.686568920374792e-01 -6.581157099057106e-01 -2.510779139516398e-01
            -6.581068380030363e-01 -2.510539601730254e-01 -1.698378876155718e-01 3.686995802985693e-01 2.785029868940052e-02 1.561938440880361e-02 2.788263254502741e-02 1.383915254259143e-02
            -1.698767546554705e-01 3.686808331973492e-01 -6.581205401471446e-01 -2.512135913210775e-01 2.790381667641172e-02 1.388502894271753e-02 2.779672447263050e-02 1.560343291762336e-02
80087500.0000000000 4.819791264745082e-02 4.362166903919894e-02 5.543956456269699e-02 5.006983938004118e-02 -6.961176324206934e-01 -1.391648712786586e-03 -2.437370348808827e-02 4.105735127977330e-01
            5.537407243329557e-02 5.010821924931094e-02 4.820404596437095e-02 4.371526979970765e-02 -2.431130049877212e-02 4.105608749177936e-01 -6.960148313104775e-01 -1.426809841776266e-03
            -6.961087445006678e-01 -1.439729568204690e-03 -2.427777111638753e-02 4.104764496502499e-01 5.356547516385191e-02 4.791250832058205e-02 5.195843811712362e-02 4.709676580877090e-02
            -2.431533267048155e-02 4.105244589421986e-01 -6.961187323347021e-01 -1.365812490984536e-03 5.203145295523898e-02 4.714545398415049e-02 5.345796903948146e-02 4.794994231792271e-02
80920000.0000000000 8.988823687644272e-02 5.043269935192568e-02 9.540205077403144e-02 5.526864293151420e-02 -6.451084825694561e-01 2.387195331527203e-01 1.268178138747944e-01 3.924851168357192e-01
            9.535627338613981e-02 5.521613267288893e-02 8.991076825456133e-02 5.041446216732633e-02 1.268630799122053e-01 3.924696860402491e-01 -6.450930016951202e-01 2.386793876162387e-01
            -6.450743745537622e-01 2.387008704449452e-01 1.268781207872652e-01 3.924160624183256e-01 9.345954805685808e-02 5.414791135243462e-02 9.110030641151581e-02 5.516348419480096e-02
            1.268750983716108e-01 3.924360733438708e-01 -6.450847715691916e-01 2.386975856430239e-01 9.112470102037129e-02 5.522483698179959e-02 9.353030177480917e-02 5.417262247105146e-02
81752500.0000000000 1.246620675011480e-01 2.844560428536676e-02 1.277988550818865e-01 3.331819334414157e-02 -5.190532524515294e-01 4.430112335307019e-01 2.574678893482067e-01 3.201578609138827e-01
            1.279068815238486e-01 3.328843920753095e-02 1.245822785333774e-01 2.842697039873870e-02 2.575044357894155e-01 3.200540760443401e-01 -5.190118400757906e-01 4.430285842021741e-01
            -5.189634662042426e-01 4.430046297213753e-01 2.574446420086567e-01 3.200822213410196e-01 1.267937242680166e-01 3.279946283482359e-02 1.248893732937465e-01 3.578747726762025e-02
            2.575580961603319e-01 3.201743869255296e-01 -5.189881891102819e-01 4.429994272059489e-01 1.248307090575579e-01 3.582315364879294e-02 1.268651774207323e-01 3.283734547014472e-02
82585000.0000000000 1.364366052120119e-01 -1.016845105424115e-02 1.381609273837418e-01 -3.745954527430230e-03 -3.339204839111390e-01 5.931311634293142e-01 3.512376418611410e-01 2.094164638120861e-01
            1.381324894391137e-01 -3.725556969490967e-03 1.365112464327594e-01 -1.007443341105065e-02 3.512511515747941e-01 2.094276604819939e-01 -3.339865399995980e-01 5.931207626581869e-01
            -3.339902581748419e-01 5.931639259081365e-01 3.512205998675495e-01 2.094538196683375e-01 1.380326061302293e-01 -4.519726331677736e-03 1.376225212384442e-01 -2.211714740825467e-04
            3.512773813922989e-01 2.094396803145334e-01 -3.339637262497215e-01 5.930336137091390e-01 1.376458886225517e-01 -1.891888167176682e-04 1.380458194306030e-01 -4.485648202477771e-03
83417500.0000000000 1.207499576993871e-01 -4.708318339246016e-02 1.220055035925781e-01 -3.864238100623944e-02 -1.074966548745931e-01 6.736092185525694e-01 4.018696040344984e-01 7.716972509102014e-02
            1.221137713339870e-01 -3.870337168699273e-02 1.206232519471001e-01 -4.703520374644782e-02 4.019536932985354e-01 7.714878534668318e-02 -1.074113972625046e-01 6.735954982130526e-01
            -1.074405238804590e-01 6.736056106126508e-01 4.019051592397762e-01 7.722730053589424e-02 1.224127838931974e-01 -4.036664008303816e-02 1.240043648319592e-01 -3.598534987556896e-02
            4.018308790570288e-01 7.713719411233472e-02 -1.074893630083042e-01 6.735488628239201e-01 1.240051979268136e-01 -3.601664591726813e-02 1.224623812229858e-01 -4.026732915916672e-02
84250000.0000000000 8.409758906074920e-02 -6.489252454652833e-02 8.662992569633481e-02 -5.486569157595531e-02 1.371243026545586e-01 6.707465007598342e-01 4.082036993818563e-01 -6.424183546386433e-02
            8.658440709407927e-02 -5.476024466909801e-02 8.404719927588838e-02 -6.493961960346620e-02 4.082954593919111e-01 -6.430523001822469e-02 1.372059900115151e-01 6.707458303701094e-01
            1.371993798573491e-01 6.707242817387318e-01 4.081947396961260e-01 -6.431802179160834e-02 8.682923145376070e-02 -5.768819101846011e-02 8.968546213683447e-02 -5.452008208431132e-02
            4.083419560010045e-01 -6.427717246196461e-02 1.371513880158113e-01 6.707295955915479e-01 8.966400639589497e-02 -5.445271495457137e-02 8.683839685496059e-02 -5.767066656484408e-02
85082500.0000000000 4.408656887672193e-02 -5.350513590950842e-02 4.859564502154443e-02 -4.309506177611031e-02 3.681458938161841e-01 5.781570965221856e-01 3.679623554433382e-01 -2.042891428032936e-01
            4.866492796467124e-02 -4.312260566733961e-02 4.408938663735616e-02 -5.357171877520642e-02 3.680303847839376e-01 -2.043138830303134e-01 3.682032534281568e-01 5.781559935516498e-01
            3.681191092498959e-01 5.782320500196015e-01 3.679192592075668e-01 -2.043535745426343e-01 4.737412255643857e-02 -4.680639953389398e-02 5.065226124079722e-02 -4.528409507088824e-02
            3.680035535292216e-01 -2.043678630401060e-01 3.681726804193254e-01 5.781814393993085e-01 5.067653834681324e-02 -4.529772394811490e-02 4.744073973365929e-02 -4.675139091164193e-02
85915000.0000000000 2.233772613630221e-02 -1.749290708555698e-02 2.832964267929602e-02 -8.028851682329826e-03 5.489822712269083e-01 4.054677402466813e-01 2.782099259998043e-01 -3.277220277262606e-01
            2.833001724387619e-02 -8.047374008063261e-03 2.230620010628434e-02 -1.753822053030999e-02 2.782047222241621e-01 -3.277209220454715e-01 5.489442711992542e-01 4.054005238036030e-01
            5.490160659993890e-01 4.055112093483562e-01 2.783078377072016e-01 -3.277024609730705e-01 2.529369011127799e-02 -1.150677305997233e-02 2.759246510772866e-02 -1.134586557654147e-02
            2.782578184292051e-01 -3.277301410619297e-01 5.489312936951702e-01 4.054932525517988e-01 2.770422316381515e-02 -1.128653476066526e-02 2.529980452859540e-02 -1.147763159395430e-02
86747500.0000000000 3.149053358744471e-02 2.383144365857605e-02 3.774209455262503e-02 3.148932751299079e-02 6.509816738936984e-01 1.806249503398443e-01 1.436649930151810e-01 -4.128011526259195e-01
            3.762552631630581e-02 3.152980742680578e-02 3.140725811090934e-02 2.378130820879384e-02 1.437237244273770e-01 -4.128776985622652e-01 6.509744150177467e-01 1.806555627366691e-01
            6.509237518550256e-01 1.806516211580148e-01 1.436619397810468e-01 -4.128865451161413e-01 3.302329202952096e-02 2.953779382524474e-02 3.402835866715162e-02 2.938111252968064e-02
            1.437415515276173e-01 -4.128167559774993e-01 6.509109501087392e-01 1.806684772159594e-01 3.398536730436900e-02 2.935111522372011e-02 3.305797815735259e-02 2.954935513661664e-02
87580000.0000000000 6.599037889842374e-02 4.747162453235421e-02 7.119701655015553e-02 5.336797319756204e-02 6.642348064207938e-01 -5.939222723853674e-02 -1.634283786024352e-02 -4.400755389845815e-01
            7.113253648007271e-02 5.331726690257663e-02 6.605785307078754e-02 4.744771528748242e-02 -1.627970241450751e-02 -4.400626818859886e-01 6.642858584254101e-01 -5.941890144690093e-02
            6.642118660820157e-01 -5.944164382038575e-02 -1.636532777122819e-02 -4.401103421483539e-01 6.594158960877240e-02 5.416552733390665e-02 6.578768712763355e-02 5.465735468948491e-02
            -1.633749116922640e-02 -4.401159351858993e-01 6.642101430600246e-01 -5.941701419004530e-02 6.585936392483289e-02 5.455133244994950e-02 6.601008619691283e-02 5.417812851564908e-02
88412500.0000000000 1.068651622964145e-01 4.164989939842801e-02 1.096200114612546e-01 4.702414340611113e-02 5.957315330815078e-01 -2.829255703920607e-01 -1.736815521458331e-01 -4.042987040201153e-01
            1.097345817996620e-01 4.698960893802561e-02 1.068685147343725e-01 4.171009795625086e-02 -1.735816794310507e-01 -4.042582660669705e-01 5.956991726985539e-01 -2.828736938176922e-01
            5.957345497277660e-01 -2.829013962061127e-01 -1.736398907033102e-01 -4.043094432832960e-01 1.056370090628899e-01 5.065801441636863e-02 1.053738601851215e-01 5.235694557008719e-02
            -1.736679461573376e-01 -4.042606379062961e-01 5.957862133452616e-01 -2.828805452309834e-01 1.054029945135196e-01 5.236318768469922e-02 1.055774392454308e-01 5.062152627751075e-02
89245000.0000000000 1.336238391163054e-01 1.093302174934657e-02 1.338176189091175e-01 1.749389921081641e-02 4.592239886193756e-01 -4.677611924214263e-01 -3.037117264816903e-01 -3.153826187448744e-01
            1.338148874715746e-01 1.746965569470583e-02 1.336161249518063e-01 1.099635702016988e-02 -3.036753290663107e-01 -3.153878367914688e-01 4.593034960097109e-01 -4.677094024874410e-01
            4.592907880468280e-01 -4.677403839908328e-01 -3.036682123908389e-01 -3.153983855398236e-01 1.324359866142474e-01 2.294163657457987e-02 1.333497798107591e-01 2.545929538127475e-02
            -3.037976263547043e-01 -3.154397127789312e-01 4.592609559805260e-01 -4.676539380120898e-01 1.332435374701116e-01 2.542573538648114e-02 1.323417756857104e-01 2.298437907683432e-02
90077500.0000000000 1.343068602904293e-01 -2.960316775756567e-02 1.328624030214720e-01 -2.045521308161109e-02 2.695770765876678e-01 -5.971117574478308e-01 -3.926378498257914e-01 -1.906187165890308e-01
            1.328106073642706e-01 -2.044058007180656e-02 1.342724692763770e-01 -2.965534168691332e-02 -3.926683966783153e-01 -1.905815906821073e-01 2.695950705409526e-01 -5.971823199886964e-01
            2.695478549235031e-01 -5.972263523318105e-01 -3.926911146373226e-01 -1.906349457395600e-01 1.347015402057506e-01 -1.445687543025349e-02 1.372776214064957e-01 -1.262155656069166e-02
            -3.926775847366126e-01 -1.906492794216620e-01 2.696063360806734e-01 -5.971232016248833e-01 1.372687915839332e-01 -1.261532982720413e-02 1.346200737467962e-01 -1.452141351114157e-02
90910000.0000000000 1.084330948400935e-01 -6.154682012505929e-02 1.072125130371885e-01 -4.889808721095493e-02 4.412609855327741e-02 -6.557589572014499e-01 -4.357304374503695e-01 -4.576017962922892e-02
            1.072087985967795e-01 -4.887222897890406e-02 1.084022750167054e-01 -6.151888516125167e-02 -4.357902230434009e-01 -4.576869327019534e-02 4.424183700262704e-02 -6.558215087165621e-01
            4.426638208950410e-02 -6.557490797012118e-01 -4.357754181462060e-01 -4.572828288626374e-02 1.120449826344708e-01 -4.435300570259268e-02 1.157127017969512e-01 -4.441472746946561e-02
            -4.357918223847632e-01 -4.571631714525221e-02 4.423120659403448e-02 -6.557398672435190e-01 1.157053238322605e-01 -4.443044036266437e-02 1.120275411912105e-01 -4.436208183246540e-02
91742500.0000000000 6.735403625405134e-02 -6.909838492975581e-02 6.812541421127360e-02 -5.352905241683458e-02 -1.917402508780604e-01 -6.306832295099887e-01 -4.305990059956371e-01 1.069630413472382e-01
            6.816198011031954e-02 -5.350236319718629e-02 6.728777986415055e-02 -6.913117167922049e-02 -4.305740367320806e-01 1.069592798424552e-01 -1.918198534265342e-01 -6.307408660072197e-01
            -1.917282606643201e-01 -6.306264738528438e-01 -4.305878199618294e-01 1.069518094525425e-01 7.465374972884327e-02 -5.174669514577034e-02 7.786115044804265e-02 -5.451474741722269e-02
            -4.305357093998120e-01 1.069576287711993e-01 -1.917104713255283e-01 -6.307192306505818e-01 7.794696245257643e-02 -5.451761300104564e-02 7.467200443210360e-02 -5.182547517231758e-02
92575000.0000000000 3.095214997418841e-02 -4.693581806259285e-02 3.512475450892131e-02 -3.001146593848704e-02 -4.047618350115548e-01 -5.192283759240317e-01 -3.736138157621136e-01 2.544763297799268e-01
            3.521145827701799e-02 -2.999155270856269e-02 3.097212928995587e-02 -4.690120964699897e-02 -3.735340702497351e-01 2.545070425043652e-01 -4.048567186798451e-01 -5.193054273156118e-01
            -4.048083456850694e-01 -5.192899813818407e-01 -3.736176272481554e-01 2.545944885857609e-01 4.123012980197096e-02 -3.137186773095432e-02 4.233914422123376e-02 -3.650304264122344e-02
            -3.735930486993397e-01 2.545420814025060e-01 -4.048334697029588e-01 -5.193427306914178e-01 4.238704059949378e-02 -3.646296181121401e-02 4.120555230973916e-02 -3.143704025704990e-02
93407500.0000000000 1.932774640367868e-02 -5.660387142185442e-03 2.688544233748486e-02 1.059091484657030e-02 -5.602290124797651e-01 -3.365244451481793e-01 -2.633585115854421e-01 3.776678770205241e-01
            2.688882118574080e-02 1.058264956696380e-02 1.935285255653438e-02 -5.649832419292445e-03 -2.633052328503309e-01 3.776966694271149e-01 -5.602081593042685e-01 -3.365985836480511e-01
            -5.602145793193198e-01 -3.365934619536902e-01 -2.633213124353236e-01 3.776992365587950e-01 3.061387327313537e-02 7.103183546916430e-03 2.834859007667612e-02 1.290116349347254e-03
            -2.633249454042491e-01 3.777380587148105e-01 -5.602475334562054e-01 -3.366962708208739e-01 2.823624233592931e-02 1.303419457060589e-03 3.048437064932769e-02 7.116486752773852e-03
94240000.0000000000 3.911575134584150e-02 3.203677373438127e-02 4.884195667514604e-02 4.576291676731299e-02 -6.352948458576152e-01 -1.139190122586471e-01 -1.101133106313354e-01 4.528131992966720e-01
            4.893269749884237e-02 4.588187274903006e-02 3.920480225080372e-02 3.203429036477277e-02 -1.099890213802251e-01 4.528564853453662e-01 -6.353131511871453e-01 -1.140028606354786e-01
            -6.352830545053649e-01 -1.140110340484033e-01 -1.100762043127472e-01 4.527548133748887e-01 4.929796696365091e-02 4.270280223535294e-02 4.368677464817751e-02 3.835016046278002e-02
            -1.100589573163746e-01 4.528769606508103e-01 -6.352361568093902e-01 -1.139415832880915e-01 4.383401254912275e-02 3.840756815463882e-02 4.923269368532903e-02 4.276032363144921e-02
95072500.0000000000 7.859945983436127e-02 4.589834441961975e-02 8.839250505727150e-02 5.657695365726406e-02 -6.265172314753648e-01 1.138633027217568e-01 6.166608519296881e-02 4.633686692361940e-01
            8.841728533993987e-02 5.652681880724215e-02 7.865057948367568e-02 4.596127477309155e-02 6.167824087043158e-02 4.633025627680067e-01 -6.265993372787791e-01 1.137795788728400e-01
            -6.266074266432299e-01 1.138096540409313e-01 6.168286314466013e-02 4.632817818494448e-01 8.654615675410950e-02 5.640153157036510e-02 7.935688484296258e-02 5.488353793828064e-02
            6.170260054769307e-02 4.634372707140990e-01 -6.265377996442625e-01 1.138487486767132e-01 7.936776730627836e-02 5.492506994674867e-02 8.656012724996284e-02 5.642623246455555e-02
95905000.0000000000 1.164627073455305e-01 3.025932855191635e-02 1.243878708497759e-01 3.851777969095413e-02 -5.434819196683266e-01 3.198221107863999e-01 2.223535143874485e-01 4.093142748243414e-01
            1.244528301895462e-01 3.848772787305009e-02 1.165469476664749e-01 3.029386094465794e-02 2.223057501839215e-01 4.092739106658936e-01 -5.434920036727694e-01 3.198408931511046e-01
            -5.435537884324115e-01 3.198393928948995e-01 2.223302597711623e-01 4.092547557841628e-01 1.226135940696922e-01 4.243466856184383e-02 1.159105316046230e-01 4.406249195857746e-02
            2.224054338419615e-01 4.092685706932959e-01 -5.434693720149723e-01 3.198146665308669e-01 1.159920059623867e-01 4.406363854165697e-02 1.225682444581646e-01 4.251854192551273e-02
96737500.0000000000 1.348708292538434e-01 -5.767834080260047e-03 1.395064539328253e-01 1.783126389348977e-03 -3.989088898144019e-01 4.852455049025921e-01 3.496922250926007e-01 3.042024641187743e-01
            1.395629163651731e-01 1.772315318736925e-03 1.349320414150006e-01 -5.879138948013540e-03 3.496798685450275e-01 3.041861417633414e-01 -3.988936783404466e-01 4.852243110103505e-01
            -3.988770758944986e-01 4.851634146790333e-01 3.496742063980010e-01 3.042046638777771e-01 1.405156001136426e-01 9.450552843975465e-03 1.363077545808259e-01 1.272885932110767e-02
            3.497144880084623e-01 3.041187555795959e-01 -3.989349657251314e-01 4.851884801073899e-01 1.362517167987557e-01 1.266784725436809e-02 1.405512925055548e-01 9.463735020086220e-03
97570000.0000000000 1.259363282438852e-01 -4.524516522643483e-02 1.272421989899651e-01 -3.608056686233271e-02 -2.064826743966207e-01 5.940907533145563e-01 4.324186125851318e-01 1.654621601950539e-01
            1.272451649241600e-01 -3.606262138217613e-02 1.259516787380566e-01 -4.523699237907330e-02 4.324051497535155e-01 1.654567481280430e-01 -2.065261102058843e-01 5.940810751943777e-01
            -2.064830618631940e-01 5.941126371610522e-01 4.323651666576431e-01 1.654748521270608e-01 1.330179396233459e-01 -2.664016964871074e-02 1.318031527417301e-01 -2.416769621558525e-02
            4.324194669998564e-01 1.655073414714290e-01 -2.065440917235332e-01 5.940575045665295e-01 1.317135426977134e-01 -2.418013672255146e-02 1.330052289622693e-01 -2.663337417311425e-02
98402500.0000000000 9.340736213624172e-02 -6.988827902587876e-02 9.290522474957970e-02 -5.714041510074742e-02 1.545681584521331e-02 6.310027930818307e-01 4.660512731176084e-01 8.331311219226646e-03
            9.277561184091210e-02 -5.707164571647328e-02 9.343055243801711e-02 -6.987662805745051e-02 4.659430393551559e-01 8.283452011384697e-03 1.556260939552355e-02 6.309385705134123e-01
            1.549921769312350e-02 6.309549380541999e-01 4.659410473752190e-01 8.381504016181554e-03 1.036171097518352e-01 -4.913227303911605e-02 1.039762158375972e-01 -4.966035554244760e-02
            4.659091585186986e-01 8.415155913294017e-03 1.554806917866738e-02 6.310628698331182e-01 1.038974197462578e-01 -4.968903512988521e-02 1.036774056791831e-01 -4.909361115985108e-02
99235000.0000000000 5.215679251577836e-02 -6.705014733400209e-02 5.212237198204850e-02 -4.986230081242506e-02 2.401415573490895e-01 5.849789344218378e-01 4.468616244641866e-01 -1.544712207191509e-01
            5.211039287322452e-02 -4.982422313240906e-02 5.214668959992156e-02 -6.700014930484129e-02 4.468316229151455e-01 -1.545004015436882e-01 2.401619751818504e-01 5.847830074359339e-01
            2.401106805089204e-01 5.849077291018275e-01 4.468926479691383e-01 -1.544229453853160e-01 6.594854391664880e-02 -4.609202848645891e-02 6.532013105191134e-02 -5.061144665850858e-02
            4.468932348373173e-01 -1.544899754626443e-01 2.401588481036943e-01 5.848061450266665e-01 6.526925544523718e-02 -5.064877097493709e-02 6.586836134596789e-02 -4.612145482359108e-02
100067500.0000000000 2.373061809492398e-02 -3.642700452583077e-02 2.647627209626577e-02 -1.582450041695923e-02 4.328877091545715e-01 4.572019213185930e-01 3.709186325441191e-01 -3.070352845680406e-01
            2.640229236932670e-02 -1.578294022059713e-02 2.379429567256942e-02 -3.646051749494898e-02 3.709329508409923e-01 -3.070199282387323e-01 4.328474659040989e-01 4.571941650259977e-01
            4.329074615188543e-01 4.573540205494879e-01 3.708629980725278e-01 -3.070046381119400e-01 3.927673995323994e-02 -1.720632265544807e-02 3.504338921256039e-02 -2.458948791383528e-02
            3.709513107390772e-01 -3.070096590745444e-01 4.328265117075064e-01 4.572018482070790e-01 3.506488999373756e-02 -2.458256553159302e-02 3.923261059429572e-02 -1.721065049796466e-02
100900000.0000000000 2.481577191382456e-02 5.532635317507096e-03 3.173222522739520e-02 2.716258010415080e-02 5.619856016224333e-01 2.685814136879051e-01 2.396545661008868e-01 -4.261800497094546e-01
            3.180702644116248e-02 2.710542855278178e-02 2.479415117159129e-02 5.482678463573699e-03 2.396180708797040e-01 -4.262552263123613e-01 5.620356207013415e-01 2.685024340937539e-01
            5.620512178445930e-01 2.685247229965317e-01 2.396582401144396e-01 -4.261545221408093e-01 3.939278653907351e-02 2.328558679307947e-02 3.039555317282118e-02 1.578545117346435e-02
            2.395858575224661e-01 -4.261875103486642e-01 5.620378177458509e-01 2.685394638596117e-01 3.039941619855479e-02 1.582499859495624e-02 3.941441224896323e-02 2.332276496327519e-02
101732500.0000000000 5.516976253305639e-02 3.442677452273137e-02 6.586126905122931e-02 5.458867755608495e-02 6.114701823997126e-01 5.178240105830365e-02 6.897810828489939e-02 -4.877136210714369e-01
            6.581484728006744e-02 5.450059812681048e-02 5.526352582735435e-02 3.452096072873555e-02 6.899994782043549e-02 -4.878051885986968e-01 6.114654344235502e-01 5.168844923992263e-02
            6.115060527558038e-01 5.179993090677249e-02 6.906030800590587e-02 -4.877564137308916e-01 6.681116961045329e-02 5.392265290843323e-02 5.382231714798653e-02 4.911805508449929e-02
            6.895782531372387e-02 -4.877728219287409e-01 6.114902888614162e-01 5.177800705483266e-02 5.390783836828483e-02 4.907190228480218e-02 6.687870672475149e-02 5.392951992965671e-02
102565000.0000000000 9.788207214497910e-02 3.436736734400537e-02 1.097234864070082e-01 5.078045307314531e-02 5.832830859342879e-01 -1.614283181317171e-01 -1.116799611900042e-01 -4.792372301367592e-01
            1.096959149201774e-01 5.084024094634142e-02 9.786514338098040e-02 3.441050621770320e-02 -1.118047630191694e-01 -4.793439063750040e-01 5.833050730337750e-01 -1.613674655981926e-01
            5.832600073995217e-01 -1.613911597920194e-01 -1.117763215548314e-01 -4.792777067295485e-01 1.068967135238937e-01 5.958960632411822e-02 9.290407550019669e-02 5.895493603117759e-02
            -1.117648557487659e-01 -4.792526249410562e-01 5.833390518011302e-01 -1.613824408770305e-01 9.290666847515189e-02 5.901440215510777e-02 1.068398978332459e-01 5.968601825942411e-02
103397500.0000000000 1.306996250070464e-01 5.345409918859676e-03 1.403033118257628e-01 1.800292024375594e-02 4.881724517708778e-01 -3.484229657656947e-01 -2.729995456777152e-01 -4.058811095438944e-01
            1.402624287542560e-01 1.809200777656598e-02 1.307141938951719e-01 5.330136002744921e-03 -2.730849210562136e-01 -4.058330042027401e-01 4.882396704533830e-01 -3.484052621050287e-01
            4.883039221589635e-01 -3.484289963750493e-01 -2.730408020683919e-01 -4.058536517385894e-01 1.403415645422115e-01 4.035677428131167e-02 1.289458361596965e-01 4.279019482881771e-02
            -2.730280140880310e-01 -4.058710487077419e-01 4.882488469391691e-01 -3.484314820049710e-01 1.289494166502799e-01 4.280773665449817e-02 1.404026855951708e-01 4.047613665962983e-02
104230000.0000000000 1.385717582798645e-01 -3.977568478811568e-02 1.422645643540819e-01 -2.833511798727074e-02 3.384002342098249e-01 -4.934073490601820e-01 -3.947204575387742e-01 -2.837176134190507e-01
            1.423812767011077e-01 -2.837446421351424e-02 1.385247650135992e-01 -3.988542480550610e-02 -3.947459658442372e-01 -2.837837115013615e-01 3.385302211203625e-01 -4.935311693570800e-01
            3.385455520545514e-01 -4.934756970270202e-01 -3.947377647100839e-01 -2.836621940526342e-01 1.546886195516748e-01 7.554035436937306e-03 1.476435512924284e-01 8.954940539934649e-03
            -3.947624599187281e-01 -2.836645633482595e-01 3.383961029666395e-01 -4.934257959003988e-01 1.475775413751979e-01 8.898855282406382e-03 1.546536079191797e-01 7.592342690533202e-03
105062500.0000000000 1.167281640865761e-01 -8.309005646469957e-02 1.129925099702697e-01 -6.793763329815786e-02 1.470853385632712e-01 -5.815804809744411e-01 -4.672684093367401e-01 -1.312657071531383e-01
            1.129456649803924e-01 -6.799710546410921e-02 1.167066371038549e-01 -8.312707145512409e-02 -4.672673925307576e-01 -1.313132448265056e-01 1.471188430792785e-01 -5.816586867227628e-01
            1.470877132053790e-01 -5.815805287952065e-01 -4.672217213503327e-01 -1.312697835252135e-01 1.471942238209262e-01 -2.385955854140689e-02 1.430421031136644e-01 -2.844496619188860e-02
            -4.672184364200007e-01 -1.312236763346936e-01 1.471125513011417e-01 -5.815914186249859e-01 1.429815862025373e-01 -2.850397727916255e-02 1.471629609957099e-01 -2.388908936643827e-02
105895000.0000000000 7.164943914687744e-02 -1.067072443767563e-01 6.196859328439805e-02 -8.192665273134808e-02 -6.712113654202789e-02 -5.987205716704156e-01 -4.866559401968162e-01 3.574126767628900e-02
            6.200550483531624e-02 -8.202923863795192e-02 7.156232562317283e-02 -1.066407406757686e-01 -4.866186003104090e-01 3.572183869707034e-02 -6.707055805256847e-02 -5.987879528311358e-01
            -6.711250812877638e-02 -5.986657412126158e-01 -4.866526999322904e-01 3.575782099155487e-02 1.247569863511275e-01 -4.100179390071755e-02 1.183913673071429e-01 -5.524540573770913e-02
            -4.866001713693819e-01 3.577614483949965e-02 -6.712638748227132e-02 -5.987277134522920e-01 1.182819077819693e-01 -5.525871561309322e-02 1.247365426863565e-01 -4.107516140338188e-02
106727500.0000000000 1.981567153263643e-02 -9.962622168199524e-02 9.308072711973940e-03 -6.022230519675329e-02 -2.769492937036304e-01 -5.362306843590305e-01 -4.501750559941811e-01 2.030662904368741e-01
            9.448447413427648e-03 -6.022720331580816e-02 1.973414826020634e-02 -9.949612772393934e-02 -4.502669699802329e-01 2.031304506622257e-01 -2.769089675939133e-01 -5.363380312818872e-01
            -2.770342553511255e-01 -5.363829383292787e-01 -4.501491091594513e-01 2.030710503821323e-01 1.011510745943022e-01 -3.804037310188926e-02 8.452579634477207e-02 -6.190722422732970e-02
            -4.501754603105175e-01 2.031165797411862e-01 -2.770098597524480e-01 -5.363073244192934e-01 8.453478966987943e-02 -6.175691271168238e-02 1.011683814867935e-01 -3.806424083584298e-02
107560000.0000000000 -1.754645123797701e-02 -6.374942476930388e-02 -2.049342852263546e-02 -7.772865990892953e-03 -4.497859062775416e-01 -3.994373465637338e-01 -3.561021625057342e-01 3.526897823809361e-01
            -2.053426739710664e-02 -7.807713448840336e-03 -1.757553654172076e-02 -6.372008247125205e-02 -3.561359564222616e-01 3.526857773881506e-01 -4.497574059916792e-01 -3.994317001949425e-01
            -4.498011068556554e-01 -3.994808630913468e-01 -3.561510253562925e-01 3.526622954729635e-01 9.127450387939957e-02 -2.003303993830199e-02 5.681338115454234e-02 -4.801071821265655e-02
            -3.561677467558858e-01 3.527148004904773e-01 -4.497713289475316e-01 -3.994171028184235e-01 5.676001327457979e-02 -4.812505178734226e-02 9.128944668420136e-02 -2.006237522510697e-02
108392500.0000000000 -2.549349615084162e-02 -1.608146174623112e-02 -1.175050393255455e-02 5.384586787297326e-02 -5.579164656427352e-01 -2.097640973643853e-01 -2.103799100027258e-01 4.618745445143325e-01
            -1.178220153399961e-02 5.378851234131593e-02 -2.546290980283039e-02 -1.606028760091445e-02 -2.103817035013798e-01 4.619041734646905e-01 -5.579636855453977e-01 -2.097821791671902e-01
            -5.578568517755151e-01 -2.097321710300180e-01 -2.103618725444067e-01 4.618147007786523e-01 1.023626048120952e-01 -2.265034257622647e-03 4.585710495298732e-02 -2.429827294002574e-02
            -2.102721117551435e-01 4.619400465041555e-01 -5.578787756057957e-01 -2.096649923837593e-01 4.592525876889585e-02 -2.427660974812291e-02 1.024000190666036e-01 -2.284481635185377e-03
109225000.0000000000 -5.521144229682913e-03 2.097962094007188e-02 3.234464406416757e-02 9.725495736532305e-02 -5.887826525955554e-01 1.423009974394152e-03 -3.154235548039686e-02 5.099829117367203e-01
            3.238347727446331e-02 9.727142691740660e-02 -5.465296256346907e-03 2.096144022675441e-02 -3.148705920867064e-02 5.099894175132441e-01 -5.887277262932946e-01 1.327582287946808e-03
            -5.887306147250726e-01 1.289138769763974e-03 -3.152861993993737e-02 5.100300182231478e-01 1.279557086271263e-01 -1.257385601425650e-03 5.172138077977706e-02 -5.045756256527532e-03
            -3.162867298511346e-02 5.099709409244824e-01 -5.886931286951428e-01 1.387682686027279e-03 5.170158879439231e-02 -5.056197079215121e-03 1.280875299446297e-01 -1.243570123088559e-03
110057500.0000000000 2.612458345376924e-02 3.400691785647680e-02 9.143686369417434e-02 1.054641056153665e-01 -5.450438510088892e-01 2.046158315285287e-01 1.519300159309150e-01 4.886339492873618e-01
            9.150012578707761e-02 1.055090831657098e-01 2.606959741345676e-02 3.401432135254356e-02 1.519158097012240e-01 4.886634191917848e-01 -5.449867881557376e-01 2.046087676346376e-01
            -5.449105448467878e-01 2.045567961211940e-01 1.520386997837719e-01 4.886688409273023e-01 1.513803876531972e-01 -2.373980074887304e-02 6.430043494115097e-02 1.183267568130478e-03
            1.519990757726804e-01 4.886024482071971e-01 -5.450366696609150e-01 2.046706241818931e-01 6.426699230849001e-02 1.167191761889249e-03 1.513830785620012e-01 -2.364396692218598e-02
110890000.0000000000 5.050837005177507e-02 2.459938287420086e-02 1.408969415207556e-01 7.902183004976955e-02 -4.369651491490751e-01 3.781911916320407e-01 3.135825797038069e-01 4.041459757139135e-01
            1.408917044230194e-01 7.895959373909670e-02 5.044347801302618e-02 2.456289798118377e-02 3.135209619840872e-01 4.041725678327550e-01 -4.369184505071876e-01 3.780866347977817e-01
            -4.368518849414702e-01 3.781277443565507e-01 3.135627475289734e-01 4.040919995013665e-01 1.559199456538982e-01 -6.269288607883712e-02 7.190961302760361e-02 -4.585193599398935e-03
            3.135363399648088e-01 4.041295546115528e-01 -4.369596062250515e-01 3.781344765120309e-01 7.198800987633822e-02 -4.569937020438794e-03 1.559079000748474e-01 -6.269738685792395e-02
111722500.0000000000 5.632953127450145e-02 5.262291846553062e-03 1.634181650794044e-01 3.243643137079477e-02 -2.772628472267847e-01 5.048257528276243e-01 4.347609972845167e-01 2.709503020335187e-01
            1.634784883436190e-01 3.243333680500288e-02 5.632481808474206e-02 5.271599156020941e-03 4.348118651475407e-01 2.709904898584077e-01 -2.773157838888452e-01 5.049030553655285e-01
            -2.772689144105134e-01 5.048853245215825e-01 4.348159957001657e-01 2.710190086690649e-01 1.335567804332384e-01 -1.020625009006260e-01 6.817035942226084e-02 -1.374865230951672e-02
            4.347525197452838e-01 2.710224275540509e-01 -2.773467028259804e-01 5.048350556535157e-01 6.814979600031743e-02 -1.366017760236010e-02 1.334833787286802e-01 -1.021088048767662e-01
112555000.0000000000 4.317298375660978e-02 -8.267414220034519e-03 1.544630691272774e-01 -1.392583020808604e-02 -8.228216964211071e-02 5.696749885828697e-01 5.047848965379332e-01 1.053520423057936e-01
            1.543842609477710e-01 -1.387676844776293e-02 4.317598369927088e-02 -8.254425835200977e-03 5.048308348033493e-01 1.053789221206700e-01 -8.233090748198463e-02 5.696255708550457e-01
            -8.223915956612392e-02 5.696789956218509e-01 5.048095781469963e-01 1.053213416556353e-01 8.819801794923712e-02 -1.239202349298855e-01 5.373290404456396e-02 -1.587041477023125e-02
            5.047939843738388e-01 1.053921775783382e-01 -8.229018952444236e-02 5.696007595537385e-01 5.376746109637608e-02 -1.579737247905657e-02 8.822380153662282e-02 -1.238924434255276e-01
113387500.0000000000 2.085362489520974e-02 -3.813990339746513e-03 1.221964722628047e-01 -4.111750291179736e-02 1.251587576526609e-01 5.606935278764127e-01 5.162078487737906e-01 -7.692450414077116e-02
            1.222090489688800e-01 -4.111148653284300e-02 2.091741230423619e-02 -3.778367058250668e-03 5.161111158678132e-01 -7.690209711498035e-02 1.252481935138576e-01 5.605890081517723e-01
            1.251901280323130e-01 5.606955654836108e-01 5.161548826586171e-01 -7.687399680436421e-02 3.536778470241275e-02 -1.157313694980544e-01 3.702931075467210e-02 -3.414717560496822e-03
            5.161702232421266e-01 -7.689048287831923e-02 1.251361445436507e-01 5.606754702718715e-01 3.699343465509367e-02 -3.429195839310570e-03 3.540070812616853e-02 -1.156831031401631e-01
114220000.0000000000 5.575349559959264e-03 2.107610060186570e-02 8.536012706167125e-02 -4.019027951568343e-02 3.155138889441552e-01 4.760189104199487e-01 4.626944684574107e-01 -2.570987441970865e-01
            8.528804815665535e-02 -4.019206515419909e-02 5.539061144294656e-03 2.109107140073683e-02 4.627860895422786e-01 -2.570696908074885e-01 3.155172302395005e-01 4.760534654246981e-01
            3.154731027345231e-01 4.760279067179250e-01 4.626832357601276e-01 -2.571084720819534e-01 -3.930959902207759e-03 -7.761304128181537e-02 3.097767008641118e-02 2.292960747101389e-02
            4.626943183974607e-01 -2.570686623369616e-01 3.154759726691707e-01 4.759961718076085e-01 3.096526464694236e-02 2.295409309501161e-02 -3.900118006260831e-03 -7.764484748559962e-02
115052500.0000000000 1.190167358390192e-02 5.614665956033828e-02 6.332153020244403e-02 -1.731899131269140e-02 4.593742478353819e-01 3.286166873465168e-01 3.446305449532421e-01 -4.103624145484061e-01
            6.333675877183856e-02 -1.735722884494932e-02 1.191890038518734e-02 5.607565147533861e-02 3.446076575772257e-01 -4.102754557038165e-01 4.593839552259360e-01 3.286964106715412e-01
            4.593790417732898e-01 3.286852524987581e-01 3.445332294632467e-01 -4.103557373916001e-01 -1.278074336721590e-02 -2.477645763601383e-02 4.540369636659165e-02 5.187868281964330e-02
            3.445529309237892e-01 -4.103498693752912e-01 4.593983374396246e-01 3.286981149471050e-01 4.533101528289256e-02 5.185691882739056e-02 -1.271370986458199e-02 -2.479434658189998e-02
115885000.0000000000 4.250261477960710e-02 8.244461074883737e-02 6.532228225684525e-02 1.020880646693471e-02 5.381900602942472e-01 1.439311252669153e-01 1.750564529004045e-01 -5.101836129049301e-01
            6.534653025350687e-02 1.012429355097239e-02 4.247669298564306e-02 8.240465193168404e-02 1.750431386712041e-01 -5.102546521619988e-01 5.381983432839146e-01 1.439095800899996e-01
            5.382171181151739e-01 1.439221626063792e-01 1.750311182254375e-01 -5.101740678177873e-01 1.091537638595348e-02 1.938985907912383e-02 7.787091695377375e-02 6.728423969484210e-02
            1.749377834461432e-01 -5.102154857258980e-01 5.381611651864789e-01 1.439205147850512e-01 7.794055385798490e-02 6.724705929068867e-02 1.088937393109534e-02 1.934365175643031e-02
116717500.0000000000 8.494064405810350e-02 8.484196973596694e-02 8.547722934183533e-02 2.477204890044217e-02 5.477438039846820e-01 -5.109585515503745e-02 -1.954894343048689e-02 -5.394094983991072e-01
            8.546472293980727e-02 2.489784044154499e-02 8.499141715106924e-02 8.476419791178455e-02 -1.954183276922527e-02 -5.394336912484538e-01 5.478280885752395e-01 -5.106889695008805e-02
            5.478231946940085e-01 -5.108378809182265e-02 -1.948711684896591e-02 -5.394169083004486e-01 5.286577048677876e-02 3.713473423766008e-02 1.150525772056742e-01 5.905474464577225e-02
            -1.954601897513419e-02 -5.393306755620093e-01 5.478507274604343e-01 -5.105257858076568e-02 1.149897814012548e-01 5.901113959775477e-02 5.273745890050035e-02 3.711724187197625e-02
117550000.0000000000 1.209159444089082e-01 6.103911834561229e-02 1.089937872719246e-01 1.923543101447880e-02 4.930251846916199e-01 -2.346037819357061e-01 -2.085099599862686e-01 -4.961129777213902e-01
            1.090348197454791e-01 1.926940642064365e-02 1.209783306921795e-01 6.096602717555524e-02 -2.086257697931747e-01 -4.961605792275210e-01 4.929789851257274e-01 -2.345637498257571e-01
            4.929975471849545e-01 -2.345655316287842e-01 -2.086032607043970e-01 -4.961198953957225e-01 9.186095374025821e-02 2.498546302989667e-02 1.399091195658967e-01 2.956693234578662e-02
            -2.086267961343169e-01 -4.961301287503949e-01 4.929910492546720e-01 -2.345722052140748e-01 1.400215211898300e-01 2.953128647323557e-02 9.171479872377611e-02 2.500003255116643e-02
118382500.0000000000 1.351687200771898e-01 2.117170038673250e-02 1.215139469318002e-01 -2.259794155067596e-03 3.811153540743081e-01 -3.892223644440509e-01 -3.675045081803195e-01 -3.913517652684688e-01
            1.214300688263051e-01 -2.085724243547303e-03 1.352450011020194e-01 2.108089464818418e-02 -3.675898913192606e-01 -3.913440556021177e-01 3.811606252561078e-01 -3.891398632028233e-01
            3.811011611125658e-01 -3.892474621346954e-01 -3.676502535615692e-01 -3.913407576227870e-01 1.109210963763642e-01 -7.215231868183007e-03 1.421194411619252e-01 -8.942511872811759e-03
            -3.676229155555472e-01 -3.913247283176650e-01 3.810984012149525e-01 -3.892234608855387e-01 1.420989339861387e-01 -8.846986062941630e-03 1.109440668604935e-01 -7.124941410496013e-03
119215000.0000000000 1.225457700790961e-01 -1.780195862556021e-02 1.151797699673001e-01 -2.775430171581317e-02 2.220255857123509e-01 -4.985115078091567e-01 -4.807950439080098e-01 -2.410041510085889e-01
            1.152011156887518e-01 -2.774507796750316e-02 1.225970767388082e-01 -1.782283939799048e-02 -4.807896234697057e-01 -2.409097365553385e-01 2.219200210366927e-01 -4.985036462331883e-01
            2.219982363686853e-01 -4.985154868600098e-01 -4.807651358993477e-01 -2.409255034832189e-01 1.030118885968476e-01 -4.205681894104255e-02 1.206714909799993e-01 -4.069200201650490e-02
            -4.808238866343983e-01 -2.409253148536701e-01 2.219066438370419e-01 -4.984742864995885e-01 1.206408457831593e-01 -4.068451986088054e-02 1.030835994315017e-01 -4.201121369993371e-02
120047500.0000000000 8.916794831597639e-02 -3.925015813037137e-02 9.167546678508887e-02 -4.352750088736332e-02 3.105601939518442e-02 -5.458607605903869e-01 -5.383071539788323e-01 -6.103890929562643e-02
            9.164458032365194e-02 -4.351701128102938e-02 8.916689414832091e-02 -3.919883516962779e-02 -5.382960670405254e-01 -6.100375680414224e-02 3.106293626042683e-02 -5.459110625371085e-01
            3.115585464211016e-02 -5.458284660470916e-01 -5.382596209766163e-01 -6.098825931933025e-02 7.307310736434953e-02 -6.171582865177851e-02 8.426694374883875e-02 -5.233628597810758e-02
            -5.382398259163885e-01 -6.095344758846943e-02 3.116786550349317e-02 -5.459343173701980e-01 8.423238094870397e-02 -5.233808481405952e-02 7.305761330116352e-02 -6.169869525321705e-02
120880000.0000000000 5.074540696087570e-02 -3.330750648426019e-02 6.180646383070303e-02 -3.906955291849831e-02 -1.664931220231534e-01 -5.198602868211391e-01 -5.321669438640763e-01 1.317729194489194e-01
            6.179307003728569e-02 -3.907018435103587e-02 5.078528247572414e-02 -3.332439869192823e-02 -5.321053073701388e-01 1.318432325812638e-01 -1.664989972107079e-01 -5.199173284157348e-01
            -1.664532709234532e-01 -5.199001834174609e-01 -5.320942233810757e-01 1.317575397678321e-01 3.661200809649866e-02 -5.480672135422789e-02 4.853213504899127e-02 -3.774232027649647e-02
            -5.321424665416985e-01 1.317530748899725e-01 -1.664048198027488e-01 -5.198226875605567e-01 4.857861651424973e-02 -3.773299631495742e-02 3.657778209372700e-02 -5.481863566364321e-02
121712500.0000000000 2.709599765596553e-02 -2.972304573250277e-03 4.196809381386262e-02 -1.449708144489816e-02 -3.397082450068055e-01 -4.217846367106231e-01 -4.568106786427377e-01 3.154259354269698e-01
            4.195280810294408e-02 -1.458815006500922e-02 2.719661341544660e-02 -2.902404044511506e-03 -4.568964997863271e-01 3.153756770572407e-01 -3.397215562448018e-01 -4.218587395464994e-01
            -3.396897908623060e-01 -4.217277585612903e-01 -4.568225322699771e-01 3.153919990578490e-01 1.401145921475860e-02 -2.343485301400626e-02 3.132021012770634e-02 -3.055957603197625e-03
            -4.568551507899763e-01 3.154174143156564e-01 -3.396979946725226e-01 -4.218222773270689e-01 3.136902874354260e-02 -3.057593346586494e-03 1.403820698706227e-02 -2.355184189380325e-02
122545000.0000000000 3.133767760998761e-02 3.525632140808527e-02 4.420405837291640e-02 1.744594565315705e-02 -4.615475215200583e-01 -2.690685307411429e-01 -3.161623337900005e-01 4.622068837383267e-01
            4.421914743722596e-02 1.747609852513380e-02 3.139801662515270e-02 3.525348899064837e-02 -3.162478600610250e-01 4.622031780827656e-01 -4.615833921390935e-01 -2.691200386707502e-01
            -4.614473656008077e-01 -2.690760114202809e-01 -3.161849557097374e-01 4.622553912324590e-01 1.878033673096647e-02 1.564506632632193e-02 4.210816049653326e-02 3.405737728610203e-02
            -3.162501664552950e-01 4.622223764690711e-01 -4.615033032860787e-01 -2.691383932812499e-01 4.208028595963267e-02 3.409027777867928e-02 1.879116186344111e-02 1.563460307952665e-02
123377500.0000000000 6.070758699294396e-02 5.999542234453861e-02 6.776226790227854e-02 3.920713575413652e-02 -5.185301157144481e-01 -8.869168162529970e-02 -1.293598715653477e-01 5.465125790885058e-01
            6.772622875648850e-02 3.916989351112070e-02 6.069205718610406e-02 6.005889360683218e-02 -1.293913985925857e-01 5.464887110045124e-01 -5.185054553408669e-01 -8.868437573416310e-02
            -5.184456766209496e-01 -8.864483837351628e-02 -1.293976423355965e-01 5.465405066610333e-01 4.828892437264051e-02 4.137140281276975e-02 7.477078655210900e-02 5.404511283915926e-02
            -1.293600126764136e-01 5.465672645408023e-01 -5.185351946829652e-01 -8.869039646276786e-02 7.469747072670498e-02 5.396850605548547e-02 4.831076950472483e-02 4.139294526057422e-02
124210000.0000000000 9.895963866377677e-02 5.872175529607369e-02 9.916025304510333e-02 3.934886637072266e-02 -5.107721049795374e-01 9.471491184311930e-02 7.369325197444898e-02 5.554857756599315e-01
            9.905037125783524e-02 3.946180761455919e-02 9.887514821723910e-02 5.867572062887012e-02 7.369580466940397e-02 5.554691348100635e-01 -5.109026693972754e-01 9.468312465385778e-02
            -5.108002507229046e-01 9.461450750597225e-02 7.364372586174397e-02 5.554558005123094e-01 8.660241558253071e-02 4.136365748870387e-02 1.115517701269977e-01 4.708595822967280e-02
            7.372660223645369e-02 5.555779069868564e-01 -5.107836728956293e-01 9.466233126982569e-02 1.115641107457959e-01 4.708263739551626e-02 8.653853016344890e-02 4.134860910899189e-02
125042500.0000000000 1.268785642176824e-01 3.290072273736761e-02 1.224547775196000e-01 1.893767272081441e-02 -4.443608419801423e-01 2.626307736850284e-01 2.629579737226881e-01 4.923098533039968e-01
            1.224263390389423e-01 1.897216267687159e-02 1.268739549323314e-01 3.291263804981356e-02 2.629869138143011e-01 4.923494093065939e-01 -4.442617344323886e-01 2.626608806225117e-01
            -4.442796075982631e-01 2.625688641928442e-01 2.629727304660868e-01 4.923217936303274e-01 1.146574175062599e-01 1.721013531333323e-02 1.346059292605516e-01 1.842010014397032e-02
            2.630123320322040e-01 4.922524370310232e-01 -4.442499761934988e-01 2.625431296606892e-01 1.345979171257907e-01 1.832014034223206e-02 1.146595764913044e-01 1.725350920769135e-02
125875000.0000000000 1.318546628455001e-01 -4.586858374393588e-03 1.265429365606110e-01 -1.165869052103712e-02 -3.259854615526614e-01 3.996041664474755e-01 4.164708723777116e-01 3.701850044359134e-01
            1.265239289039117e-01 -1.158979656848816e-02 1.318188151227823e-01 -4.623121962370656e-03 4.164601333970340e-01 3.701396203567220e-01 -3.259946441368343e-01 3.995435901100201e-01
            -3.259299489518681e-01 3.995764179479129e-01 4.165364024992981e-01 3.701604937095014e-01 1.202548587126257e-01 -1.854069642822599e-02 1.337152820993966e-01 -1.798654848297367e-02
            4.164978530708696e-01 3.701918403821891e-01 -3.260309737358225e-01 3.996448856640619e-01 1.337271163333421e-01 -1.802028829293181e-02 1.202641493800235e-01 -1.847636028596190e-02
126707500.0000000000 1.116321201267139e-01 -3.657320924925425e-02 1.095527449376251e-01 -3.816661943136121e-02 -1.655898245951975e-01 4.895069225226015e-01 5.202222061185088e-01 2.049714669239850e-01
            1.095997596083680e-01 -3.809720217502422e-02 1.116932508571586e-01 -3.658283378192930e-02 5.202028806055041e-01 2.050889778594237e-01 -1.655748207563679e-01 4.895496034656388e-01
            -1.656323117498953e-01 4.895819835238143e-01 5.201141237604991e-01 2.050731939246016e-01 1.012330154046998e-01 -4.912683336730165e-02 1.097613412813812e-01 -4.554948765711634e-02
            5.201300905693548e-01 2.050761849551008e-01 -1.655677538636073e-01 4.894959142945575e-01 1.098262626821592e-01 -4.558431322867881e-02 1.012311265489848e-01 -4.903320617689062e-02
127540000.0000000000 7.537508200598052e-02 -4.789083597942230e-02 7.848087783560143e-02 -4.719506264991369e-02 1.968087886745246e-02 5.168476434413601e-01 5.640843159082533e-01 1.304113824266512e-02
            7.845266774774000e-02 -4.708141329113277e-02 7.536525801773807e-02 -4.784928529647327e-02 5.639880566102411e-01 1.298168820163273e-02 1.970386415079585e-02 5.166730514040512e-01
            1.974983974568694e-02 5.168640962470844e-01 5.640453520005193e-01 1.296406383104965e-02 6.634942034790957e-02 -5.933060071809870e-02 7.324817102550268e-02 -5.117454790696335e-02
            5.639753558573857e-01 1.299432817616487e-02 1.972237681061199e-02 5.168549103596298e-01 7.327425655438552e-02 -5.118526246657046e-02 6.633202475735482e-02 -5.936625476991687e-02
128372500.0000000000 4.057483648628052e-02 -3.218612437228959e-02 4.841217112638647e-02 -3.289300611507232e-02 2.035777800593146e-01 4.730488394480621e-01 5.394150960612474e-01 -1.874445077432917e-01
            4.834006471241998e-02 -3.279959086706812e-02 4.052226668528884e-02 -3.213827889096075e-02 5.394286131173479e-01 -1.874496692230582e-01 2.035777143896004e-01 4.731467810454406e-01
            2.036771185986113e-01 4.731354362324903e-01 5.394133598280236e-01 -1.875508917950827e-01 3.308107709813456e-02 -4.315642583370978e-02 4.158141494126244e-02 -3.098196734930370e-02
            5.394166254557636e-01 -1.874180557648377e-01 2.036033580864675e-01 4.731073570570151e-01 4.158206534236084e-02 -3.100110343624644e-02 3.306657684682347e-02 -4.311239696959884e-02
129205000.0000000000 2.570174198086241e-02 3.074783157730631e-03 3.553743536617852e-02 -1.352343882963299e-03 3.561273575291416e-01 3.641598524422933e-01 4.424040323747999e-01 -3.710364759477716e-01
            3.551681843759102e-02 -1.219872317788572e-03 2.573521571935753e-02 3.073270994618738e-03 4.424202933434184e-01 -3.710420361530205e-01 3.562177231225371e-01 3.642892639243218e-01
            3.561984104205065e-01 3.642433970070035e-01 4.423618341024231e-01 -3.710991106723584e-01 1.977078574688835e-02 -8.090051868066973e-03 3.173129224395423e-02 5.362982515545983e-03
            4.423977547532692e-01 -3.710494235435517e-01 3.562709565931339e-01 3.641808246207313e-01 3.174757535234869e-02 5.387187746886839e-03 1.970851703056491e-02 -8.024296392993794e-03
130037500.0000000000 3.899157658345510e-02 3.860263159561494e-02 4.743680241134017e-02 3.042659761595310e-02 4.551499258163113e-01 2.106500631216849e-01 2.815991444183242e-01 -5.082387872647630e-01
            4.739323504263537e-02 3.040204943591017e-02 3.891487149371783e-02 3.855516429734240e-02 2.816015594677724e-01 -5.082083575591123e-01 4.550249902507716e-01 2.106924865215811e-01
            4.551600611958035e-01 2.106880798297260e-01 2.815761350714994e-01 -5.082047506681241e-01 3.398072904923140e-02 2.643579178815638e-02 4.905484016431152e-02 3.854097440384889e-02
            2.816277185182437e-01 -5.082414470701120e-01 4.550695547046754e-01 2.106952551861442e-01 4.910567149631051e-02 3.845105430498219e-02 3.389446568993421e-02 2.645453258104475e-02
130870000.0000000000 7.219428117391902e-02 5.522245985371636e-02 7.701725717099545e-02 4.565923810008004e-02 4.922637631308549e-01 3.813364829448693e-02 8.099173061161216e-02 -5.756537371381560e-01
            7.695689307400859e-02 4.568603896046763e-02 7.213047615962645e-02 5.523528527811788e-02 8.094941935955732e-02 -5.755943363802148e-01 4.922349406516058e-01 3.818428211873085e-02
            4.923140780313472e-01 3.826395627366243e-02 8.100757550612706e-02 -5.756157404323256e-01 6.735239821216564e-02 4.199307374932020e-02 8.351559088244653e-02 5.078798577544871e-02
            8.095593128275033e-02 -5.756544472400323e-01 4.922807312467607e-01 3.818841984716662e-02 8.352393375497914e-02 5.069721011609203e-02 6.732641843395243e-02 4.202911360347387e-02
131702500.0000000000 1.074031139001020e-01 4.540013713550528e-02 1.080961519740274e-01 3.740752865895196e-02 4.700900905012466e-01 -1.321230878578482e-01 -1.277143078398288e-01 -5.651877432159862e-01
            1.081092932760340e-01 3.743690787437660e-02 1.072707243437058e-01 4.551850635612775e-02 -1.276537861213470e-01 -5.651421148401435e-01 4.700451242805128e-01 -1.321500806372690e-01
            4.700651981822979e-01 -1.321400006974394e-01 -1.276941892727408e-01 -5.651455006158798e-01 1.016812967184436e-01 3.135488437839366e-02 1.163428456565695e-01 3.711165638231917e-02
            -1.277145824110479e-01 -5.651817123789545e-01 4.700918741210711e-01 -1.320135082441519e-01 1.163434712575016e-01 3.706621504906766e-02 1.016747482610191e-01 3.141323763197699e-02
132535000.0000000000 1.269969970576583e-01 1.550600390158429e-02 1.258370790344695e-01 1.158044321876857e-02 3.942423864026073e-01 -2.842964623395638e-01 -3.159740888346952e-01 -4.834843213366242e-01
            1.258291415544217e-01 1.152491860733451e-02 1.269814748761727e-01 1.550781492487961e-02 -3.160052308417280e-01 -4.834953560942683e-01 3.941158903756045e-01 -2.843825148830166e-01
            3.941518471451288e-01 -2.843333538127857e-01 -3.159327086664437e-01 -4.834832502231971e-01 1.202971503727746e-01 1.167641196779733e-03 1.316935395972932e-01 5.858252817267344e-03
            -3.159176160692218e-01 -4.835424830298231e-01 3.941820190609738e-01 -2.843412013958376e-01 1.316185887240077e-01 5.834933789676880e-03 1.203015098946911e-01 1.114604079630592e-03
133367500.0000000000 1.224668127460660e-01 -1.977641424178293e-02 1.223028535247255e-01 -1.915244341016777e-02 2.709166159397468e-01 -4.036918528461627e-01 -4.636248316307584e-01 -3.447286696708198e-01
            1.223697733334563e-01 -1.911018493372282e-02 1.224132029043112e-01 -1.980152739384748e-02 -4.636213066842998e-01 -3.447913451684158e-01 2.708567464238062e-01 -4.037093414069143e-01
            2.709556140123262e-01 -4.036535020466586e-01 -4.636191159459771e-01 -3.448362941920082e-01 1.146131780670416e-01 -3.385879165878537e-02 1.227115447907645e-01 -2.760401929248662e-02
            -4.636030043912956e-01 -3.447312138706106e-01 2.708383594720292e-01 -4.037175376213862e-01 1.226966679613559e-01 -2.765535902355361e-02 1.145728887294452e-01 -3.383706347233470e-02
134200000.0000000000 9.568791654728161e-02 -4.366803833267564e-02 9.953654041775657e-02 -3.989874134098481e-02 1.109875033537447e-01 -4.740286815459768e-01 -5.569527490094960e-01 -1.647302202938786e-01
            9.953377511945644e-02 -3.997957080909764e-02 9.554782488436848e-02 -4.374731686538425e-02 -5.571027366106105e-01 -1.647325167417528e-01 1.109807351309313e-01 -4.740155188384280e-01
            1.109673252958017e-01 -4.740925296906543e-01 -5.570432224452454e-01 -1.647322711420045e-01 8.685075001565171e-02 -5.704078800854556e-02 9.373901984377317e-02 -4.732317206290460e-02
            -5.570655930444466e-01 -1.647669135729898e-01 1.110146281922448e-01 -4.740642057162061e-01 9.372366664005118e-02 -4.736544047120207e-02 8.686028116692703e-02 -5.693538175367683e-02
135032500.0000000000 5.910237224710256e-02 -4.375188846995141e-02 6.817986832792046e-02 -4.011652598792121e-02 -6.627768705843903e-02 -4.814647113101494e-01 -5.853754013791550e-01 3.951926194630451e-02
            6.813401011227183e-02 -4.014874636487546e-02 5.908258866792599e-02 -4.376330488496274e-02 -5.853548437090278e-01 3.949765979047232e-02 -6.631248749801748e-02 -4.815225092543182e-01
            -6.633072978980764e-02 -4.815377774592322e-01 -5.854240908707073e-01 3.948389749226330e-02 4.968516943547751e-02 -5.605856902609493e-02 5.792128035367921e-02 -4.271590929638386e-02
            -5.853311569494805e-01 3.956836837128624e-02 -6.635490217629421e-02 -4.814730401311070e-01 5.790268298212022e-02 -4.267781255947387e-02 4.972938629018310e-02 -5.595228132273381e-02
135865000.0000000000 3.166577675618837e-02 -1.856509155002975e-02 4.468881346019993e-02 -1.854613650626492e-02 -2.336190674134635e-01 -4.216822972314800e-01 -5.398961080650695e-01 2.462184310420670e-01
            4.475808336184761e-02 -1.850989314345792e-02 3.169815935118057e-02 -1.863022425713578e-02 -5.399016474780235e-01 2.462913131958526e-01 -2.337282701678323e-01 -4.216916262862844e-01
            -2.336368055408813e-01 -4.217562081313342e-01 -5.399350335051909e-01 2.461834714372027e-01 2.210845064421635e-02 -2.986036114694378e-02 3.393912273273145e-02 -1.442020594527227e-02
            -5.399393871380688e-01 2.462837887537385e-01 -2.336662459826305e-01 -4.216944763221407e-01 3.388842712865064e-02 -1.442209052913583e-02 2.204382396300556e-02 -2.980341178420795e-02
136697500.0000000000 2.884254426660416e-02 1.884876502700199e-02 4.288283546543691e-02 1.366736135825207e-02 -3.637356551796548e-01 -3.055409966194521e-01 -4.197856340965425e-01 4.263478451195977e-01
            4.287139477177894e-02 1.361999404628846e-02 2.881714278876716e-02 1.883386587013567e-02 -4.197600482469839e-01 4.264116774637959e-01 -3.638100751326903e-01 -3.055522402893436e-01
            -3.637514203689502e-01 -3.055414639226835e-01 -4.198387363541287e-01 4.264051700060287e-01 1.912813286107844e-02 8.657209042527397e-03 3.555848099433850e-02 2.330691050054126e-02
            -4.198972657421156e-01 4.263483740795868e-01 -3.637289154873188e-01 -3.055153835512786e-01 3.556381648079365e-02 2.322661182272759e-02 1.919820901705955e-02 8.575950206811581e-03
137530000.0000000000 5.232469936213931e-02 4.816299028989587e-02 6.361988158042872e-02 3.806753741242189e-02 -4.401912642571184e-01 -1.552910262937131e-01 -2.395635591708783e-01 5.501430291272602e-01
            6.367462259685533e-02 3.797559301236780e-02 5.229054139811367e-02 4.823149041464386e-02 -2.397133352231604e-01 5.501375509493437e-01 -4.401302079198160e-01 -1.552460793164750e-01
            -4.401649568842634e-01 -1.551998904501300e-01 -2.396332621809041e-01 5.502036244584099e-01 4.266249487325954e-02 3.873315040063770e-02 6.216973662058260e-02 5.009491393447184e-02
            -2.396345345736522e-01 5.501741608552974e-01 -4.400968724649689e-01 -1.552670328096040e-01 6.215519969592097e-02 5.002327416407163e-02 4.263257474109292e-02 3.862381635400740e-02
138362500.0000000000 8.913357348553225e-02 5.409096048431482e-02 9.521935171158027e-02 4.135763316248373e-02 -4.597076501706953e-01 6.329720479123910e-03 -2.783110051247663e-02 5.981779475018415e-01
            9.521000954881771e-02 4.141871477429805e-02 8.911504389810375e-02 5.415015333418292e-02 -2.780574186335571e-02 5.981169249294683e-01 -4.597410441341250e-01 6.330074436344661e-03
            -4.597477316567617e-01 6.316558757215336e-03 -2.781132873728237e-02 5.981540209453650e-01 7.907798587079586e-02 4.545753753288285e-02 9.946618532316190e-02 5.220385675524954e-02
            -2.771331462704861e-02 5.981933069375233e-01 -4.596839089878200e-01 6.355645649654614e-03 9.944107406169637e-02 5.224810657220814e-02 7.904028162388904e-02 4.543679880083764e-02
139195000.0000000000 1.203898025676556e-01 3.456065001981416e-02 1.206445957183907e-01 2.295964716260260e-02 -4.259437834731841e-01 1.620805210793858e-01 1.836836458746060e-01 5.673945865009511e-01
            1.206524705846978e-01 2.294381655456778e-02 1.204019292057835e-01 3.452150689705377e-02 1.835590733369051e-01 5.673666034815660e-01 -4.260035974008828e-01 1.619899463827238e-01
            -4.259493239507968e-01 1.620290179190093e-01 1.835898642703065e-01 5.673491272958844e-01 1.099569202373223e-01 2.730584757948565e-02 1.285947879565743e-01 2.991808751658974e-02
            1.835861591589523e-01 5.672798043436246e-01 -4.259711520169694e-01 1.619456472214035e-01 1.285797378614594e-01 2.994506718214400e-02 1.099315756100857e-01 2.726720030952489e-02
140027500.0000000000 1.316504058735479e-01 -3.817255186398586e-04 1.277849783294973e-01 -7.603453698861080e-03 -3.433050139704910e-01 2.981364275066348e-01 3.681354599333577e-01 4.672806880754057e-01
            1.277565384054091e-01 -7.603653834291848e-03 1.316739966899840e-01 -3.113611389091896e-04 3.682485169047935e-01 4.672561400634129e-01 -3.434206564097319e-01 2.980897854937894e-01
            -3.433328621198103e-01 2.980350110513448e-01 3.681836573376279e-01 4.671991493139394e-01 1.212920306685721e-01 -5.697456683100164e-03 1.363819720958738e-01 -5.297553585149183e-03
            3.682164569281414e-01 4.672126812847809e-01 -3.433604673468956e-01 2.980749837514787e-01 1.363722437680661e-01 -5.254208385397916e-03 1.213290992403941e-01 -5.730039800639571e-03
140860000.0000000000 1.178842433499777e-01 -3.448248961060117e-02 1.130381639339968e-01 -3.607461799744736e-02 -2.178150534257722e-01 3.999129991498151e-01 5.075980475495806e-01 3.123682438781197e-01
            1.130896703534712e-01 -3.611569530955603e-02 1.178531175662617e-01 -3.449696677358150e-02 5.076193657892030e-01 3.123466203267145e-01 -2.178787114441857e-01 3.999307915826444e-01
            -2.178759071782876e-01 3.999617972974029e-01 5.075958113495807e-01 3.123829018555349e-01 1.086331269978291e-01 -3.765799568768997e-02 1.201089223658148e-01 -3.720838679019253e-02
            5.076955356885566e-01 3.124284137783881e-01 -2.178505874749578e-01 4.000010847816491e-01 1.201376688568869e-01 -3.712074768469055e-02 1.086630648573523e-01 -3.770463373759583e-02
141692500.0000000000 8.499681795457571e-02 -5.188210607248150e-02 8.246659689892342e-02 -4.858538908277822e-02 -6.126084499114996e-02 4.517601431872036e-01 5.884334898923725e-01 1.186653458617327e-01
            8.243506510931582e-02 -4.870063798948293e-02 8.502160404452304e-02 -5.189778284981342e-02 5.883885344611373e-01 1.186129372128073e-01 -6.132800367995343e-02 4.517271022794004e-01
            -6.134220431994600e-02 4.517759639144938e-01 5.884444220712870e-01 1.187270129505036e-01 7.792926921355460e-02 -5.337565563165281e-02 8.708008066419648e-02 -5.106793200651730e-02
            5.884844061836514e-01 1.187373179704382e-01 -6.133508986535668e-02 4.517113499511336e-01 8.701693281509013e-02 -5.100255707211275e-02 7.789380609963989e-02 -5.341704251250795e-02
142525000.0000000000 4.836256283121970e-02 -4.330907020792813e-02 5.008946452745020e-02 -3.755894713959804e-02 1.052795838475205e-01 4.416306592237040e-01 5.990874196997417e-01 -9.531402430294754e-02
            5.005671105606738e-02 -3.760955167048761e-02 4.841377152980793e-02 -4.333772119603604e-02 5.990958148413692e-01 -9.533707645168821e-02 1.053129368653789e-01 4.417013268317599e-01
            1.052260677369205e-01 4.416256343273264e-01 5.991220825138046e-01 -9.531260196702226e-02 4.411996923932632e-02 -4.413778337283959e-02 5.274494661616424e-02 -3.960642523328320e-02
            5.990100261362344e-01 -9.531349220449818e-02 1.052411866363152e-01 4.416744803933484e-01 5.269633068307265e-02 -3.962599022192594e-02 4.416306870235893e-02 -4.415862827845075e-02
143357500.0000000000 2.682056826823385e-02 -1.240616683061662e-02 3.272443954236911e-02 -7.033101512965735e-03 2.547186294534711e-01 3.695937406365477e-01 5.317858360197729e-01 -3.044445454109311e-01
            3.267271601277916e-02 -7.038820984633607e-03 2.690536168592991e-02 -1.241268189479716e-02 5.318179791541083e-01 -3.045110630621305e-01 2.546434130337162e-01 3.696303897809900e-01
            2.547115318974122e-01 3.696990162792355e-01 5.317811676536748e-01 -3.044447538270009e-01 2.569385274981587e-02 -1.391852342168211e-02 3.525155654949635e-02 -8.045073142281860e-03
            5.317750790658574e-01 -3.045493417333370e-01 2.547119782504276e-01 3.696214267662168e-01 3.509895899452761e-02 -8.150659197240692e-03 2.569712275176926e-02 -1.396294470069909e-02
144190000.0000000000 3.194293213498259e-02 2.461933238556085e-02 4.044069226032208e-02 2.736989782201022e-02 3.634175954009652e-01 2.501683712063056e-01 3.899557517516284e-01 -4.775672126902346e-01
            4.038533049809490e-02 2.736302288218508e-02 3.198967862481089e-02 2.453424064383182e-02 3.899848873945175e-01 -4.775603058749106e-01 3.633921837565923e-01 2.501739149057703e-01
            3.634035594771280e-01 2.502085426980781e-01 3.899578990937519e-01 -4.775291489876492e-01 3.323631250504173e-02 2.077503987583489e-02 4.386698846489573e-02 2.632810578040744e-02
            3.899846227844377e-01 -4.774788224030367e-01 3.634285037731832e-01 2.502073440693760e-01 4.387272815493432e-02 2.640710600107077e-02 3.325211790903930e-02 2.077511929140624e-02
145022500.0000000000 6.019615408776391e-02 4.757021821497508e-02 6.855893038808765e-02 4.759096681149500e-02 4.201914626323134e-01 1.055025790919331e-01 1.934252338317535e-01 -5.858076378319367e-01
            6.855267458939256e-02 4.767993653220664e-02 6.015640828130305e-02 4.753603641680726e-02 1.934218978072661e-01 -5.858808570956753e-01 4.202034615746914e-01 1.054516528047177e-01
            4.202161467504515e-01 1.055068044441199e-01 1.934836298416140e-01 -5.858922945437425e-01 6.238666010699098e-02 4.077372605272488e-02 7.318680241873575e-02 4.495319312225947e-02
            1.934477444062710e-01 -5.859348364167402e-01 4.201878921435422e-01 1.053955770650477e-01 7.311084525690825e-02 4.495494515143673e-02 6.234135611266955e-02 4.074900727392767e-02
145855000.0000000000 9.537477009177155e-02 4.559481866245183e-02 1.020803674359234e-01 4.425302021847812e-02 4.248725619687957e-01 -4.498876607065624e-02 -2.681506278411771e-02 -6.145266888975535e-01
            1.020992814923501e-01 4.422034510570385e-02 9.538426781216262e-02 4.552964222621202e-02 -2.676943077412511e-02 -6.144300727707158e-01 4.249274676139619e-01 -4.494030203449462e-02
            4.249325257946275e-01 -4.494486639767566e-02 -2.670064992729483e-02 -6.145324033772278e-01 9.688618319258954e-02 3.590001920210818e-02 1.062629923352221e-01 3.867651123018098e-02
            -2.673363007089856e-02 -6.144708202949835e-01 4.249424922246402e-01 -4.502225241483953e-02 1.062813720923264e-01 3.869747660368694e-02 9.691141852906474e-02 3.590504357721637e-02
146687500.0000000000 1.195870433074699e-01 2.138981000121059e-02 1.244588482996512e-01 2.076349689224233e-02 3.811456756100782e-01 -1.866186255427880e-01 -2.391662341215896e-01 -5.643005120821977e-01
            1.244334928611145e-01 2.078907667381509e-02 1.195991033909428e-01 2.135897537295328e-02 -2.391917925920226e-01 -5.642945191908499e-01 3.811397911333807e-01 -1.866567492136514e-01
            3.811757871371750e-01 -1.866476523176795e-01 -2.392180103969213e-01 -5.643100602594574e-01 1.195019022353025e-01 9.651293605813587e-03 1.261087753634650e-01 1.247154592012841e-02
            -2.392165526668285e-01 -5.642760395878618e-01 3.811372125825884e-01 -1.867141228822705e-01 1.261055079448230e-01 1.242595327746817e-02 1.194510127104636e-01 9.577275133375309e-03
147520000.0000000000 1.219565914213506e-01 -1.254058702280733e-02 1.262225163955555e-01 -1.086868084033385e-02 2.926558153193460e-01 -3.069319491968940e-01 -4.194672535391094e-01 -4.461011952763871e-01
            1.261382254113202e-01 -1.078093327748743e-02 1.219855361117705e-01 -1.245422238997913e-02 -4.194693426241346e-01 -4.462397486695293e-01 2.926697203869730e-01 -3.068191745988314e-01
            2.926114334024780e-01 -3.069652193385377e-01 -4.193889470688092e-01 -4.462762707841689e-01 1.195359020591765e-01 -2.530262649284867e-02 1.235271939445208e-01 -2.038573215381609e-02
            -4.194353175837035e-01 -4.462214267824348e-01 2.927071777655196e-01 -3.068958015563900e-01 1.235555068492719e-01 -2.042762508712389e-02 1.194407536122765e-01 -2.528089990128315e-02
148352500.0000000000 1.013020972427614e-01 -3.960349679424006e-02 1.073116258019165e-01 -3.555214758567363e-02 1.657690828872448e-01 -3.908587377593640e-01 -5.497875824232740e-01 -2.750443527684110e-01
            1.072289071144476e-01 -3.554932748239822e-02 1.012803075892782e-01 -3.966473984732631e-02 -5.498207090966808e-01 -2.751860894656014e-01 1.658330842409096e-01 -3.907993668420888e-01
            1.658669018801447e-01 -3.908404473728962e-01 -5.498746404410719e-01 -2.750710963550563e-01 9.664297551235888e-02 -5.238790771934913e-02 9.953201135103168e-02 -4.374942271298830e-02
            -5.498486408725608e-01 -2.750917616140207e-01 1.659507944519273e-01 -3.908618667755814e-01 9.953557543910693e-02 -4.367021684047739e-02 9.666424482232847e-02 -5.233348075530991e-02
149185000.0000000000 6.718807173147197e-02 -4.639737959151533e-02 7.658857578643495e-02 -4.141467437541502e-02 1.453362555295033e-02 -4.236086366118557e-01 -6.162467326911378e-01 -6.754592495762660e-02
            7.665884087971232e-02 -4.139433009267291e-02 6.712361604815681e-02 -4.638156809143995e-02 -6.162101916656559e-01 -6.758569998738469e-02 1.451820080814716e-02 -4.235260050398137e-01
            1.460601156670004e-02 -4.235601812435001e-01 -6.161507802656515e-01 -6.755749977563737e-02 6.088054048812729e-02 -5.826210408190861e-02 6.503899722441751e-02 -4.536303057172559e-02
            -6.161451647133286e-01 -6.756415714938661e-02 1.462415987220652e-02 -4.235994386702781e-01 6.512917752968488e-02 -4.530485404093167e-02 6.077175110519076e-02 -5.831049032792279e-02
150017500.0000000000 3.673428358067764e-02 -2.808548318560613e-02 5.006976858547061e-02 -2.492898191054376e-02 -1.385059705126964e-01 -3.968354022836130e-01 -6.064804918309903e-01 1.550278287531904e-01
            5.013772805587104e-02 -2.491959624317672e-02 3.671092360901500e-02 -2.803835285991403e-02 -6.065520727959091e-01 1.549894764340812e-01 -1.384383594792847e-01 -3.968297150319541e-01
            -1.384703851850543e-01 -3.969147179600396e-01 -6.064997942010466e-01 1.550776097287449e-01 2.940642077741746e-02 -3.873229244677843e-02 3.734050829652292e-02 -2.280982802008015e-02
            -6.064640986189525e-01 1.549573019868674e-01 -1.385235945460338e-01 -3.968026767450842e-01 3.735228898198707e-02 -2.278522821132554e-02 2.939398528580343e-02 -3.877284125175158e-02
150850000.0000000000 2.671997450207319e-02 6.539943715348022e-03 4.237520500452855e-02 5.418194508773663e-03 -2.677344481458994e-01 -3.154245957180518e-01 -5.155995199530445e-01 3.636426702925981e-01
            4.233751402585900e-02 5.356283612510742e-03 2.681919362014146e-02 6.554772677058976e-03 -5.156218143383642e-01 3.636271769937655e-01 -2.677368985683560e-01 -3.154676352152124e-01
            -2.677627537450265e-01 -3.155302702507024e-01 -5.155974320106936e-01 3.636212240454943e-01 1.904896442431220e-02 -3.223109681374472e-03 3.179007124611622e-02 1.345790052860622e-02
            -5.155371859717817e-01 3.635821991984703e-01 -2.676912841044416e-01 -3.154981190362044e-01 3.187126813468089e-02 1.336695359500570e-02 1.913121913044346e-02 -3.103260143007815e-03
151682500.0000000000 4.286267546728472e-02 3.856588954246051e-02 5.769654895984767e-02 3.227399848839788e-02 -3.549105263477579e-01 -1.965606125846585e-01 -3.523691374459273e-01 5.256995233242164e-01
            5.773171181889197e-02 3.220346364907094e-02 4.292583234269317e-02 3.861002596892354e-02 -3.523712765008416e-01 5.257172042427154e-01 -3.548335438090377e-01 -1.966085694328678e-01
            -3.548972983204510e-01 -1.965938005078776e-01 -3.523557658296052e-01 5.256198990785288e-01 3.498886467458850e-02 2.947677946038586e-02 5.229905376682773e-02 4.397815970359543e-02
            -3.523215055904122e-01 5.256051760629179e-01 -3.548863855874467e-01 -1.966257529010686e-01 5.218688142148994e-02 4.394330141332212e-02 3.501455434260792e-02 2.949411702636289e-02
152515000.0000000000 7.598441488179493e-02 5.116939371217641e-02 8.681198511899202e-02 4.083660184783831e-02 -3.939286657081377e-01 -6.034338650860678e-02 -1.417550456010412e-01 6.157795293420305e-01
            8.675623239772480e-02 4.082941809775491e-02 7.599242453486123e-02 5.121837774948927e-02 -1.418507267962004e-01 6.157567045582786e-01 -3.939210204600190e-01 -6.045769931428739e-02
            -3.939019570270998e-01 -6.040359684797541e-02 -1.417953858796679e-01 6.157818928887366e-01 6.760952454949998e-02 4.236821538714020e-02 8.738146497883477e-02 5.294002754949471e-02
            -1.417965701960863e-01 6.156427169574283e-01 -3.939416942522277e-01 -6.046397392834623e-02 8.739379297137571e-02 5.299566009314225e-02 6.760313550475426e-02 4.243864261959455e-02
153347500.0000000000 1.084712342532852e-01 3.900942255972378e-02 1.134789821363300e-01 2.742682642797005e-02 -3.863473561528438e-01 7.724061059577292e-02 8.383131345367199e-02 6.238756112892165e-01
            1.134220320170726e-01 2.751862367436885e-02 1.083942345792604e-01 3.900094197286712e-02 8.379346475929654e-02 6.238769673077100e-01 -3.863481790864361e-01 7.731434234502708e-02
            -3.863605371776140e-01 7.727407724764479e-02 8.387590041110214e-02 6.239227450918462e-01 9.913802260832748e-02 3.071055655447434e-02 1.188828637281632e-01 3.692589824307175e-02
            8.391810929044578e-02 6.239653222268426e-01 -3.863637229052575e-01 7.725493951898259e-02 1.188580754480856e-01 3.702507877989727e-02 9.913196055872310e-02 3.074497951112389e-02
154180000.0000000000 1.247096824690074e-01 8.862565746004331e-03 1.241666093471281e-01 1.681440601267418e-07 -3.347795737540938e-01 2.044711705961330e-01 2.950504358556085e-01 5.543128317303446e-01
            1.242030220245990e-01 5.606281427623281e-06 1.247667799341130e-01 8.883210134997680e-03 2.950523544302798e-01 5.543132904562933e-01 -3.347417182910020e-01 2.045436022666267e-01
            -3.347802253233838e-01 2.044944796256575e-01 2.950460472344488e-01 5.542537506601651e-01 1.144908616483948e-01 1.809513523737794e-03 1.320275992864547e-01 5.171379674158672e-03
            2.950583284323541e-01 5.543073433935111e-01 -3.347423671628589e-01 2.045085549331659e-01 1.320806548632663e-01 5.124634749633729e-03 1.144793718928415e-01 1.786865470525364e-03
155012500.0000000000 1.175060355922916e-01 -2.455476479151831e-02 1.139320957044470e-01 -2.786124131696858e-02 -2.422879640687936e-01 3.086803984775634e-01 4.690333018654738e-01 4.185783299994020e-01
            1.139266063654663e-01 -2.787250796184410e-02 1.174727372525705e-01 -2.462322814774923e-02 4.690748519116055e-01 4.186718832908009e-01 -2.422631091924857e-01 3.085837648232280e-01
            -2.422745698288253e-01 3.086604447667027e-01 4.691039720284902e-01 4.187131072574103e-01 1.066844527719552e-01 -2.985585021438231e-02 1.214447898355734e-01 -2.715595937904646e-02
            4.690188030333844e-01 4.187179439623834e-01 -2.423502973738425e-01 3.085913382693664e-01 1.214441640608253e-01 -2.715800297480700e-02 1.067248267714293e-01 -2.975290555632999e-02
155845000.0000000000 8.978942415300573e-02 -4.522929038477139e-02 8.705393321533421e-02 -4.231357844545373e-02 -1.164594900567108e-01 3.745828353084001e-01 5.883498305971451e-01 2.316555597711980e-01
            8.701285453301834e-02 -4.230505615913689e-02 8.978695408206626e-02 -4.531744860785050e-02 5.884438253441682e-01 2.316697151143697e-01 -1.165061991324697e-01 3.746028997300422e-01
            -1.164603894380441e-01 3.746502824181426e-01 5.883282721958896e-01 2.316358519002093e-01 7.927771571071934e-02 -4.840457196805686e-02 9.217533307649514e-02 -4.460976402514907e-02
            5.883951681511027e-01 2.316660072486859e-01 -1.165070714738573e-01 3.747062692849206e-01 9.222494922719665e-02 -4.453321706440382e-02 7.925963139559350e-02 -4.839200890626905e-02
156677500.0000000000 5.470314267876323e-02 -4.231448876345023e-02 5.627617083499553e-02 -3.477893326586391e-02 2.657065410699187e-02 3.892679870767998e-01 6.378215139582548e-01 1.146488808993873e-02
            5.634160288489515e-02 -3.473996921240750e-02 5.458221555375433e-02 -4.225697047507056e-02 6.378029817452844e-01 1.138353237473291e-02 2.659351619634654e-02 3.892349528035747e-01
            2.660245765702012e-02 3.891945141025328e-01 6.378713813653250e-01 1.137204152331759e-02 4.530864274209544e-02 -4.354053487676085e-02 5.820474722852211e-02 -3.773148623129629e-02
            6.378846029176301e-01 1.137055370450281e-02 2.654105423806935e-02 3.893084218815847e-01 5.824074306349118e-02 -3.775570504964778e-02 4.538204828560215e-02 -4.349534547820656e-02
157510000.0000000000 3.040283196981429e-02 -1.604874876699406e-02 3.827759356814200e-02 -7.265675462160700e-03 1.635245186384225e-01 3.484978375242108e-01 6.057413957709136e-01 -2.171232064033845e-01
            3.831890058374533e-02 -7.254162753945024e-03 3.035330292908149e-02 -1.605674312651595e-02 6.058124182521711e-01 -2.171078328754249e-01 1.635023471562295e-01 3.484627471485053e-01
            1.634563357053015e-01 3.483766047210033e-01 6.057367631844350e-01 -2.171293597184520e-01 2.285765461617618e-02 -1.615878753523394e-02 3.781212776393425e-02 -9.210534301949581e-03
            6.057185487106664e-01 -2.171843448349655e-01 1.635275166699232e-01 3.484514211604529e-01 3.785182281449984e-02 -9.128157397760904e-03 2.292732580974012e-02 -1.624225190382662e-02
158342500.0000000000 3.033556157667985e-02 1.978174901996426e-02 4.393628894240675e-02 2.587764486461679e-02 2.716160228587611e-01 2.617484557060760e-01 4.905922211666711e-01 -4.213763524161351e-01
            4.399335144043724e-02 2.583472357468754e-02 3.034364065804890e-02 1.971384472348844e-02 4.905462556950240e-01 -4.214294927569340e-01 2.715193555845473e-01 2.617291295588211e-01
            2.716061150574777e-01 2.616928900596849e-01 4.903915753138209e-01 -4.213384544355271e-01 2.494799938809052e-02 1.980472780853222e-02 4.251929233910349e-02 2.603101615369218e-02
            4.905258642910409e-01 -4.213910548833025e-01 2.715652876855144e-01 2.616693917849064e-01 4.270729006862069e-02 2.606020120409530e-02 2.485300938851029e-02 1.975931171972962e-02
159175000.0000000000 5.425861688739669e-02 4.588305933847155e-02 7.092234765151864e-02 4.634601405918094e-02 3.385389592596047e-01 1.471541412245728e-01 3.074692348064564e-01 -5.688786894053928e-01
            7.084590523805687e-02 4.654998707957933e-02 5.427545107624650e-02 4.584521136429028e-02 3.074311851706230e-01 -5.689401425877713e-01 3.385147331259502e-01 1.471455118095031e-01
            3.385195801252692e-01 1.471715329221525e-01 3.074900532502048e-01 -5.688475597715706e-01 5.032720733381174e-02 4.508303032999406e-02 7.026524722687086e-02 4.844885498769895e-02
            3.074018639355793e-01 -5.688723872735232e-01 3.385774110673283e-01 1.471083764794338e-01 7.024978238414528e-02 4.846158351484107e-02 5.038917108556375e-02 4.514976812482201e-02
160007500.0000000000 8.870102715884791e-02 4.914500913068914e-02 1.045075558252488e-01 4.376509713279159e-02 3.623616682190011e-01 2.186541992102386e-02 8.558649522528215e-02 -6.384990750971221e-01
            1.045026006117699e-01 4.370132515565359e-02 8.868727514607869e-02 4.916688229361402e-02 8.563771902401936e-02 -6.386717294614453e-01 3.622909870368858e-01 2.191212823567414e-02
            3.623755712638551e-01 2.183113372480373e-02 8.559246754063074e-02 -6.385057890529640e-01 8.531295492602389e-02 4.730562810536082e-02 1.054620139295347e-01 4.646125571916439e-02
            8.560427791935510e-02 -6.385195921651498e-01 3.623510797521031e-01 2.183438190892595e-02 1.054106623349815e-01 4.639690822649776e-02 8.534297646387741e-02 4.734820232802790e-02
160840000.0000000000 1.160847762605433e-01 2.945471471746992e-02 1.279416870631503e-01 1.993881971522038e-02 3.450677851188981e-01 -1.021863836320000e-01 -1.425523935260248e-01 -6.255462773147576e-01
            1.280303228305174e-01 1.981041157317251e-02 1.161949394167564e-01 2.950109756304497e-02 -1.426537902574163e-01 -6.254708869292753e-01 3.451949002204813e-01 -1.021863313606734e-01
            3.451325634524171e-01 -1.022276714460523e-01 -1.426891297724495e-01 -6.255733865090356e-01 1.126004235242309e-01 2.680883527896815e-02 1.303765208345574e-01 2.218341647193533e-02
            -1.426285824820891e-01 -6.255189481630428e-01 3.451669236290023e-01 -1.021371277150841e-01 1.304117484825194e-01 2.199055192107456e-02 1.125582856292898e-01 2.693151500098002e-02
161672500.0000000000 1.239643072976051e-01 -2.875756978084258e-03 1.304699459791085e-01 -1.359472250574467e-02 2.883593064601321e-01 -2.146232895615775e-01 -3.498616967308761e-01 -5.366001902459591e-01
            1.305157881078047e-01 -1.353943233056195e-02 1.241110037643417e-01 -2.799721088334174e-03 -3.500336187346281e-01 -5.366427120135959e-01 2.883960718719054e-01 -2.145404046458787e-01
            2.882916655261084e-01 -2.146203445299386e-01 -3.499794128812768e-01 -5.365801619548789e-01 1.199749987709519e-01 -5.502919541515459e-03 1.336787903839069e-01 -1.256040049264676e-02
            -3.499867397453992e-01 -5.366627172985070e-01 2.883764290697566e-01 -2.146987264838340e-01 1.336096462344139e-01 -1.259642959112311e-02 1.199923282897282e-01 -5.494138628487942e-03
162505000.0000000000 1.089455248551507e-01 -3.252646732837751e-02 1.107785546928117e-01 -4.114127205026583e-02 1.944268331710250e-01 -3.029439989956190e-01 -5.152219223513764e-01 -3.839366461748978e-01
            1.107204027761067e-01 -4.110536573313372e-02 1.090168405597254e-01 -3.253655046211756e-02 -5.152720396885493e-01 -3.838439683136241e-01 1.945758861111087e-01 -3.029257127815108e-01
            1.944866501275106e-01 -3.028476874686132e-01 -5.151754339372965e-01 -3.838555855139302e-01 1.045912467340584e-01 -3.455451112170708e-02 1.137953030328812e-01 -4.128048780809102e-02
            -5.151496750436111e-01 -3.838717106404227e-01 1.945667184277463e-01 -3.029209362278655e-01 1.137875899881310e-01 -4.122135738463563e-02 1.047375866759147e-01 -3.452736720590834e-02
163337500.0000000000 7.764692464574796e-02 -4.520950524779752e-02 7.721495342930645e-02 -4.948582639006555e-02 7.243743951701934e-02 -3.520898688985837e-01 -6.207962973655881e-01 -1.825362924427028e-01
            7.712152679536670e-02 -4.952088723580941e-02 7.766551075437279e-02 -4.518760985597715e-02 -6.207953949261950e-01 -1.825435168002220e-01 7.247647281341783e-02 -3.521188108674328e-01
            7.243449093499377e-02 -3.521290137960893e-01 -6.208359589314129e-01 -1.825678936466784e-01 7.382230140579780e-02 -4.623894353447876e-02 7.959550213383883e-02 -5.041591821716870e-02
            -6.208140061452843e-01 -1.824745038341256e-01 7.249928329040629e-02 -3.520017834431313e-01 7.955234453182153e-02 -5.032671426615794e-02 7.388580571932971e-02 -4.625988319950757e-02
164170000.0000000000 4.539937798214838e-02 -3.329337362177529e-02 4.565406838106466e-02 -3.334817033902960e-02 -5.995382898324941e-02 -3.510706190288098e-01 -6.512683459906037e-01 4.772391512230427e-02
            4.567947363932760e-02 -3.346042535224916e-02 4.538429931254313e-02 -3.334740371431853e-02 -6.512392285625312e-01 4.765431492445890e-02 -5.997526182021676e-02 -3.510817805424786e-01
            -5.998982636845258e-02 -3.510655323650994e-01 -6.512508895776223e-01 4.775861132062954e-02 4.279149423349610e-02 -3.367413549180314e-02 4.745959390269665e-02 -3.436782776407998e-02
            -6.512179864493911e-01 4.770063463736420e-02 -5.995547858963243e-02 -3.511228496136957e-01 4.735370378699552e-02 -3.435940449710392e-02 4.277972799395854e-02 -3.374232516258650e-02
165002500.0000000000 2.977119538541146e-02 -2.341897848113980e-03 3.280454140843436e-02 2.654121373018908e-04 -1.796267749451543e-01 -3.001049948403640e-01 -5.960695295177171e-01 2.782777476084236e-01
            3.281793475785412e-02 7.894438031216782e-05 2.970627398094489e-02 -2.336585649353345e-03 -5.960221178410193e-01 2.782378194205535e-01 -1.797622948338511e-01 -3.000242039406620e-01
            -1.797208166671117e-01 -3.000704695271625e-01 -5.959809620421934e-01 2.782338443143491e-01 2.859392654859037e-02 -2.906045347456855e-03 3.437671738794145e-02 -6.167757467736372e-04
            -5.960790147000596e-01 2.781949708337981e-01 -1.797041334896239e-01 -3.000589435190845e-01 3.443904990948354e-02 -5.930150866872423e-04 2.854081460959900e-02 -2.874016646170739e-03
165835000.0000000000 3.939335336943281e-02 3.091428841880335e-02 4.596459837959084e-02 3.355044363628498e-02 -2.681767812157785e-01 -2.117358849131596e-01 -4.583373694321547e-01 4.742811933472641e-01
            4.602262404915554e-02 3.358109106716885e-02 3.931548750136402e-02 3.085433012696804e-02 -4.582243334029705e-01 4.743594277859995e-01 -2.681276823420862e-01 -2.117413676121101e-01
            -2.681463238954701e-01 -2.117226384933622e-01 -4.582617293121852e-01 4.743638977014458e-01 3.958570394652058e-02 2.936639294484191e-02 4.774606233714433e-02 3.271753963036998e-02
            -4.583234572327658e-01 4.743883088049400e-01 -2.681445861094958e-01 -2.116987495729321e-01 4.771325388788636e-02 3.272669645413287e-02 3.955632213354997e-02 2.943288232906893e-02
166667500.0000000000 6.853297491208372e-02 4.832391629062371e-02 7.763690257761442e-02 4.914275448795893e-02 -3.176798490926690e-01 -1.034373748391604e-01 -2.586661580327031e-01 6.054203838973593e-01
            7.762821240102122e-02 4.911221676872722e-02 6.853908727648342e-02 4.824307076957615e-02 -2.586586399617271e-01 6.054437451531637e-01 -3.176198556179093e-01 -1.034617897817616e-01
            -3.176751073997429e-01 -1.034879164328360e-01 -2.586605951252575e-01 6.053434225379742e-01 6.924164128720388e-02 4.555178132268328e-02 7.957131603726522e-02 4.781448215689470e-02
            -2.585840415767358e-01 6.054649740686529e-01 -3.177256799295184e-01 -1.034221099973175e-01 7.959164123867686e-02 4.785448353317075e-02 6.919770677144443e-02 4.551765813252295e-02
167500000.0000000000 1.012086529420981e-01 4.195419199890126e-02 1.107455682081280e-01 3.987731229524499e-02 -3.289932912887328e-01 1.085291778799834e-02 -2.844566568273890e-02 6.548523158656169e-01
            1.107370560038654e-01 3.990635871036239e-02 1.011534712026145e-01 4.196729943394261e-02 -2.843161904547226e-02 6.549435055245980e-01 -3.289753324623184e-01 1.088978198619189e-02
            -3.290358489951895e-01 1.088813604932420e-02 -2.831497693236436e-02 6.548217313397602e-01 1.015997643134335e-01 3.782528527642746e-02 1.123634488075479e-01 3.781185857380095e-02
            -2.837649828146538e-02 6.549258223960247e-01 -3.289853366443181e-01 1.078562366205224e-02 1.124420095773746e-01 3.789562792317518e-02 1.016268970228495e-01 3.794620700482069e-02
168332500.0000000000 1.211957057293635e-01 1.612712984867329e-02 1.291787739912693e-01 1.203859886881921e-02 -3.036363868876147e-01 1.219002764862731e-01 2.008794548298189e-01 6.217162852868192e-01
            1.292209981434399e-01 1.197415708288629e-02 1.211512123693508e-01 1.617094067800337e-02 2.008486286429882e-01 6.216069099014507e-01 -3.036387096520489e-01 1.218719516925319e-01
            -3.036358102738966e-01 1.219169356829159e-01 2.008629967030980e-01 6.216857451282726e-01 1.207656641121701e-01 1.133418941693098e-02 1.301897679508918e-01 9.137550094822113e-03
            2.008300511739307e-01 6.216093298902637e-01 -3.037114927849346e-01 1.218605477477276e-01 1.301833974355095e-01 9.179121726427861e-03 1.207771325951770e-01 1.134265197770671e-02
169165000.0000000000 1.193528074099026e-01 -1.635177279606906e-02 1.250183048629160e-01 -2.091060119877289e-02 -2.423529288979856e-01 2.198894462741283e-01 4.034699484010890e-01 5.138756168387144e-01
            1.250822176080402e-01 -2.095460018578974e-02 1.193827120178604e-01 -1.633734124252361e-02 4.034464424639633e-01 5.138350139761814e-01 -2.423019563120075e-01 2.198521963579874e-01
            -2.423018565102288e-01 2.198826514065719e-01 4.034881558448267e-01 5.139220498240703e-01 1.181685122968740e-01 -2.102159961408935e-02 1.247353148812431e-01 -2.399234611742985e-02
            4.035211991679724e-01 5.138339177079979e-01 -2.423267677139390e-01 2.198976843810155e-01 1.246927804799946e-01 -2.393652077490106e-02 1.181621580539902e-01 -2.106745023783384e-02
169997500.0000000000 9.648079763635348e-02 -3.986162762459994e-02 1.002549225197663e-01 -4.317702158821135e-02 -1.481726472761262e-01 2.918677598616881e-01 5.590385232682453e-01 3.439764948751036e-01
            1.003240116542764e-01 -4.323202262699361e-02 9.639996555672808e-02 -3.994061009323829e-02 5.589665026658289e-01 3.440952545299562e-01 -1.481955347503740e-01 2.919015901571245e-01
            -1.481541631975503e-01 2.918611916592992e-01 5.589873339237874e-01 3.440227835275337e-01 9.496950826585270e-02 -4.399552521151764e-02 9.851973182970369e-02 -4.557318559566331e-02
            5.589461410534676e-01 3.440419811745953e-01 -1.482534569411860e-01 2.919119314037904e-01 9.850413001361308e-02 -4.564406784117870e-02 9.494013269398648e-02 -4.399783918545447e-02
170830000.0000000000 6.280610187760600e-02 -4.241347234627296e-02 6.634380505013379e-02 -4.338038228905920e-02 -3.191605116290391e-02 3.239570182601755e-01 6.490036238777475e-01 1.283110270905120e-01
            6.628575986110966e-02 -4.340411344867931e-02 6.284567208300354e-02 -4.239497875203345e-02 6.489596947069319e-01 1.282822706840868e-01 -3.184316379481026e-02 3.240642838136480e-01
            -3.185703796407299e-02 3.240514807652050e-01 6.489083418706195e-01 1.283325131920492e-01 6.176848533115011e-02 -4.579177953659514e-02 6.391017825871802e-02 -4.443122412660847e-02
            6.488929426195867e-01 1.282827948350128e-01 -3.184823529257454e-02 3.240297797356240e-01 6.386836410430043e-02 -4.443800536387158e-02 6.173823621451690e-02 -4.581094863599096e-02
171662500.0000000000 3.563883940553136e-02 -2.094091827774653e-02 4.055897783948903e-02 -2.010570660019026e-02 8.723904395636804e-02 3.086420991369757e-01 6.577380449782794e-01 -1.103221683509622e-01
            4.057863302729642e-02 -2.004487271789095e-02 3.574654547875020e-02 -2.099902136597967e-02 6.577189497653320e-01 -1.102986050339261e-01 8.718552470504359e-02 3.087192787828176e-01
            8.714476879382334e-02 3.087376721114574e-01 6.577059275223590e-01 -1.103048260782073e-01 3.565871266887874e-02 -2.427758384135465e-02 3.835332573289194e-02 -1.944654700809462e-02
            6.577138251161626e-01 -1.102650566399231e-01 8.717715196267727e-02 3.086598363387706e-01 3.835445529554792e-02 -1.941885117091225e-02 3.562953875044927e-02 -2.421643419232676e-02
172495000.0000000000 3.031817264978632e-02 1.380430555333929e-02 3.761027138109446e-02 1.512686820213795e-02 1.879562468874668e-01 2.505474850512235e-01 5.778349545663314e-01 -3.395009050916512e-01
            3.763646619682826e-02 1.514471030745033e-02 3.030095031810470e-02 1.371731167148488e-02 5.778937558067232e-01 -3.394277688411701e-01 1.879168653577101e-01 2.505642162556253e-01
            1.879031617563724e-01 2.505496675964509e-01 5.778480067796997e-01 -3.394898704543226e-01 3.142675935714951e-02 9.783791256372425e-03 3.666857386450631e-02 1.682710640475952e-02
            5.778727112129481e-01 -3.394683903847769e-01 1.878649801345429e-01 2.505473308059267e-01 3.667358190076236e-02 1.682082437580591e-02 3.144307496541662e-02 9.721711777797607e-03
173327500.0000000000 5.000878155860051e-02 4.291011869972929e-02 5.950842907609569e-02 4.291673787066294e-02 2.568746268782402e-01 1.643334378907326e-01 4.183211793959833e-01 -5.236941229169277e-01
            5.947480076257989e-02 4.299869602025616e-02 5.000012909478441e-02 4.287987969995146e-02 4.182563441819819e-01 -5.236996174549874e-01 2.568894407974451e-01 1.642401526299999e-01
            2.568163069984353e-01 1.643340734232224e-01 4.183150190526628e-01 -5.236982955228445e-01 5.153358312652662e-02 3.750387965215247e-02 6.031955979548907e-02 4.466029142871555e-02
            4.182545321460451e-01 -5.237027132923565e-01 2.568377511005077e-01 1.642615676035868e-01 6.015590634339727e-02 4.465699260604423e-02 5.148015484162532e-02 3.746471776777797e-02
174160000.0000000000 8.361086348292057e-02 5.136966549130999e-02 9.410815709542197e-02 4.874297474733944e-02 2.910106654704615e-01 6.514750822928406e-02 2.043596286427039e-01 -6.355347723689787e-01
            9.418149165588328e-02 4.876189582369060e-02 8.376410322644207e-02 5.134499390298657e-02 2.044320339681759e-01 -6.355154471668364e-01 2.910529044443907e-01 6.522488888145550e-02
            2.910737599270434e-01 6.520286622546878e-02 2.043550415732700e-01 -6.355252830156767e-01 8.464182626772164e-02 4.442371384626637e-02 9.617335326486723e-02 4.945685857154654e-02
            2.043656033398843e-01 -6.354860839426464e-01 2.911087739825765e-01 6.517491183940098e-02 9.618344560336951e-02 4.944980954686762e-02 8.461712910283595e-02 4.450833069707853e-02
174992500.0000000000 1.140675645041285e-01 3.597771621711775e-02 1.238754462451882e-01 3.060112916747112e-02 2.923964510005287e-01 -3.670426315171627e-02 -3.129896208711603e-02 -6.635136303213625e-01
            1.238321629699772e-01 3.055494128020102e-02 1.142223585283851e-01 3.594602966427761e-02 -3.125619427080430e-02 -6.635085301561583e-01 2.923353846756322e-01 -3.673671620066542e-02
            2.924475114604070e-01 -3.667560534005190e-02 -3.126907001351854e-02 -6.636130390280019e-01 1.137902643103680e-01 2.828786786150507e-02 1.261210042687227e-01 2.965700781874185e-02
            -3.130703921256686e-02 -6.635956123664543e-01 2.922855318237794e-01 -3.675375528280098e-02 1.261560612468622e-01 2.971485862158297e-02 1.138130083982135e-01 2.831965465214477e-02
175825000.0000000000 1.274363934670537e-01 5.091535518585771e-03 1.348519563858439e-01 -2.193815897058936e-03 2.614668761504171e-01 -1.340490397845603e-01 -2.587407960695302e-01 -6.098398776681956e-01
            1.348584730240170e-01 -2.232612183222603e-03 1.274865096255529e-01 5.085039891875788e-03 -2.586620671018522e-01 -6.098353779625875e-01 2.615035659252071e-01 -1.340773381110731e-01
            2.614756110968764e-01 -1.341380602606728e-01 -2.587057105200352e-01 -6.098372145891805e-01 1.256740594049980e-01 -2.406830821775484e-03 1.363014296979536e-01 -4.580082127622516e-03
            -2.586713849886588e-01 -6.098237447998088e-01 2.614727191259335e-01 -1.340603708665884e-01 1.363264097380283e-01 -4.578800227333088e-03 1.257815526962767e-01 -2.416743177431391e-03
176657500.0000000000 1.179250950095111e-01 -2.712643580508769e-02 1.225274317678803e-01 -3.468348778115977e-02 1.983518292980237e-01 -2.176617707862487e-01 -4.539113314124650e-01 -4.836760284722346e-01
            1.225295126894412e-01 -3.476946619020852e-02 1.179972572098617e-01 -2.717097418510642e-02 -4.538525805986020e-01 -4.837838635482754e-01 1.982483374579284e-01 -2.176934499278615e-01
            1.982924649511982e-01 -2.177413284972677e-01 -4.538139691488137e-01 -4.837171804793878e-01 1.152263377117864e-01 -3.357009034860299e-02 1.224184098305169e-01 -3.755499183695268e-02
            -4.537731261359366e-01 -4.837414489079379e-01 1.982834370650289e-01 -2.177244070768892e-01 1.223435067226698e-01 -3.752608632467098e-02 1.152472478863525e-01 -3.358498840584660e-02
177490000.0000000000 8.979276006524184e-02 -4.570121366329117e-02 9.205299536354329e-02 -5.207786536224997e-02 1.067314083690716e-01 -2.744625193873337e-01 -5.967019327654334e-01 -2.982673915507088e-01
            9.207528959100157e-02 -5.213872383141002e-02 8.982616340681314e-02 -4.569462894378500e-02 -5.967040231567107e-01 -2.983025527939450e-01 1.065850934685736e-01 -2.744617373657702e-01
            1.066887839720322e-01 -2.744366588697012e-01 -5.966883838243262e-01 -2.982640233560037e-01 8.723478228865823e-02 -5.074528851950772e-02 9.034116594926767e-02 -5.438813855129813e-02
            -5.966658241457905e-01 -2.982831427108246e-01 1.067170831456900e-01 -2.744668070607997e-01 9.024825560068021e-02 -5.434809792741021e-02 8.718902988558112e-02 -5.074725281685624e-02
178322500.0000000000 5.609456755593661e-02 -4.117571528526322e-02 5.710909706782568e-02 -4.577266665848627e-02 -1.202673460947834e-03 -2.921563315395112e-01 -6.688826477600499e-01 -7.111536560638711e-02
            5.715379053671515e-02 -4.570906243959379e-02 5.607478629672294e-02 -4.112950879286735e-02 -6.688511608428144e-01 -7.108821741292720e-02 -1.265831413167917e-03 -2.921109980021652e-01
            -1.236938978631750e-03 -2.921146701615840e-01 -6.687988830117635e-01 -7.111932489607482e-02 5.460502410571302e-02 -4.519154215951330e-02 5.464995512321539e-02 -4.641118206705531e-02
            -6.688500352462181e-01 -7.112144629277829e-02 -1.131286733558943e-03 -2.921228194160982e-01 5.452666994756155e-02 -4.642083970665099e-02 5.472118338715478e-02 -4.519243990823067e-02
179155000.0000000000 3.422129795306305e-02 -1.514846110125955e-02 3.498312382932087e-02 -1.804422694735332e-02 -1.061332264421526e-01 -2.663047863236985e-01 -6.554661657199281e-01 1.717427164661569e-01
            3.504366740059532e-02 -1.808052875730218e-02 3.423277440538018e-02 -1.513281889460141e-02 -6.554133398654461e-01 1.717309667111034e-01 -1.060169501781322e-01 -2.663163194481377e-01
            -1.060569370680799e-01 -2.663752322806150e-01 -6.554500051855340e-01 1.717550709468292e-01 3.452655520357926e-02 -1.914619196394514e-02 3.301110832413053e-02 -1.689007457063487e-02
            -6.553927623415391e-01 1.717335671433984e-01 -1.060572957510020e-01 -2.663892563683644e-01 3.300769039874457e-02 -1.690236153502631e-02 3.453210045490700e-02 -1.914613592117799e-02
179987500.0000000000 3.594861021198555e-02 1.846967416977256e-02 3.700121902140272e-02 1.671870934254982e-02 -1.895401443716768e-01 -2.048915832636689e-01 -5.529758997692198e-01 3.959097757443620e-01
            3.708917425497563e-02 1.664457640832461e-02 3.597457314826755e-02 1.852320369888320e-02 -5.529997525506969e-01 3.959211360288111e-01 -1.895295583763932e-01 -2.047823296703173e-01
            -1.895506093377265e-01 -2.048404208359486e-01 -5.529994915613019e-01 3.958231797236066e-01 3.775107320116774e-02 1.311122152262566e-02 3.660308203826288e-02 1.879993176146377e-02
            -5.529375511294530e-01 3.958578672169786e-01 -1.895523897525295e-01 -2.048072948396099e-01 3.666180050297035e-02 1.865552371928432e-02 3.770279524009884e-02 1.307287158001631e-02
180820000.0000000000 5.975174224104216e-02 4.113155657337014e-02 6.092076373439721e-02 3.995690124397875e-02 -2.422369269850910e-01 -1.222656208129969e-01 -3.752321777847149e-01 5.665305818801150e-01
            6.095049697615940e-02 3.996266504854779e-02 5.975248681693769e-02 4.126871660363750e-02 -3.751848305059440e-01 5.665416236042842e-01 -2.421980298479159e-01 -1.222524935884402e-01
            -2.422984100165074e-01 -1.223063539710981e-01 -3.751939827165957e-01 5.665809260376303e-01 6.184580560153748e-02 3.360768179995810e-02 6.231926625438581e-02 4.150699241075013e-02
            -3.751742709705863e-01 5.665635436616181e-01 -2.422977871605102e-01 -1.221870244735302e-01 6.242110259728160e-02 4.152895003247644e-02 6.191536497671273e-02 3.359932880858761e-02
181652500.0000000000 9.182383111540275e-02 4.161547936654906e-02 9.253869832102722e-02 4.084133489045678e-02 -2.637517872532043e-01 -3.144620590268249e-02 -1.500903425607543e-01 6.601828349604506e-01
            9.251146413151577e-02 4.092929749225410e-02 9.192813423385467e-02 4.163241346801989e-02 -1.500754455565919e-01 6.601984405345938e-01 -2.638172598073028e-01 -3.143589780775248e-02
            -2.637908469873764e-01 -3.149551929386250e-02 -1.500841912171847e-01 6.601737678105913e-01 9.294270804560005e-02 3.203146401033555e-02 9.510689025544025e-02 4.079474894712918e-02
            -1.500784661410233e-01 6.602448643226044e-01 -2.638611989787555e-01 -3.142770933844913e-02 9.502949656097115e-02 4.082425584544892e-02 9.288926186198294e-02 3.201245633268866e-02
182485000.0000000000 1.154074162977473e-01 2.057916681400031e-02 1.150942409203202e-01 2.131780632439575e-02 -2.558978984765592e-01 5.955498294147370e-02 8.992519898993515e-02 6.687185820296516e-01
            1.150759607143900e-01 2.127754788484856e-02 1.154337717826165e-01 2.061292304149241e-02 8.996088154719212e-02 6.686628063659926e-01 -2.559214391222671e-01 5.959566925690357e-02
            -2.559780454149707e-01 5.956661438254206e-02 8.989369743542287e-02 6.687106533189136e-01 1.143789226651997e-01 1.008698166470709e-02 1.175041695722779e-01 1.918044925270673e-02
            8.990673917727461e-02 6.687026604400137e-01 -2.558693737440077e-01 5.959314906253906e-02 1.175361238191707e-01 1.922010972516925e-02 1.144194590983857e-01 1.000529202548889e-02
183317500.0000000000 1.190191029607633e-01 -1.075204639541547e-02 1.183223346363458e-01 -7.380520362468270e-03 -2.187158668470441e-01 1.440898071402192e-01 3.161708089683777e-01 5.954369580806634e-01
            1.183338775085898e-01 -7.402615281113059e-03 1.190996109726087e-01 -1.066515266243118e-02 3.161560709889883e-01 5.954851618339466e-01 -2.187329302352005e-01 1.440955290489570e-01
            -2.187054134763093e-01 1.441090383272884e-01 3.161807398038671e-01 5.955025271394320e-01 1.160033765369211e-01 -2.079609705606959e-02 1.192004935010844e-01 -1.112707397884418e-02
            3.161390086546282e-01 5.954359924385602e-01 -2.187012819593514e-01 1.441654382286539e-01 1.192251389180407e-01 -1.120970695531436e-02 1.159918885535698e-01 -2.082798669394289e-02
184150000.0000000000 1.008770826900157e-01 -3.710430168102139e-02 1.012511843501179e-01 -3.037406303913589e-02 -1.529307577900735e-01 2.122645796868737e-01 5.046296352417469e-01 4.502152314984212e-01
            1.012016165070585e-01 -3.042200885055800e-02 1.008298144946347e-01 -3.708734638932377e-02 5.046383877699846e-01 4.501977891690558e-01 -1.528317075426931e-01 2.121565474072805e-01
            -1.528089388894047e-01 2.122328277941678e-01 5.046007636286037e-01 4.502832205835017e-01 9.646531882085332e-02 -4.563808542361798e-02 9.976221829749614e-02 -3.447122662852618e-02
            5.046024757807196e-01 4.503236534959859e-01 -1.529027339889823e-01 2.122515554968237e-01 9.972973907470023e-02 -3.440231176654204e-02 9.648123610493307e-02 -4.561085478661885e-02
184982500.0000000000 6.873415948562252e-02 -4.514704085398979e-02 7.235629932952096e-02 -3.539600016857029e-02 -6.468996849637902e-02 2.516219493461704e-01 6.340506614451936e-01 2.471761724561704e-01
            7.239507518538253e-02 -3.537638355410440e-02 6.880303459857065e-02 -4.528408226548623e-02 6.340212489823658e-01 2.472009636763574e-01 -6.472221943828463e-02 2.515461282724947e-01
            -6.470035812536203e-02 2.516233640237048e-01 6.340412298636092e-01 2.472373184444752e-01 6.451574580668780e-02 -5.178263794210030e-02 6.884221768264863e-02 -3.814386853890211e-02
            6.340440843967103e-01 2.471994844880792e-01 -6.457420275333368e-02 2.515610211412312e-01 6.882533340950005e-02 -3.818995231823553e-02 6.455716412173691e-02 -5.180155662460978e-02
185815000.0000000000 3.847070419934149e-02 -2.957997146048084e-02 4.713052180698700e-02 -1.823491222516625e-02 3.169069484421290e-02 2.533380448492268e-01 6.851085527223446e-01 7.584829102683523e-03
            4.715796786286287e-02 -1.830696691004584e-02 3.851363048214397e-02 -2.957105806025815e-02 6.851070937933924e-01 7.527627669256388e-03 3.162240027555967e-02 2.532683571223524e-01
            3.172537913397968e-02 2.534332845801041e-01 6.851377231886614e-01 7.512171318437911e-03 3.577764701444520e-02 -3.483472039995900e-02 4.283089541884175e-02 -1.868081509279175e-02
            6.850994369507797e-01 7.534758911120846e-03 3.173135524144655e-02 2.533863705593935e-01 4.284781266281439e-02 -1.868221756083449e-02 3.587252117237354e-02 -3.477202327290178e-02
186647500.0000000000 2.609603833974474e-02 2.812960441854530e-03 4.066536734392402e-02 1.285098082781344e-02 1.181251763730670e-01 2.182665401794522e-01 6.455928370596056e-01 -2.380429779111809e-01
            4.066461622908223e-02 1.281297904664442e-02 2.615782016318840e-02 2.840863847886875e-03 6.456304739130638e-01 -2.380274823249479e-01 1.181200076028385e-01 2.183143193171711e-01
            1.181667273767405e-01 2.182935993718960e-01 6.456550632429211e-01 -2.380214299512020e-01 2.575390307128626e-02 -2.725603513452222e-03 3.725658159089035e-02 1.459023382168510e-02
            6.455473036393049e-01 -2.380376776724171e-01 1.180980010187344e-01 2.183358548223138e-01 3.729101963319140e-02 1.462304771129398e-02 2.572828228090475e-02 -2.709654622153389e-03
187480000.0000000000 3.836096608098174e-02 3.490903117411390e-02 5.768693749109861e-02 4.079693063110441e-02 1.815321850008898e-01 1.574015346704891e-01 5.180888820162253e-01 -4.527898063165973e-01
            5.761381258073966e-02 4.076433505429426e-02 3.833087887151809e-02 3.482877049302456e-02 5.181001324517234e-01 -4.528244481105534e-01 1.814909849465374e-01 1.573873915119552e-01
            1.814852951844815e-01 1.574143365414009e-01 5.181338542749622e-01 -4.528338293210615e-01 3.977702267089193e-02 2.744596249004219e-02 5.647623204424042e-02 4.361902222046709e-02
            5.180579069101404e-01 -4.528501129588777e-01 1.814752353225690e-01 1.573785618835694e-01 5.652432691072715e-02 4.366232494483962e-02 3.978081244501405e-02 2.742321455754276e-02
188312500.0000000000 6.792620817638767e-02 5.050436070292813e-02 8.958067210354377e-02 5.001154099452626e-02 2.179972232061891e-01 8.349329071009856e-02 3.225020937016422e-01 -6.049633091605684e-01
            8.946665533801096e-02 5.007100149443964e-02 6.789600771680986e-02 5.051409725578506e-02 3.225697865355160e-01 -6.049587313841800e-01 2.180190563409499e-01 8.344622342027383e-02
            2.179978711910470e-01 8.345970435125945e-02 3.225058140278586e-01 -6.049968040546789e-01 6.947394729601694e-02 3.995851285141332e-02 9.083127916366403e-02 5.219484350863633e-02
            3.225942393547996e-01 -6.049421080413969e-01 2.180749256605598e-01 8.345291953018266e-02 9.083486948350956e-02 5.215480906364646e-02 6.949539159964206e-02 3.999014477971796e-02
189145000.0000000000 9.914570565880247e-02 4.325745872909745e-02 1.196942598235730e-01 3.616302288471282e-02 2.294376088058646e-01 5.081585696041764e-03 8.931107719374348e-02 -6.763755376965973e-01
            1.197115252123531e-01 3.615474408261528e-02 9.917060383575796e-02 4.322875187045115e-02 8.932561483463752e-02 -6.763923281598023e-01 2.293417884489473e-01 5.009143963415774e-03
            2.293276805769252e-01 5.051831821773035e-03 8.926767856304883e-02 -6.763941522168487e-01 9.884213322967952e-02 2.984867665090927e-02 1.224254942060678e-01 3.612222440072482e-02
            8.940156351907351e-02 -6.764377182457670e-01 2.293703101953726e-01 5.071266838696793e-03 1.223597343968421e-01 3.603275524578648e-02 9.893372707516494e-02 2.988907946493260e-02
189977500.0000000000 1.174362120301854e-01 1.827711585292346e-02 1.338510305580367e-01 6.285453453959666e-03 2.161879380973047e-01 -7.290261247265357e-02 -1.508494987148730e-01 -6.632752634579071e-01
            1.338566878436609e-01 6.266728753439142e-03 1.173125106175192e-01 1.829802296324871e-02 -1.508352155191769e-01 -6.633567323903772e-01 2.160998793398251e-01 -7.297460511222173e-02
            2.160952251664057e-01 -7.287934474899477e-02 -1.509114153284193e-01 -6.633291327401722e-01 1.139146352343978e-01 3.443766811648196e-03 1.362684482812783e-01 3.311564387390368e-03
            -1.508777825846567e-01 -6.634245142371346e-01 2.161261539464055e-01 -7.289972513297709e-02 1.361632364604981e-01 3.332807122504282e-03 1.139082887310539e-01 3.481160050808741e-03
190810000.0000000000 1.148379848992339e-01 -1.165360769090305e-02 1.257493851922740e-01 -2.572998276312940e-02 1.769151936784744e-01 -1.441432652659065e-01 -3.713991940924797e-01 -5.707451691569655e-01
            1.257760044747666e-01 -2.569163539376181e-02 1.148020300630075e-01 -1.168017769814573e-02 -3.713996071069640e-01 -5.706599042923831e-01 1.768844215391356e-01 -1.440197372776961e-01
            1.768918920966960e-01 -1.440888086279609e-01 -3.713454569579015e-01 -5.706810935129627e-01 1.077322000342350e-01 -2.586556612376626e-02 1.257873786747457e-01 -3.105731304955580e-02
            -3.713655499838774e-01 -5.706842233199240e-01 1.769110199128991e-01 -1.440353116763850e-01 1.257148428489295e-01 -3.103999018089894e-02 1.077953611573770e-01 -2.583105871631370e-02
191642500.0000000000 9.299227369366962e-02 -3.211531680459782e-02 9.888623780127173e-02 -4.508402965574310e-02 1.126452434452316e-01 -1.979874697229375e-01 -5.489488520038257e-01 -4.082802611492584e-01
            9.888038507714421e-02 -4.513311134131293e-02 9.303931930354059e-02 -3.206911621584788e-02 -5.489335460117476e-01 -4.082642884318357e-01 1.126278753813386e-01 -1.979099779055141e-01
            1.126079662143971e-01 -1.979194056681977e-01 -5.489419585910216e-01 -4.082478399235847e-01 8.324984139548773e-02 -4.418518299757932e-02 9.529697509183123e-02 -5.101063469446306e-02
            -5.489371600778474e-01 -4.081704095294070e-01 1.126411744502949e-01 -1.979514959986045e-01 9.521200220036126e-02 -5.103885418483458e-02 8.326956307347562e-02 -4.424213374461922e-02
192475000.0000000000 6.277006804329090e-02 -3.231312402908829e-02 6.552457116962851e-02 -4.215462611282381e-02 3.114108644288963e-02 -2.229590973402085e-01 -6.618637059402821e-01 -1.913011171196352e-01
            6.555698600827850e-02 -4.214787937082889e-02 6.276967615666670e-02 -3.228702801156447e-02 -6.618687221950528e-01 -1.912788515372163e-01 3.111051415325344e-02 -2.229097660274884e-01
            3.119165385922954e-02 -2.229167531624202e-01 -6.619128982123091e-01 -1.913165132168960e-01 5.206748042666402e-02 -4.112309690234900e-02 5.831442736238577e-02 -4.640152974039586e-02
            -6.619194815033026e-01 -1.912138836102316e-01 3.114277985803129e-02 -2.230005174920654e-01 5.828343883784734e-02 -4.626771408290151e-02 5.206685434732234e-02 -4.114473336609866e-02
193307500.0000000000 4.022695160562018e-02 -1.104007789058139e-02 4.277265509655530e-02 -1.750197726893716e-02 -5.215656645108862e-02 -2.132343096854971e-01 -6.909269550379585e-01 5.614644413567375e-02
            4.280239533994679e-02 -1.758519603554516e-02 4.029199102272366e-02 -1.106511222780902e-02 -6.909327993475360e-01 5.625862255645402e-02 -5.217426999915874e-02 -2.133031542523181e-01
            -5.218307235227407e-02 -2.132655070794784e-01 -6.909328675488846e-01 5.620112494924374e-02 3.050722790555966e-02 -1.702403548108380e-02 3.325891346833591e-02 -1.789711159934868e-02
            -6.909226617571045e-01 5.622729473070398e-02 -5.220053688743317e-02 -2.133129981960196e-01 3.323031131936923e-02 -1.780618911610889e-02 3.051702632950094e-02 -1.712589073812726e-02
194140000.0000000000 3.866899192445263e-02 2.031651370029073e-02 4.299763631314163e-02 1.598443836691699e-02 -1.213361412443187e-01 -1.737227388176026e-01 -6.268632261800656e-01 2.999118393732263e-01
            4.294532281682645e-02 1.595532777543285e-02 3.867861497076060e-02 2.040111074547103e-02 -6.268964661431276e-01 2.999432294277279e-01 -1.213176808430608e-01 -1.736735824688702e-01
            -1.213583349259867e-01 -1.736303801208892e-01 -6.269024052480668e-01 2.998005701664769e-01 3.121415055981367e-02 1.571349349075029e-02 3.382883452686478e-02 2.027249582000142e-02
            -6.268375760932011e-01 2.999266313964562e-01 -1.213580011879664e-01 -1.736499207575551e-01 3.370858657346810e-02 2.023318889608887e-02 3.113889667594833e-02 1.578448436400357e-02
194972500.0000000000 5.911910357327639e-02 4.453341200473585e-02 6.584522828714436e-02 3.990184542852162e-02 -1.678647076658147e-01 -1.161032671634452e-01 -4.778613523776880e-01 5.027007613362402e-01
            6.588154060478901e-02 3.990599122440422e-02 5.910694078625403e-02 4.446723368585116e-02 -4.778563201700061e-01 5.027194596990726e-01 -1.678340968308923e-01 -1.161111354875154e-01
            -1.677605415989478e-01 -1.161907853846837e-01 -4.778831345803937e-01 5.026734926671831e-01 5.390230097202124e-02 3.929936490435269e-02 5.937679021174661e-02 4.790480909095923e-02
            -4.778953228883999e-01 5.026938443480123e-01 -1.677960166216741e-01 -1.161709127379683e-01 5.933081280557538e-02 4.787463727280925e-02 5.394029512096338e-02 3.931385455450639e-02
195805000.0000000000 9.030635066246455e-02 4.874614869615548e-02 9.833949775185807e-02 4.180878158847113e-02 -1.915119664239571e-01 -5.124007141286634e-02 -2.681393752822236e-01 6.361127102240608e-01
            9.827366021554973e-02 4.184593874381391e-02 9.028943103789820e-02 4.871950349749288e-02 -2.681065809376484e-01 6.360549477701607e-01 -1.914849579460031e-01 -5.119939045778744e-02
            -1.915745616507041e-01 -5.120440780215662e-02 -2.681300615718222e-01 6.361122072124931e-01 8.604603524245309e-02 4.138733587259125e-02 9.598557420201666e-02 5.148569196212515e-02
            -2.681327078219291e-01 6.361110893263856e-01 -1.915209543752484e-01 -5.122696218177552e-02 9.585973502234234e-02 5.139469929833874e-02 8.596224685134232e-02 4.145103003397302e-02
196637500.0000000000 1.161521199266435e-01 3.177545027267786e-02 1.235172913786895e-01 2.174841312410324e-02 -1.948058484886643e-01 1.580790294599436e-02 -2.886476872838867e-02 6.864405865377650e-01
            1.235072976437155e-01 2.177979980974581e-02 1.161773084576951e-01 3.180346552004296e-02 -2.881979462453421e-02 6.865754625102202e-01 -1.947965062723479e-01 1.579633610878351e-02
            -1.947600369281126e-01 1.574873472525513e-02 -2.890135776227375e-02 6.865658950350627e-01 1.108845039568795e-01 2.229799347036819e-02 1.250563364617291e-01 3.076558562074423e-02
            -2.889544667777633e-02 6.865980699517665e-01 -1.948191592000945e-01 1.572297411025078e-02 1.251918678567651e-01 3.074092920862732e-02 1.108430881252799e-01 2.227556271344317e-02
197470000.0000000000 1.250382680651859e-01 2.465811900902224e-03 1.292669820388697e-01 -9.813139702066022e-03 -1.770537102050657e-01 8.136990081885523e-02 2.104571532884790e-01 6.528573245002387e-01
            1.292730956243375e-01 -9.814751530151414e-03 1.250362365882143e-01 2.446076678562500e-03 2.105250733571134e-01 6.528273177799958e-01 -1.770562596913025e-01 8.145430672155951e-02
            -1.770690448440406e-01 8.136157114730376e-02 2.105136164473168e-01 6.528246993885076e-01 1.171399396406158e-01 -8.055350308373101e-03 1.337941935094041e-01 -3.277645734620582e-03
            2.105207551296734e-01 6.528966790866161e-01 -1.770852558279444e-01 8.138472732496023e-02 1.338377222475498e-01 -3.259758279946761e-03 1.172172818070223e-01 -8.119117977773250e-03
198302500.0000000000 1.127967668821168e-01 -2.552987449330197e-02 1.128221622134730e-01 -3.787364146339574e-02 -1.365459978690523e-01 1.392145647148977e-01 4.244723610203749e-01 5.408646992251614e-01
            1.128085896111351e-01 -3.779889112905942e-02 1.128328776555042e-01 -2.548065647739121e-02 4.244224307253738e-01 5.409258671550883e-01 -1.365330509755550e-01 1.392020970741626e-01
            -1.365217804187924e-01 1.392540755403816e-01 4.245597055918590e-01 5.408138674049248e-01 1.019761330457858e-01 -3.521751581309158e-02 1.184527178064157e-01 -3.457371450693535e-02
            4.244141350497999e-01 5.408574783451136e-01 -1.365124180605111e-01 1.391989290207815e-01 1.185429296453091e-01 -3.455286757512987e-02 1.019391617632264e-01 -3.518127107138062e-02
199135000.0000000000 8.501059772563255e-02 -3.868434506311450e-02 8.133990407534214e-02 -4.864352351744913e-02 -7.520782498186784e-02 1.786938267475307e-01 5.897001373235062e-01 3.611999632638691e-01
            8.138384088214376e-02 -4.868607990429573e-02 8.508093801946395e-02 -3.872880918184089e-02 5.896213740828181e-01 3.611780871828758e-01 -7.523608586171172e-02 1.786852882195811e-01
            -7.519450605254493e-02 1.787118984950092e-01 5.896107241811979e-01 3.611247051857203e-01 7.211865218200218e-02 -4.573360295165372e-02 8.623899018760973e-02 -4.821323126311984e-02
            5.895535040513320e-01 3.612511483222773e-01 -7.516310981457283e-02 1.786933945218757e-01 8.628201935495289e-02 -4.830561764422186e-02 7.206135103111398e-02 -4.584799128583696e-02
199967500.0000000000 5.529923160733305e-02 -2.964905153119030e-02 4.971490618799574e-02 -3.566808494311736e-02 -2.766035528107186e-03 1.900509669457476e-01 6.836900824720913e-01 1.312860130440960e-01
            4.983429338313675e-02 -3.562810192965540e-02 5.535042688389398e-02 -2.970081540343586e-02 6.836900682186458e-01 1.311748971368258e-01 -2.690495777555167e-03 1.900858538795525e-01
            -2.841294425810064e-03 1.901027399159713e-01 6.836715372102775e-01 1.311565631203541e-01 4.196487791609365e-02 -3.333958376024646e-02 5.268101159954611e-02 -3.675810634912966e-02
            6.836543786219809e-01 1.312771650898978e-01 -2.766520759513242e-03 1.900537572538655e-01 5.262150355516354e-02 -3.675016917901385e-02 4.199750045812239e-02 -3.330043912762710e-02
200800000.0000000000 3.963992092419017e-02 -2.515931578731239e-03 3.480782960839151e-02 -4.169268592564982e-03 6.566149276341003e-02 1.713104274461146e-01 6.887675930007842e-01 -1.212841247474733e-01
            3.479745107606586e-02 -4.196684110599155e-03 3.959741531516341e-02 -2.566001783620848e-03 6.886899304075966e-01 -1.212729472555964e-01 6.563077579856570e-02 1.713342622036750e-01
            6.565186115374907e-02 1.713520504266310e-01 6.887930069568866e-01 -1.212478375991357e-01 2.799492800980181e-02 -2.950768153936602e-03 3.566287039586118e-02 -5.301487763425151e-03
            6.887219123214688e-01 -1.212208217407471e-01 6.569532994356272e-02 1.713751000936272e-01 3.573912748948767e-02 -5.336956655564841e-03 2.785792508798501e-02 -3.021504289646893e-03
201632500.0000000000 4.706764197038238e-02 2.801982803901464e-02 4.510552003718153e-02 2.915563550565572e-02 1.172847904460690e-01 1.305016510572516e-01 6.002005915768608e-01 -3.594110466920242e-01
            4.515561889808307e-02 2.924794057291676e-02 4.710908867862290e-02 2.797487158426637e-02 6.002928390051745e-01 -3.593981407543895e-01 1.172468750241371e-01 1.305157395505866e-01
            1.172940728832168e-01 1.305525560530937e-01 6.002554443662103e-01 -3.593514910091559e-01 3.825865626002294e-02 2.924081469820091e-02 4.480592174373995e-02 2.920801612323188e-02
            6.002315934765119e-01 -3.594152307949963e-01 1.172689751413768e-01 1.305101513824949e-01 4.482596883784955e-02 2.921055777611107e-02 3.821841781606023e-02 2.925268383637380e-02
202465000.0000000000 7.323714776527594e-02 4.496565661610154e-02 7.489054171896740e-02 4.669205870164880e-02 1.484677575787696e-01 7.913668864187784e-02 4.317396111620435e-01 -5.472222936468981e-01
            7.495777921350404e-02 4.683944902278551e-02 7.324741111390634e-02 4.496965244911062e-02 4.316806863660726e-01 -5.471458497459335e-01 1.483944160876865e-01 7.899451301976375e-02
            1.484524130280330e-01 7.919058845433211e-02 4.317200714610364e-01 -5.471956000160306e-01 6.737749006112741e-02 4.602175908505974e-02 7.452232091074004e-02 4.819550429807392e-02
            4.317122412248751e-01 -5.471968386414526e-01 1.483931409558468e-01 7.907382583163654e-02 7.439474764611102e-02 4.816447835177533e-02 6.739947503552085e-02 4.594406683650500e-02
203297500.0000000000 1.035664795318033e-01 4.003920200792354e-02 1.082414055492211e-01 4.015617062282124e-02 1.617504105943258e-01 2.458867438741531e-02 2.106244004449309e-01 -6.605430896531054e-01
            1.082284998950757e-01 4.012323305553749e-02 1.036027006529396e-01 4.008032412516424e-02 2.105830860804139e-01 -6.605421013601125e-01 1.617771720032314e-01 2.463016211852228e-02
            1.617598693161998e-01 2.454247573610433e-02 2.105600576693610e-01 -6.604786375671456e-01 9.971138787360570e-02 3.946609349488238e-02 1.085439680152972e-01 4.251331388105770e-02
            2.106454389810021e-01 -6.604754419221301e-01 1.617339876149796e-01 2.458104067704689e-02 1.085369349829857e-01 4.257069679651845e-02 9.961614032855994e-02 3.941613019868247e-02
204130000.0000000000 1.230736120209538e-01 1.664548033083283e-02 1.286490586578634e-01 1.378664577114927e-02 1.588711839954130e-01 -3.061099717805206e-02 -3.227355598462472e-02 -6.898244482973634e-01
            1.286383434930149e-01 1.364723024689220e-02 1.230374411015370e-01 1.663861092899635e-02 -3.225105789943820e-02 -6.898603062297535e-01 1.588853509197910e-01 -3.065924708548209e-02
            1.588961074224314e-01 -3.060764047621999e-02 -3.223493065633408e-02 -6.897118743076301e-01 1.195345367895834e-01 1.408392378822550e-02 1.302697511943872e-01 1.642669470557872e-02
            -3.225475378492509e-02 -6.897668491341029e-01 1.588785048825026e-01 -3.064290493402086e-02 1.301563218355655e-01 1.640872004369386e-02 1.195634349647465e-01 1.407744771798401e-02
204962500.0000000000 1.227708306580551e-01 -1.384135140031008e-02 1.270499476154597e-01 -1.950563671393698e-02 1.383368891944449e-01 -8.391997160185952e-02 -2.688719073421405e-01 -6.357402138439143e-01
            1.270779703355982e-01 -1.953512190763698e-02 1.228063659356667e-01 -1.386545699736545e-02 -2.689010332060702e-01 -6.357833726316180e-01 1.383664014010691e-01 -8.392299575362994e-02
            1.383626765885554e-01 -8.399333399164569e-02 -2.688812808462991e-01 -6.357288607406927e-01 1.184323600955108e-01 -1.771571450768481e-02 1.298886727936182e-01 -1.723660807983735e-02
            -2.687659303724164e-01 -6.357791993685500e-01 1.384189206179225e-01 -8.391706337709605e-02 1.298926250682843e-01 -1.727109953801133e-02 1.184305315468942e-01 -1.771329143674193e-02
205795000.0000000000 1.026544782065972e-01 -3.721185109263894e-02 1.040800576807951e-01 -4.421438087178862e-02 9.830287320566204e-02 -1.285175484896098e-01 -4.743185582192104e-01 -5.049641396254531e-01
            1.041558306115667e-01 -4.414117909722935e-02 1.026190847039809e-01 -3.720046470206772e-02 -4.743709524555483e-01 -5.048923292625116e-01 9.834985384514129e-02 -1.284946301181441e-01
            9.835263694846814e-02 -1.284136562842860e-01 -4.743453390882967e-01 -5.049139407708856e-01 9.689576360944038e-02 -4.105233782694244e-02 1.077766545753269e-01 -4.285139299476424e-02
            -4.743271851275005e-01 -5.049938117922708e-01 9.836863610806174e-02 -1.284502035235951e-01 1.077942378832791e-01 -4.278639098372210e-02 9.695718022709032e-02 -4.106260662315699e-02
206627500.0000000000 7.136025214661826e-02 -4.178247162953060e-02 6.997702302500730e-02 -4.789604283705626e-02 4.213168406090194e-02 -1.542631141561240e-01 -6.248716617554968e-01 -3.091055128048181e-01
            6.997705949282576e-02 -4.781913638011269e-02 7.147945034204116e-02 -4.181319434354353e-02 -6.248257618698985e-01 -3.091115741415840e-01 4.219455828676758e-02 -1.542632788755759e-01
            4.215592177963878e-02 -1.542715862209557e-01 -6.247796077440830e-01 -3.090487611240337e-01 6.513357135753034e-02 -4.450111496616147e-02 7.391223287979692e-02 -4.757677584770773e-02
            -6.248813148487358e-01 -3.090692610965210e-01 4.214715348671860e-02 -1.542078510643754e-01 7.402485212472079e-02 -4.763110566955690e-02 6.512761707106512e-02 -4.448479069711912e-02
207460000.0000000000 4.465511620818424e-02 -2.399869095317928e-02 4.145001008301312e-02 -2.765997678432141e-02 -1.910474754177244e-02 -1.540471254738489e-01 -6.979865369483024e-01 -6.846547494069469e-02
            4.146605683411492e-02 -2.765818423523215e-02 4.462409003797446e-02 -2.401398831745793e-02 -6.979920511806608e-01 -6.846347655903466e-02 -1.908055219627687e-02 -1.540741502774313e-01
            -1.909799170713110e-02 -1.540586206217452e-01 -6.980134117879909e-01 -6.842194283051101e-02 3.914842592431405e-02 -2.527911367720103e-02 4.550612378979383e-02 -2.843519670282131e-02
            -6.980177034031912e-01 -6.847354404351259e-02 -1.898837413517073e-02 -1.540951021979393e-01 4.552233440589426e-02 -2.844440801083348e-02 3.909456670863002e-02 -2.529426329846051e-02
208292500.0000000000 3.680571466459621e-02 7.525591630619291e-03 3.353423146665133e-02 6.731810920731723e-03 -7.158940053306645e-02 -1.296037371974110e-01 -6.784535947513773e-01 1.855307253784869e-01
            3.364319598065359e-02 6.732570511061998e-03 3.682070622884562e-02 7.477662810363223e-03 -6.784485377557774e-01 1.855592364580992e-01 -7.158900979521160e-02 -1.295107734628977e-01
            -7.154865486437048e-02 -1.296428094584804e-01 -6.784532816608865e-01 1.855370428470975e-01 3.325278018734869e-02 6.844749062824120e-03 3.762850556893223e-02 4.967065736990689e-03
            -6.784623750735884e-01 1.855032821152289e-01 -7.155945906740192e-02 -1.295368047542143e-01 3.765116894841541e-02 4.932830171700829e-03 3.322931059052923e-02 6.880547371298238e-03
209125000.0000000000 5.250935623319535e-02 3.563842945031342e-02 5.076181205755723e-02 3.727252958504308e-02 -1.068681000065448e-01 -9.062130026343845e-02 -5.667428161961326e-01 4.146532884978879e-01
            5.079984574150825e-02 3.721385833050829e-02 5.244501997920885e-02 3.565517778705496e-02 -5.667960470084568e-01 4.146945400374737e-01 -1.068591951440917e-01 -9.067707980260242e-02
            -1.067973650246418e-01 -9.060668737528114e-02 -5.667658268325899e-01 4.146533236441616e-01 5.113099043803050e-02 3.414696868011206e-02 5.472947024297441e-02 3.419310593353155e-02
            -5.667911633169364e-01 4.146633058276395e-01 -1.068245444866639e-01 -9.071114659682129e-02 5.462287625319224e-02 3.427323392357311e-02 5.112546452650485e-02 3.412413769119685e-02
209957500.0000000000 8.244848030646390e-02 4.581059330376336e-02 8.299028616736169e-02 4.814926555636811e-02 -1.251561589397296e-01 -4.718757723578747e-02 -3.814841820672717e-01 5.857061815215981e-01
            8.307840349979537e-02 4.813612604708901e-02 8.234644692930601e-02 4.574940247515788e-02 -3.815025693346694e-01 5.857072327764817e-01 -1.250905679270005e-01 -4.712850017668108e-02
            -1.252172865238838e-01 -4.712692182357082e-02 -3.814037306830681e-01 5.857542683258672e-01 8.249073351579353e-02 4.194316446220719e-02 8.644894316398352e-02 4.360742536084709e-02
            -3.815166419616327e-01 5.857227913514137e-01 -1.250970758981986e-01 -4.708551015187566e-02 8.634332843985923e-02 4.366585800907806e-02 8.249553509903959e-02 4.200617551151223e-02
210790000.0000000000 1.107982779115367e-01 3.383390112108628e-02 1.134283317486040e-01 3.560843555463399e-02 -1.301259542002181e-01 -3.223970003109541e-03 -1.515734032528354e-01 6.788111860698534e-01
            1.134513671797165e-01 3.562232491650320e-02 1.109216579432514e-01 3.377631783313065e-02 -1.514723315967552e-01 6.786536709269814e-01 -1.300770302762317e-01 -3.166022077498090e-03
            -1.300382200300967e-01 -3.221997022344675e-03 -1.514873319931881e-01 6.787159973230490e-01 1.106618968567343e-01 2.691080691559167e-02 1.155232671794714e-01 2.950423128558017e-02
            -1.514976141117089e-01 6.787328434325816e-01 -1.300148307235690e-01 -3.211048030122003e-03 1.155395791117320e-01 2.946988384316399e-02 1.106903958906116e-01 2.694726009101472e-02
211622500.0000000000 1.242363859726389e-01 6.695956076902678e-03 1.277930071171804e-01 7.086868268947856e-03 -1.225098665983962e-01 4.050392971868862e-02 9.334356448090074e-02 6.871646466285689e-01
            1.277789578494395e-01 7.011017378344457e-03 1.242649517882592e-01 6.763215406319955e-03 9.334195857333245e-02 6.872057451694350e-01 -1.225343921274735e-01 4.053974364059944e-02
            -1.225253869448786e-01 4.054667680991667e-02 9.331089276079495e-02 6.872598702140258e-01 1.221493313323351e-01 -2.701188579698015e-03 1.278173213076164e-01 -3.276336849137173e-04
            9.329018389821631e-02 6.872154080663212e-01 -1.225057710137392e-01 4.055539695589606e-02 1.278320043150131e-01 -3.482434885061376e-04 1.221377951803375e-01 -2.677436029929411e-03
212455000.0000000000 1.168783335459659e-01 -2.236121208929448e-02 1.202201588165413e-01 -2.336260289108741e-02 -1.001646859846731e-01 8.143874471951704e-02 3.259229266008661e-01 6.130363173966296e-01
            1.202196229742824e-01 -2.327098728762221e-02 1.168567485450938e-01 -2.242915211620723e-02 3.258645502009438e-01 6.130003616323230e-01 -1.002179818329786e-01 8.149464722247041e-02
            -1.001939104729817e-01 8.145348693240449e-02 3.258119388089842e-01 6.130413926898781e-01 1.115809799884121e-01 -3.291196698786496e-02 1.173760805228392e-01 -3.132709748386119e-02
            3.259042282132144e-01 6.130034569766010e-01 -1.001009158067349e-01 8.153610880186433e-02 1.173563634703799e-01 -3.124525343026856e-02 1.116931984747355e-01 -3.291583505898962e-02
213287500.0000000000 9.206801686641156e-02 -3.965175115798249e-02 9.461632553315870e-02 -4.106101399799287e-02 -6.201507723351975e-02 1.124940229295912e-01 5.212407693071376e-01 4.634410309636641e-01
            9.467171711094084e-02 -4.104538132664701e-02 9.209136704166850e-02 -3.969962629280234e-02 5.212119565843050e-01 4.633725691055403e-01 -6.208450761036394e-02 1.124575994422778e-01
            -6.208192367806135e-02 1.124687388594132e-01 5.212245415752361e-01 4.634477220196622e-01 8.368348891937008e-02 -4.931810212195311e-02 8.833546950308044e-02 -4.817884343621080e-02
            5.213073321614340e-01 4.634078190038585e-01 -6.201903321510267e-02 1.124397818985663e-01 8.833287562766222e-02 -4.822493889726234e-02 8.361335387303737e-02 -4.929233873136599e-02
214120000.0000000000 6.153638543751257e-02 -3.603007032061907e-02 6.367383360400579e-02 -3.689921552984649e-02 -1.333653910280819e-02 1.248577648992920e-01 6.548357547396001e-01 2.521619106886149e-01
            6.370023040121749e-02 -3.683634997423024e-02 6.161194568092757e-02 -3.605403815786673e-02 6.548440859578277e-01 2.521055302705597e-01 -1.334306075269568e-02 1.247909971470467e-01
            -1.338791529027612e-02 1.248161946025193e-01 6.548269733904114e-01 2.520574480652300e-01 5.105166568819058e-02 -4.318711393584593e-02 5.411676288544630e-02 -4.155910336441552e-02
            6.548419309413074e-01 2.520354185464241e-01 -1.338920442188092e-02 1.248485988725131e-01 5.423356266457212e-02 -4.149206811404665e-02 5.109153562213717e-02 -4.316184861250370e-02
214952500.0000000000 4.137447485779596e-02 -1.236267596204039e-02 4.379901978637023e-02 -1.239407667330386e-02 3.434415610556613e-02 1.148758230033291e-01 7.048666592775821e-01 3.010913968678856e-03
            4.380289094138950e-02 -1.236406973033620e-02 4.140000512174577e-02 -1.229929766820130e-02 7.048458871426403e-01 3.000280752866646e-03 3.431766468016502e-02 1.148155736769057e-01
            3.429435951345890e-02 1.148991218587267e-01 7.048140114859437e-01 3.085342385042899e-03 3.067234191141550e-02 -1.644496314672793e-02 3.252009549538722e-02 -1.303954709813084e-02
            7.048032278446167e-01 2.965245825945841e-03 3.433480713039675e-02 1.148498843095550e-01 3.250735614238292e-02 -1.302266882811865e-02 3.064731715244039e-02 -1.652513030459941e-02
215785000.0000000000 4.289966291519248e-02 1.882747737902523e-02 4.642527913453511e-02 1.915751334964141e-02 6.992605101989349e-02 8.786299173929157e-02 6.598116588434896e-01 -2.488958175293682e-01
            4.652842123007625e-02 1.915321583594923e-02 4.283197719462665e-02 1.881491388053619e-02 6.597687558019169e-01 -2.488917821637182e-01 7.000727968975730e-02 8.790766030864103e-02
            6.993168946068665e-02 8.784847407860198e-02 6.598736454390355e-01 -2.489162953983255e-01 3.377919877901403e-02 1.706521307022448e-02 3.546193200048615e-02 2.315882764108569e-02
            6.598724887286598e-01 -2.488612045747519e-01 7.001995266429356e-02 8.788991946703749e-02 3.543052911458824e-02 2.322183576890259e-02 3.373091650936087e-02 1.703922063610919e-02
216617500.0000000000 6.495447553063308e-02 4.045774012664637e-02 7.020601017567207e-02 3.988750204268002e-02 8.988725642649320e-02 5.416306095761989e-02 5.263024759090573e-01 -4.657491900058566e-01
            7.017639841979198e-02 3.995864371951177e-02 6.501495878685214e-02 4.046743970137502e-02 5.262772924919176e-01 -4.656240238391815e-01 8.992232963386232e-02 5.406390253433736e-02
            8.996035129041963e-02 5.404525442846245e-02 5.262834245776987e-01 -4.656514440303290e-01 5.842342144614300e-02 3.917813038896138e-02 6.140789832529454e-02 4.789512585912159e-02
            5.263821520645062e-01 -4.656757624708587e-01 8.985705978849076e-02 5.407195638555263e-02 6.146395358965342e-02 4.797000353683469e-02 5.834079709700733e-02 3.917788499510846e-02
217450000.0000000000 9.529469186119580e-02 4.163473158305529e-02 1.015675805187712e-01 3.884350608219808e-02 9.738646659822889e-02 2.042660016137384e-02 3.267116765188085e-01 -6.178279282175733e-01
            1.014985981635655e-01 3.894097239792751e-02 9.533422712996584e-02 4.162109601250819e-02 3.268095673234391e-01 -6.178696566037319e-01 9.738519873728728e-02 2.044021366985977e-02
            9.740226473957606e-02 2.040805056756710e-02 3.267936691447865e-01 -6.177943530126505e-01 9.062062802707711e-02 3.900494871083426e-02 9.648573476559681e-02 4.950400802762042e-02
            3.268049619337443e-01 -6.178745136240972e-01 9.749857175835774e-02 2.039958346261306e-02 9.652813653654048e-02 4.950445930873242e-02 9.062048349638564e-02 3.899237429855613e-02
218282500.0000000000 1.184890395948332e-01 2.282846151952326e-02 1.239663453755932e-01 1.731212219357861e-02 9.624764844357488e-02 -1.221319258307880e-02 9.046732704251477e-02 -6.898756392565142e-01
            1.239940459001462e-01 1.726255171272478e-02 1.184718291138285e-01 2.278851513778830e-02 9.052404198594192e-02 -6.898064474072076e-01 9.618937203873182e-02 -1.221557993547868e-02
            9.622693555811353e-02 -1.219763097340076e-02 9.050415200362659e-02 -6.898452709160231e-01 1.140903767981859e-01 1.790802488773600e-02 1.232226163781271e-01 2.852396320382676e-02
            9.051017579375063e-02 -6.899038454892314e-01 9.623518590292821e-02 -1.215083299725500e-02 1.233096604343341e-01 2.855265973079139e-02 1.141071211215803e-01 1.793448893121297e-02
219115000.0000000000 1.237783870218523e-01 -6.164100763241010e-03 1.268350303885747e-01 -1.396259200204118e-02 8.585838027569355e-02 -4.424834516712441e-02 -1.539340145780259e-01 -6.776350849085689e-01
            1.268495679010755e-01 -1.402207940043130e-02 1.237753411860730e-01 -6.075295560213024e-03 -1.538934422304747e-01 -6.775711644080584e-01 8.585648441558272e-02 -4.427358954368689e-02
            8.591059279990944e-02 -4.425408423948771e-02 -1.539317215162892e-01 -6.775890116397704e-01 1.177778374314801e-01 -1.301247202040536e-02 1.299088782836323e-01 -3.791171969063071e-03
            -1.539980078805482e-01 -6.776337330897424e-01 8.587890787845713e-02 -4.428110939335330e-02 1.299196772102401e-01 -3.854945241460198e-03 1.177800906267181e-01 -1.299004253758749e-02
219947500.0000000000 1.089205147767052e-01 -3.162409288416370e-02 1.081460220817818e-01 -4.008078986925696e-02 6.349559513475361e-02 -7.281620912184515e-02 -3.803372548838836e-01 -5.836340895289954e-01
            1.082160106880047e-01 -4.010877215662943e-02 1.089488748170154e-01 -3.157135002307794e-02 -3.803357409200377e-01 -5.835769009183830e-01 6.353461834459619e-02 -7.281852111934239e-02
            6.349592709593264e-02 -7.288112854872232e-02 -3.803540246840700e-01 -5.836243773876307e-01 1.001783369561809e-01 -3.888798000041236e-02 1.142118164431650e-01 -3.238916460502164e-02
            -3.803784022029775e-01 -5.836250557702102e-01 6.356257905028111e-02 -7.285989539927822e-02 1.141347132735689e-01 -3.241840035753529e-02 1.002030093561764e-01 -3.895375132887523e-02
220780000.0000000000 8.070610362479921e-02 -4.109295281037935e-02 7.609085556461868e-02 -4.800833811458979e-02 2.953140474683227e-02 -9.075975018701800e-02 -5.633534969733501e-01 -4.160434285905965e-01
            7.600382297026824e-02 -4.799663258045383e-02 8.063465560975336e-02 -4.106745071271099e-02 -5.633157636635411e-01 -4.159866887277253e-01 2.949806321353399e-02 -9.070599008849937e-02
            2.953792043513840e-02 -9.075303434613244e-02 -5.632881654894555e-01 -4.160505910621544e-01 6.923626199310079e-02 -4.694480921677247e-02 8.350341895470220e-02 -4.338776482777889e-02
            -5.634098744963912e-01 -4.160109320045355e-01 2.949817077285003e-02 -9.077902309410012e-02 8.350520568717756e-02 -4.338781020671394e-02 6.924726127197466e-02 -4.694237142744309e-02
221612500.0000000000 5.286548764745654e-02 -2.884809480353373e-02 4.578149331464088e-02 -3.230601130975349e-02 -9.314064359097849e-03 -9.124089680847514e-02 -6.776001797072071e-01 -1.911628101056324e-01
            4.591430631228161e-02 -3.222249812909820e-02 5.282126213070321e-02 -2.881281219512788e-02 -6.775907391083652e-01 -1.912379323848318e-01 -9.372089318037768e-03 -9.128321829550845e-02
            -9.402026303590943e-03 -9.124551452404174e-02 -6.775548037000606e-01 -1.911283861129402e-01 4.007882535407661e-02 -3.180279605253881e-02 5.337864505286283e-02 -3.069297596492672e-02
            -6.776428261171494e-01 -1.911446039540151e-01 -9.325346931756405e-03 -9.127518802453767e-02 5.329603117863010e-02 -3.061641089355346e-02 4.009028697495710e-02 -3.181106950904172e-02
222445000.0000000000 4.077471117015613e-02 -6.064031710955304e-04 3.354585144303507e-02 3.569566439697358e-04 -4.199118831168463e-02 -7.441712033401106e-02 -7.030212474551459e-01 6.301883364695518e-02
            3.353088806318294e-02 2.163304323752152e-04 4.081164394053292e-02 -6.528189964017459e-04 -7.030876848446848e-01 6.304569436288311e-02 -4.200432540860595e-02 -7.443777208518723e-02
            -4.204165364574314e-02 -7.453552918601902e-02 -7.031318682201863e-01 6.300001518151793e-02 2.856546609179083e-02 -3.069527839486534e-04 4.010128286205002e-02 -3.819485657170476e-04
            -7.029813424592561e-01 6.300241562122882e-02 -4.194139158115402e-02 -7.447359882871188e-02 4.008646131987379e-02 -3.249220258408024e-04 2.853261924703096e-02 -2.673350525583651e-04
223277500.0000000000 5.143959615454464e-02 2.816145777839797e-02 4.639741640501838e-02 3.280683440653984e-02 -6.101630061812719e-02 -4.839948955491961e-02 -6.331789400727008e-01 3.091865518113324e-01
            4.634946496935344e-02 3.281989551600455e-02 5.152306074185793e-02 2.820857333204762e-02 -6.332751474398357e-01 3.091978357348941e-01 -6.100751594133769e-02 -4.833603158250543e-02
            -6.102724646374788e-02 -4.838093198090041e-02 -6.332923175838776e-01 3.091772988225886e-01 4.155778398708921e-02 3.094161138117283e-02 5.146332229230421e-02 3.072173272073433e-02
            -6.332570977753719e-01 3.091536323080371e-01 -6.112045557995997e-02 -4.838805661311838e-02 5.151086042868554e-02 3.072687952511713e-02 4.159848404424698e-02 3.096639382696485e-02
224110000.0000000000 7.878622215270085e-02 4.182969720154287e-02 7.713964310582827e-02 4.829079220481079e-02 -6.746415076321213e-02 -2.228616913368193e-02 -4.802488060900423e-01 5.109509080747635e-01
            7.723232912987535e-02 4.833666012319029e-02 7.875215021592449e-02 4.186332712009566e-02 -4.802408388721894e-01 5.109816016128014e-01 -6.750250460401673e-02 -2.230408174368234e-02
            -6.744394385036855e-02 -2.226296867229244e-02 -4.802632588839009e-01 5.110101812459583e-01 7.186565730401941e-02 4.525559826268991e-02 8.087266178074250e-02 4.539122412866543e-02
            -4.802219571960569e-01 5.109315912178085e-01 -6.747673866284193e-02 -2.228901795586711e-02 8.086186612589276e-02 4.535057581971180e-02 7.188589826795438e-02 4.524156838371203e-02
224942500.0000000000 1.076505695778533e-01 3.391579440979489e-02 1.098635934498976e-01 3.996054378554009e-02 -6.658105523588351e-02 4.200111024205363e-04 -2.691982283444209e-01 6.431029865317015e-01
            1.099249185706737e-01 3.994808645368497e-02 1.077534053537411e-01 3.382429460454207e-02 -2.690189756906889e-01 6.429959089972088e-01 -6.670673422715502e-02 4.186989265034138e-04
            -6.663115973311239e-02 4.783535815917347e-04 -2.691201495000143e-01 6.431105898170009e-01 1.035360522466065e-01 3.618562538478696e-02 1.122248843127895e-01 3.661777095314359e-02
            -2.690536697276063e-01 6.430990907337472e-01 -6.658367252915615e-02 4.672751310766014e-04 1.121377499302780e-01 3.663072384432750e-02 1.034950474522335e-01 3.623468918824051e-02
225775000.0000000000 1.241092950427639e-01 9.125857363978590e-03 1.289324789957101e-01 1.286196909473637e-02 -6.138450638657087e-02 2.134762831017957e-02 -2.891487877823585e-02 6.939758007502138e-01
            1.289243921722220e-01 1.287352039896768e-02 1.242243195859293e-01 9.086392282286750e-03 -2.893878504581533e-02 6.939417934369767e-01 -6.137825118824330e-02 2.140392462863761e-02
            -6.133460626240005e-02 2.145577637226862e-02 -2.889196907749873e-02 6.939013647060506e-01 1.212825924554066e-01 9.264161214552933e-03 1.300713599760179e-01 9.625615298663900e-03
            -2.895931130949651e-02 6.939060597515212e-01 -6.133570466059692e-02 2.145500260585347e-02 1.300555392000409e-01 9.581703284837956e-03 1.212750195305807e-01 9.267772618568013e-03
226607500.0000000000 1.207748079627869e-01 -2.044514482826056e-02 1.260785034015302e-01 -1.973086806179397e-02 -5.005272333296545e-02 4.188954751486309e-02 2.130363695130278e-01 6.610692234040095e-01
            1.261297156545166e-01 -1.981167877789555e-02 1.208409777496304e-01 -2.048842485262811e-02 2.130740012281283e-01 6.610374411544733e-01 -5.007520473425574e-02 4.181091891131104e-02
            -5.003190196185851e-02 4.180466615870134e-02 2.131526708054222e-01 6.610653850448589e-01 1.175921126661143e-01 -2.238183670392811e-02 1.262945337384878e-01 -2.267056417750999e-02
            2.130318020005921e-01 6.610206852605827e-01 -5.000818830000192e-02 4.181789341855292e-02 1.262928083406072e-01 -2.265431701560492e-02 1.176307515572762e-01 -2.240016900100015e-02
227440000.0000000000 9.886772752482220e-02 -4.104697256145886e-02 1.028975539846564e-01 -4.264518032788524e-02 -2.976435671184787e-02 5.834717623625550e-02 4.311115568360307e-01 5.477582292213896e-01
            1.028896612084949e-01 -4.283446149170990e-02 9.881522047377568e-02 -4.106642480655477e-02 4.311430142867714e-01 5.478598395201664e-01 -2.977103605058326e-02 5.829485945538688e-02
            -2.978861373607442e-02 5.831305774612709e-02 4.310234247065877e-01 5.478523486053265e-01 9.422032793015767e-02 -4.416589876303086e-02 1.022562378734837e-01 -4.523484523193866e-02
            4.311204629863472e-01 5.478357564469891e-01 -2.979940242238871e-02 5.834905417240226e-02 1.022808301352637e-01 -4.527990185881774e-02 9.413883156647307e-02 -4.416398022804927e-02
228272500.0000000000 6.817872424640306e-02 -4.230158383209604e-02 6.995080653245046e-02 -4.497768229950569e-02 -2.157056365678132e-03 6.433970429587274e-02 5.991704811233435e-01 3.637710465007294e-01
            7.000352496358199e-02 -4.502828035657141e-02 6.819711271537467e-02 -4.233129642917798e-02 5.992725774973919e-01 3.637688582081691e-01 -2.202976995085587e-03 6.428266571573155e-02
            -2.139987840749825e-03 6.426829766288238e-02 5.991749359789305e-01 3.637319248056780e-01 6.203952515644685e-02 -4.514786795201532e-02 6.883232082412039e-02 -4.686500392330439e-02
            5.992626406989467e-01 3.636999647021028e-01 -2.167521327400725e-03 6.423481214004005e-02 6.891965306698201e-02 -4.692184003175635e-02 6.205124119246409e-02 -4.524981340334011e-02
229105000.0000000000 4.409848648704255e-02 -2.243186982873236e-02 4.374855604233652e-02 -2.465080372402533e-02 2.498336824734246e-02 5.544339881024096e-02 6.923609361152272e-01 1.282517769438606e-01
            4.370879397957955e-02 -2.462786259060827e-02 4.407026051379018e-02 -2.244504771514297e-02 6.923751663722661e-01 1.282134155246241e-01 2.495218314507117e-02 5.548867823024524e-02
            2.505943746048465e-02 5.546731936991348e-02 6.923824606786421e-01 1.282684839733692e-01 3.725828891975105e-02 -2.410990605691551e-02 4.246215393851481e-02 -2.568953765260082e-02
            6.924254808309277e-01 1.283108252516517e-01 2.494370924204698e-02 5.543196130557829e-02 4.244613133867080e-02 -2.564657217062766e-02 3.731039607246903e-02 -2.409706236764814e-02
229937500.0000000000 3.971529363106546e-02 8.709963903282165e-03 3.826716596973325e-02 8.079831803379733e-03 4.243631484108439e-02 3.539104625117179e-02 6.933195065453326e-01 -1.272278121583345e-01
            3.824310587758797e-02 8.070487754128471e-03 3.979601689221623e-02 8.589111234304732e-03 6.933052610344905e-01 -1.272399889850661e-01 4.237161023653841e-02 3.532943755434575e-02
            4.239836054813045e-02 3.537083365260266e-02 6.933564639755648e-01 -1.273010284570185e-01 3.360085769138348e-02 8.337090710286817e-03 3.708812354931888e-02 7.655864614156573e-03
            6.932340529759318e-01 -1.273562175379938e-01 4.246798107976649e-02 3.537570051498769e-02 3.716114346984605e-02 7.571143957205123e-03 3.359190043102823e-02 8.382090209787542e-03
230770000.0000000000 5.744752462213244e-02 3.423460528563510e-02 5.619305867884261e-02 3.516074755216625e-02 4.673741765207672e-02 1.298648157459767e-02 6.006411361890660e-01 -3.646720988194972e-01
            5.612689733692033e-02 3.525247012282257e-02 5.761359412822943e-02 3.422252299150214e-02 6.006662924297965e-01 -3.646580152260542e-01 4.675682010714674e-02 1.294037125417683e-02
            4.668495749646395e-02 1.298893049591255e-02 6.006400652827359e-01 -3.646878285977764e-01 5.292674791402140e-02 3.420803407938880e-02 5.561728188567280e-02 3.504257934999702e-02
            6.006380040993562e-01 -3.646475133663465e-01 4.672407857570553e-02 1.304034519102637e-02 5.558421763517510e-02 3.511135207166851e-02 5.301520751060747e-02 3.417501095216973e-02
231602500.0000000000 8.725323527934253e-02 4.105562396910310e-02 8.674689143192107e-02 4.293570294078295e-02 4.228230414386606e-02 -4.549033004652121e-03 4.308636289624710e-01 -5.501282034736537e-01
            8.670643476258721e-02 4.288441982403641e-02 8.714292112040196e-02 4.106455675366315e-02 4.308896707920480e-01 -5.501641511007994e-01 4.225055013483566e-02 -4.528808254116146e-03
            4.228227642845984e-02 -4.482239064555271e-03 4.309286155044215e-01 -5.502326771420287e-01 8.433423637352037e-02 3.984611180054162e-02 8.674433873100217e-02 4.247575086826785e-02
            4.309349412877688e-01 -5.501921730095394e-01 4.218712727722188e-02 -4.523442664754781e-03 8.670574956799396e-02 4.234939002933612e-02 8.430607823532861e-02 3.990919689152640e-02
232435000.0000000000 1.132691755528200e-01 2.687109073164604e-02 1.137698702662818e-01 2.874809242395375e-02 3.483237021359741e-02 -1.660392848825595e-02 2.104710389866917e-01 -6.626286321939415e-01
            1.137566135540101e-01 2.870484853961734e-02 1.132842127185692e-01 2.684055196457278e-02 2.104429960194898e-01 -6.626729805602415e-01 3.488013318176648e-02 -1.669670680393067e-02
            3.481175974899322e-02 -1.663252987051015e-02 2.104687829797169e-01 -6.626631744118718e-01 1.110018617385006e-01 2.326525800757251e-02 1.138344222982785e-01 2.752677924826803e-02
            2.103787484024374e-01 -6.626404625491275e-01 3.482826731220139e-02 -1.662285096649611e-02 1.139328524462035e-01 2.744055976470841e-02 1.109326652841820e-01 2.330443073016888e-02
233267500.0000000000 1.235390375924597e-01 -3.529847324056807e-04 1.242593022457872e-01 7.654456597658361e-04 2.639450294104064e-02 -2.649033030986355e-02 -3.246343140140735e-02 -6.929408722003432e-01
            1.242347636942989e-01 7.953037485155172e-04 1.234911482024036e-01 -3.415332725537033e-04 -3.249918495464400e-02 -6.929575920664734e-01 2.636177509743353e-02 -2.648437467425048e-02
            2.641922597884840e-02 -2.648834569300391e-02 -3.248853132303323e-02 -6.928857377160349e-01 1.201277432134831e-01 -6.612645969894409e-03 1.239056044701726e-01 -1.524924460149563e-03
            -3.247746953779288e-02 -6.929271258141593e-01 2.641594700810883e-02 -2.652003592365437e-02 1.238267309749361e-01 -1.508443515011504e-03 1.200456400070972e-01 -6.570637122357992e-03
234100000.0000000000 1.136766205358902e-01 -2.745315154810359e-02 1.137067097819512e-01 -2.676598491692814e-02 1.448107153376711e-02 -3.516191045450966e-02 -2.712306214783372e-01 -6.394266948327496e-01
            1.137363658548499e-01 -2.681339634537392e-02 1.136509665726124e-01 -2.736751945662418e-02 -2.713225224095339e-01 -6.394327537106138e-01 1.440291370691712e-02 -3.514513758819175e-02
            1.440914166927912e-02 -3.511351903959042e-02 -2.712984427138304e-01 -6.395198979146276e-01 1.072365419816856e-01 -3.538183951666832e-02 1.119761860846045e-01 -2.995464506705508e-02
            -2.713479050244287e-01 -6.395641091620594e-01 1.449479701305379e-02 -3.507494859443434e-02 1.120094257700738e-01 -2.992590967032166e-02 1.073594470178461e-01 -3.546870586605841e-02
234932500.0000000000 8.823493355611700e-02 -4.133189794089032e-02 8.723019223545998e-02 -4.032725784360443e-02 -2.581617433776048e-03 -3.884098681379337e-02 -4.796153732830750e-01 -5.065967924605138e-01
            8.727989836833686e-02 -4.027882720458165e-02 8.827667104139335e-02 -4.125104602092664e-02 -4.795931147325003e-01 -5.065861893974488e-01 -2.534211004801778e-03 -3.885420857950116e-02
            -2.612805084037899e-03 -3.886793641824141e-02 -4.795347058896663e-01 -5.065927495015509e-01 7.817620220401870e-02 -4.928926951301650e-02 8.338690170121373e-02 -4.353890599488852e-02
            -4.796447608743167e-01 -5.065763381076102e-01 -2.606473628296458e-03 -3.888411116827464e-02 8.345987019623086e-02 -4.356911556987578e-02 7.823601279346808e-02 -4.934719513196176e-02
235765000.0000000000 5.995446687543795e-02 -3.454875283040808e-02 5.810262992498930e-02 -3.210698636618677e-02 -2.156067778418415e-02 -3.267483290183411e-02 -6.304614867091398e-01 -3.062607989830775e-01
            5.800568572522643e-02 -3.213937518891378e-02 5.997489237139100e-02 -3.449066353815540e-02 -6.305231880082669e-01 -3.061974071713898e-01 -2.153817406257634e-02 -3.274712915979733e-02
            -2.149268039651547e-02 -3.267294862726168e-02 -6.304725213711598e-01 -3.061791253008835e-01 4.631645559598274e-02 -4.016413579208076e-02 5.189024560186897e-02 -3.419934989610231e-02
            -6.305941672196187e-01 -3.062238280199362e-01 -2.157779477957679e-02 -3.268888424915760e-02 5.193221268080094e-02 -3.425726050638704e-02 4.624503714010252e-02 -4.024531985393121e-02
236597500.0000000000 4.382359683690640e-02 -1.000947789306821e-02 4.220313256347914e-02 -5.458210326474038e-03 -3.433513638245134e-02 -1.612175910197088e-02 -6.997970996155332e-01 -6.180352836350710e-02
            4.229635630599848e-02 -5.476594674972103e-03 4.377506250539478e-02 -1.000104593438999e-02 -6.998230682544339e-01 -6.189128159100542e-02 -3.433419555634810e-02 -1.618863802628518e-02
            -3.435371540493228e-02 -1.607962537717996e-02 -6.998053431797649e-01 -6.185747262588594e-02 2.827378555101581e-02 -1.164938755949069e-02 3.414655758690572e-02 -5.040258856112687e-03
            -6.998755611120507e-01 -6.191940101097973e-02 -3.426755523992948e-02 -1.612329120966518e-02 3.421989936141082e-02 -5.078900172997998e-03 2.833740923773675e-02 -1.162649541618952e-02
237430000.0000000000 4.915036247949355e-02 1.897396458855189e-02 4.946955635525727e-02 2.526496598836263e-02 -3.504904973540744e-02 4.195029386887372e-03 -6.747623294429486e-01 1.915132346421660e-01
            4.949181637940388e-02 2.528911249531554e-02 4.917499734681068e-02 1.895662849483885e-02 -6.747355455462688e-01 1.915200561607354e-01 -3.500922040176725e-02 4.291555693523123e-03
            -3.501852957938399e-02 4.152497441912249e-03 -6.747541738845239e-01 1.915066737287609e-01 3.417684672189725e-02 2.194394959229519e-02 4.073662807635340e-02 2.907917239590709e-02
            -6.747820619292306e-01 1.913775305497816e-01 -3.496029491908764e-02 4.147926693895530e-03 4.082602283788715e-02 2.911846674172140e-02 3.419758854366651e-02 2.193217058278326e-02
238262500.0000000000 7.278207178314534e-02 3.619025773166441e-02 7.604724341795277e-02 4.280846657117830e-02 -2.512455588164975e-02 1.928496678610608e-02 -5.600566323864882e-01 4.161630197002990e-01
            7.597713276343998e-02 4.285054003021564e-02 7.275660761986225e-02 3.617130101979325e-02 -5.600883220785732e-01 4.161457185637457e-01 -2.503699597970386e-02 1.927435033198198e-02
            -2.505325406075411e-02 1.932429114103711e-02 -5.600593841149418e-01 4.161972114346684e-01 6.071491778198104e-02 4.245507075670606e-02 6.833241993496586e-02 5.038489992691336e-02
            -5.600576204908253e-01 4.161159467900299e-01 -2.511400783762444e-02 1.923169513164699e-02 6.845850357339964e-02 5.039001636498964e-02 6.064686800665625e-02 4.246840562635382e-02
239095000.0000000000 1.016018106809560e-01 3.285409004116829e-02 1.076811424711275e-01 3.795768085097933e-02 -1.172149017618347e-02 2.539866587955351e-02 -3.759697614985251e-01 5.826432199562932e-01
            1.077145394733086e-01 3.792157407565450e-02 1.015956649107007e-01 3.283243557833211e-02 -3.759573837332899e-01 5.825239117619012e-01 -1.174478355887592e-02 2.546738317817720e-02
            -1.174049324448078e-02 2.535884882774601e-02 -3.760483205702662e-01 5.825760055688466e-01 9.333554587016674e-02 4.039226106673444e-02 1.027207680163700e-01 4.856835500430608e-02
            -3.759639268496855e-01 5.825978658234530e-01 -1.177636116515973e-02 2.536704380384125e-02 1.026791306966157e-01 4.854162097221363e-02 9.324451157219361e-02 4.040941585996118e-02
239927500.0000000000 1.209201763349984e-01 1.147733819561366e-02 1.287195628621272e-01 1.325650073821150e-02 -6.314629033819980e-04 2.556410979280261e-02 -1.493690392461086e-01 6.739005266323816e-01
            1.286517338670498e-01 1.327368481360562e-02 1.209345753828961e-01 1.159775527125104e-02 -1.493893036049860e-01 6.738814130964961e-01 -6.071549739950808e-04 2.543557678634966e-02
            -6.438583409709724e-04 2.554692567799845e-02 -1.493446992393165e-01 6.738448348411370e-01 1.160633157591303e-01 1.805383122875826e-02 1.273307049376395e-01 2.586423351019342e-02
            -1.492934849684117e-01 6.738731265497061e-01 -6.051716713390167e-04 2.557545837857260e-02 1.272935707504937e-01 2.596681575168074e-02 1.159857835322659e-01 1.811418399013826e-02
240760000.0000000000 1.218546246234635e-01 -1.729273166949651e-02 1.288890660848907e-01 -1.952372350779628e-02 8.225767012267014e-03 2.396581741585917e-02 9.311438206867254e-02 6.832325345753290e-01
            1.289214351890517e-01 -1.957289682850383e-02 1.218463815753565e-01 -1.733630131268426e-02 9.313071501622264e-02 6.832131844279596e-01 8.242943409024860e-03 2.392932195436276e-02
            8.230389737479665e-03 2.400581162849622e-02 9.309314519023461e-02 6.832077075808843e-01 1.188210404327950e-01 -1.311001034931401e-02 1.319612831431787e-01 -6.478099794478650e-03
            9.309203184243342e-02 6.831869439420664e-01 8.114212212965920e-03 2.393506821273638e-02 1.319289395373583e-01 -6.575931687313520e-03 1.188302667561408e-01 -1.302413203343407e-02
241592500.0000000000 1.036943161244191e-01 -4.034196085784900e-02 1.079191191452874e-01 -4.571886489738652e-02 1.775142237072753e-02 2.135120242973277e-02 3.253228761343400e-01 6.100306248656352e-01
            1.077914459545833e-01 -4.567202331004083e-02 1.037537328201531e-01 -4.030259541340261e-02 3.253452375037045e-01 6.101497798703859e-01 1.777820676107415e-02 2.135135988361564e-02
            1.776321897535422e-02 2.140207955866546e-02 3.253440646666496e-01 6.100617555396226e-01 1.007175181779720e-01 -3.862386491851824e-02 1.150818625197988e-01 -3.400888141900671e-02
            3.253672034954043e-01 6.100326657286376e-01 1.768641571667326e-02 2.140269496644905e-02 1.150740092892726e-01 -3.397999150920183e-02 1.007478006830704e-01 -3.865345260843251e-02
242425000.0000000000 7.459117835062569e-02 -4.611557894770564e-02 7.422436451067592e-02 -5.268378044428621e-02 2.900455718854195e-02 1.419716872881162e-02 5.209327717473694e-01 4.596833308875967e-01
            7.418809335779114e-02 -5.257002986819939e-02 7.457716633005310e-02 -4.607175093527650e-02 5.208606750989960e-01 4.596192162932045e-01 2.898021545921748e-02 1.423462440271722e-02
            2.894560782123823e-02 1.419314561085272e-02 5.209735058607671e-01 4.597414454881597e-01 7.007292699823459e-02 -4.612984703733244e-02 8.494706800965317e-02 -4.384869815169268e-02
            5.209362380605903e-01 4.597082756787773e-01 2.896038542904422e-02 1.415452174909040e-02 8.488857527483604e-02 -4.371218785206758e-02 7.011993924901348e-02 -4.606861345697059e-02
243257500.0000000000 4.849149397549805e-02 -3.089985502339766e-02 4.350106214734734e-02 -3.601581032456198e-02 3.739882291621126e-02 -8.373451504117669e-04 6.528068858287966e-01 2.466302662396253e-01
            4.346280936529197e-02 -3.608569146132217e-02 4.850947172894406e-02 -3.094141366946266e-02 6.527528504174156e-01 2.466223856978511e-01 3.737730811379029e-02 -8.940712274408710e-04
            3.738280777052844e-02 -9.507490026041820e-04 6.527361170313705e-01 2.466066848227414e-01 4.175781565326887e-02 -3.101177482284516e-02 5.620649000750345e-02 -3.110722817477347e-02
            6.527584977496679e-01 2.466313577055969e-01 3.738106134516751e-02 -8.245410915914198e-04 5.635756339276787e-02 -3.108398671145529e-02 4.183262581618927e-02 -3.107117579418694e-02
244090000.0000000000 3.965020403850315e-02 -2.011044176567103e-03 3.121067504157617e-02 -3.374771716053864e-03 3.612297940491003e-02 -2.138663566178181e-02 6.986103708177150e-01 -2.218059746448643e-03
            3.116692939136749e-02 -3.445541805430655e-03 3.958506454658903e-02 -1.944315083809233e-03 6.986486144880089e-01 -2.161982499530131e-03 3.616003526501158e-02 -2.141122301180367e-02
            3.611423848413488e-02 -2.131324455580908e-02 6.986464169328190e-01 -2.178700461426577e-03 3.083931755074166e-02 -5.450337756171390e-04 4.439617284940967e-02 -2.860006907864533e-03
            6.987164095171969e-01 -2.181299616570459e-03 3.612244134357217e-02 -2.134106306647124e-02 4.435863243923988e-02 -2.792279571310966e-03 3.090050802517910e-02 -4.926690645763272e-04
244922500.0000000000 5.285073887260833e-02 2.495783883436779e-02 4.332426387400869e-02 2.841037898361310e-02 2.242410767317283e-02 -3.899690258174172e-02 6.502095767504431e-01 -2.502217946990528e-01
            4.326069598651016e-02 2.829509705110919e-02 5.280761505910941e-02 2.496959664140001e-02 6.502795430400192e-01 -2.502964324405674e-01 2.237096332851152e-02 -3.908408539463946e-02
            2.245982927075632e-02 -3.914060173945519e-02 6.502519754814770e-01 -2.502551075867098e-01 4.340527417877527e-02 2.895495004527966e-02 5.512676620575021e-02 2.510878842843694e-02
            6.502096983162549e-01 -2.502040166993230e-01 2.241748810975742e-02 -3.908075008409904e-02 5.521192679004259e-02 2.515832069272051e-02 4.344940191203606e-02 2.908427073442008e-02
245755000.0000000000 8.042604847572100e-02 3.525478354545430e-02 7.223181359796782e-02 4.316636105063736e-02 1.350036120075558e-03 -4.621564135958107e-02 5.168912401335989e-01 -4.614774743949908e-01
            7.225289448373592e-02 4.325977030138798e-02 8.042442544464717e-02 3.532402300518280e-02 5.168866357856019e-01 -4.614655647162340e-01 1.328850627527287e-03 -4.624630176551937e-02
            1.375088670519548e-03 -4.624842886608002e-02 5.169088525898887e-01 -4.614188059072388e-01 7.198791062367360e-02 4.235158623838722e-02 8.166649583733611e-02 3.708640059791869e-02
            5.169156401500875e-01 -4.614960364833375e-01 1.385710653514333e-03 -4.622345949963789e-02 8.164620934743312e-02 3.710504414309376e-02 7.205580544691037e-02 4.220360864240303e-02
246587500.0000000000 1.073714112478245e-01 2.437523846205005e-02 1.019866720547569e-01 3.534435928837726e-02 -1.882743385549132e-02 -4.222537775617698e-02 3.208751508775083e-01 -6.098342659117715e-01
            1.019967812002128e-01 3.538096348031064e-02 1.074000845064061e-01 2.431516710021992e-02 3.207995200654584e-01 -6.098245279906892e-01 -1.879172584834882e-02 -4.219551220476838e-02
            -1.885820730925750e-02 -4.212256376495382e-02 3.208311935415251e-01 -6.097727603760663e-01 1.013430096153977e-01 3.346900615462374e-02 1.083530126498354e-01 2.781943833670098e-02
            3.208789686997622e-01 -6.097191815702889e-01 -1.878095797776603e-02 -4.223845949823495e-02 1.083388780198693e-01 2.779665257281392e-02 1.013151574430542e-01 3.351960219854945e-02
247420000.0000000000 1.200469707708749e-01 -1.662794509235779e-03 1.181475506742621e-01 1.069486454162468e-02 -3.342712686350864e-02 -3.148014435650609e-02 8.869860034688978e-02 -6.811199552685265e-01
            1.181852663877198e-01 1.061140625691612e-02 1.200166416466039e-01 -1.625644521250654e-03 8.868690898964997e-02 -6.811363238393452e-01 -3.346558804490882e-02 -3.161955450947856e-02
            -3.337791372459890e-02 -3.146218747113892e-02 8.866524207108133e-02 -6.811174486010230e-01 1.171868227552269e-01 8.295098560580466e-03 1.214793400173921e-01 3.006016068239677e-03
            8.874070570645000e-02 -6.811484376759194e-01 -3.339576757397557e-02 -3.151942266511067e-02 1.214233397274986e-01 2.850749684820426e-03 1.172432916941636e-01 8.355324408920580e-03
248252500.0000000000 1.125618118015350e-01 -2.986997955520889e-02 1.134766721202422e-01 -1.780975499903859e-02 -4.311069037722710e-02 -1.852863102157674e-02 -1.533931512292818e-01 -6.697424503052359e-01
            1.135378314839690e-01 -1.780007202046131e-02 1.125033510865383e-01 -2.977830023524290e-02 -1.533377579177702e-01 -6.697576755886805e-01 -4.305020528187632e-02 -1.851153989095963e-02
            -4.307163331250721e-02 -1.852180449035188e-02 -1.533297010241341e-01 -6.698440081480365e-01 1.127397836823510e-01 -2.058730902984131e-02 1.143982377624170e-01 -2.458610285471654e-02
            -1.533100565771393e-01 -6.697827128295449e-01 -4.308786296522669e-02 -1.849353305487385e-02 1.143832659684075e-01 -2.458179231078329e-02 1.127313502390420e-01 -2.052477302312376e-02
249085000.0000000000 8.786227868392689e-02 -4.674669571075801e-02 9.060249612421105e-02 -3.551299592538418e-02 -5.007865359441762e-02 -3.547098102518593e-03 -3.788081622997118e-01 -5.759843351855447e-01
            9.054658844937655e-02 -3.550351703317047e-02 8.780902858096308e-02 -4.661318023211982e-02 -3.788043871744671e-01 -5.759516323531756e-01 -5.004270707368701e-02 -3.526210818622642e-03
            -5.003171026766401e-02 -3.593001507898643e-03 -3.788628941361522e-01 -5.760015139462805e-01 9.052104790433581e-02 -3.908020047955457e-02 8.998387374548147e-02 -4.081178326807918e-02
            -3.788611251490724e-01 -5.760160586125626e-01 -5.007706423396553e-02 -3.558319784854734e-03 8.999042254919309e-02 -4.073874385660754e-02 9.051803214756265e-02 -3.912552301415228e-02
249917500.0000000000 5.727837806031060e-02 -4.321021553180922e-02 6.081341005575697e-02 -3.263858796147710e-02 -5.354620875619606e-02 1.586556023401597e-02 -5.598432674038082e-01 -4.071807783118494e-01
            6.089176184355760e-02 -3.275090378145249e-02 5.734247596064962e-02 -4.318768620093117e-02 -5.597982268043544e-01 -4.072138629504494e-01 -5.350996959860116e-02 1.585029033626579e-02
            -5.351545880746159e-02 1.579369334145162e-02 -5.597946417417696e-01 -4.071991794072527e-01 6.131194280851796e-02 -3.793516800020660e-02 5.982514996372977e-02 -3.622875241503951e-02
            -5.596712057321472e-01 -4.071311646451023e-01 -5.355351971977058e-02 1.588856698029839e-02 5.977984788089241e-02 -3.627068114835977e-02 6.130479955768095e-02 -3.793682147500010e-02
250750000.0000000000 3.641503764529978e-02 -1.981954073931078e-02 4.040961824634249e-02 -9.245803613743111e-03 -4.840358372851024e-02 3.953527113836054e-02 -6.693325001389441e-01 -1.818649526097767e-01
            4.046978628283535e-02 -9.180001403893481e-03 3.637365733264070e-02 -1.985646835467847e-02 -6.692701976105325e-01 -1.818717769064393e-01 -4.842562943838772e-02 3.955088543894757e-02
            -4.835547036533874e-02 3.954462379774372e-02 -6.693284465237473e-01 -1.819005189093756e-01 4.079406016955009e-02 -1.701793421574506e-02 3.969600981897615e-02 -1.159447418732887e-02
            -6.693324710094456e-01 -1.818872629351256e-01 -4.842629296952147e-02 3.954702770569735e-02 3.970629894053829e-02 -1.170875023357745e-02 4.069157134152520e-02 -1.702353328550415e-02
251582500.0000000000 3.647157691657701e-02 1.159775878746488e-02 4.174657638580523e-02 2.283806722653315e-02 -3.021218890941298e-02 6.134107716486746e-02 -6.890187242135890e-01 6.867376551331998e-02
            4.173545362560122e-02 2.279886078920536e-02 3.647457235526588e-02 1.147432431849412e-02 -6.890452961370170e-01 6.866697949537727e-02 -3.028651514367213e-02 6.143701524394875e-02
            -3.026389100427559e-02 6.142119285622553e-02 -6.889830926537590e-01 6.860212619028262e-02 4.034176949364894e-02 1.255696361245275e-02 4.154133194970701e-02 2.090578809815961e-02
            -6.889885635584012e-01 6.858572325074798e-02 -3.027900960267004e-02 6.152375722334072e-02 4.149991973303584e-02 2.097560119605103e-02 4.032857723392714e-02 1.247337422003253e-02
252415000.0000000000 5.732679481042539e-02 3.432074246650185e-02 6.457210730690527e-02 4.608742642066679e-02 -1.467767015834676e-03 7.245576759332852e-02 -6.165479083263445e-01 3.069907608480565e-01
            6.456443984672074e-02 4.606031862919248e-02 5.737767923243554e-02 3.429918642122037e-02 -6.165690086291344e-01 3.071252822107475e-01 -1.475857843718151e-03 7.245151725521780e-02
            -1.490252436248837e-03 7.246544871498711e-02 -6.165832179733546e-01 3.069728869202336e-01 6.025045201904555e-02 3.397266504043151e-02 6.502369453750864e-02 4.431352799245115e-02
            -6.165247993127004e-01 3.069998356599435e-01 -1.409697999178867e-03 7.239937017878961e-02 6.501687868262106e-02 4.427448648390460e-02 6.022028390498852e-02 3.401087351771256e-02
253247500.0000000000 8.707151270916173e-02 3.709836562992992e-02 9.729984396024399e-02 4.845184243742062e-02 2.918863835175655e-02 6.801657025810545e-02 -4.662776970894338e-01 5.008178053704002e-01
            9.725596253213707e-02 4.851304259555089e-02 8.720352998770103e-02 3.720718765251755e-02 -4.662589041224286e-01 5.008764626092851e-01 2.920471151696702e-02 6.804696305687342e-02
            2.920253114274234e-02 6.807520026929591e-02 -4.662493073382728e-01 5.008709139813331e-01 8.899832419205767e-02 3.609779933382256e-02 9.785975219218204e-02 4.629075278934097e-02
            -4.662907799652086e-01 5.007528436524792e-01 2.925220912061718e-02 6.806973627403164e-02 9.790765714726940e-02 4.626875390858137e-02 8.900948594013756e-02 3.620458700838308e-02
254080000.0000000000 1.106222548439851e-01 1.989585295399888e-02 1.236473175227339e-01 2.934216948274356e-02 5.335499542965234e-02 5.142694651503876e-02 -2.614156477884628e-01 6.285422466143511e-01
            1.235312109211610e-01 2.930658442062682e-02 1.106914504953327e-01 1.988900945737842e-02 -2.614146072050980e-01 6.285397561255460e-01 5.333614931877372e-02 5.145802689687426e-02
            5.337435641495594e-02 5.140972817726151e-02 -2.614831394704585e-01 6.285343647555226e-01 1.115614770811492e-01 1.892759173908758e-02 1.239014614491749e-01 2.673490920566030e-02
            -2.614347517198896e-01 6.284871688440608e-01 5.341138116606182e-02 5.137042074018405e-02 1.239265309033483e-01 2.676422428710964e-02 1.115586490066278e-01 1.887958456149614e-02
254912500.0000000000 1.167803554649023e-01 -8.093788918129749e-03 1.315165469204226e-01 -1.946622997272969e-03 6.808204047074752e-02 2.896789141065055e-02 -2.747226557677830e-02 6.789580997257916e-01
            1.315885098753948e-01 -1.943407860837746e-03 1.166592412877011e-01 -7.999142569566992e-03 -2.749621027415356e-02 6.789544412313570e-01 6.806378824057605e-02 2.900982045879798e-02
            6.810723000205482e-02 2.903679078313001e-02 -2.750624495143569e-02 6.789182001188730e-01 1.170883316102472e-01 -8.802544981127184e-03 1.314029923569284e-01 -4.713458695022107e-03
            -2.747428365244759e-02 6.790038667339895e-01 6.808630535646336e-02 2.898217233065732e-02 1.313848839520076e-01 -4.654150398577880e-03 1.171438133135083e-01 -8.686073154653513e-03
255745000.0000000000 1.028369137134764e-01 -3.323931207398523e-02 1.179287033733410e-01 -3.098237310340095e-02 7.522118084424444e-02 5.035722045273776e-03 2.104096429549612e-01 6.474521672686971e-01
            1.179068156712160e-01 -3.096608358201371e-02 1.029333504589865e-01 -3.325885467621356e-02 2.103991088576937e-01 6.474601014722087e-01 7.514269608759308e-02 5.076705089378094e-03
            7.512103197656599e-02 5.042552012816588e-03 2.103990970756457e-01 6.474573263479392e-01 1.031139386730370e-01 -3.351223619365145e-02 1.171058696973865e-01 -3.355360270921823e-02
            2.105191639262914e-01 6.474147988826948e-01 7.515238503619544e-02 5.057087154849425e-03 1.170866551748326e-01 -3.357821505258861e-02 1.031136447044017e-01 -3.350419881551956e-02
256577500.0000000000 7.526472074172934e-02 -4.312504354447923e-02 8.869202161401216e-02 -4.436749013021483e-02 7.656804955935186e-02 -2.056202383140149e-02 4.255779075536415e-01 5.350481621988888e-01
            8.869279523283589e-02 -4.429596323554937e-02 7.521647785064199e-02 -4.308575496593690e-02 4.255235639605721e-01 5.349614099015257e-01 7.646101738330693e-02 -2.057525571060550e-02
            7.654400681350639e-02 -2.054178243705133e-02 4.256052887095441e-01 5.348750105101007e-01 7.573938557381207e-02 -4.303043496178573e-02 8.739283713906576e-02 -4.643899537311617e-02
            4.255591967064029e-01 5.349246717316248e-01 7.661273604496348e-02 -2.054180281974518e-02 8.739521207768632e-02 -4.642039725649764e-02 7.574408071130527e-02 -4.303608571091879e-02
257410000.0000000000 4.722585217312809e-02 -3.156829587615250e-02 5.793032263486593e-02 -3.500925618336899e-02 7.011398475846874e-02 -4.899578412530664e-02 5.895614138713001e-01 3.509766290588911e-01
            5.787659706973387e-02 -3.498715728945368e-02 4.725068028401969e-02 -3.159944744130143e-02 5.895569592995148e-01 3.510941889469699e-01 7.020808988813175e-02 -4.897342142967268e-02
            7.021017717631657e-02 -4.905164686746240e-02 5.894766028854646e-01 3.510801405206170e-01 4.841036438690526e-02 -3.136499150724273e-02 5.640133739810895e-02 -3.648569586813676e-02
            5.894945342582217e-01 3.509926145634191e-01 7.015093712533460e-02 -4.903903648898608e-02 5.640940161494850e-02 -3.650248724259064e-02 4.835570123537583e-02 -3.141820087453703e-02
258242500.0000000000 3.399403432753161e-02 -3.458694308625847e-03 4.154898564067077e-02 -7.373250705231096e-03 5.105312492008898e-02 -7.740988329810072e-02 6.764614057775085e-01 1.179278321769180e-01
            4.151637997097252e-02 -7.437837563988687e-03 3.400780918579879e-02 -3.467719157787283e-03 6.764521125707142e-01 1.179737740508405e-01 5.113362427004679e-02 -7.755257532444317e-02
            5.105601854128018e-02 -7.736912692941550e-02 6.764343605662473e-01 1.179700284557267e-01 3.582629380037083e-02 -3.614861946580369e-03 4.022601139036067e-02 -8.263298691797137e-03
            6.763785706010991e-01 1.179903894590944e-01 5.109975719768580e-02 -7.750268857426783e-02 4.019547856277432e-02 -8.394380993381301e-03 3.578169659732343e-02 -3.523225442963426e-03
259075000.0000000000 4.333197810802476e-02 2.655780206674820e-02 4.836902487413563e-02 2.356929125590887e-02 1.796031289418373e-02 -9.725805527225212e-02 6.717940536067043e-01 -1.303061034893896e-01
            4.847855782506998e-02 2.361500609373926e-02 4.328243504580201e-02 2.659163224654272e-02 6.717552106189314e-01 -1.303259804241523e-01 1.792333503479990e-02 -9.722358117007875e-02
            1.784428337299120e-02 -9.727548154703748e-02 6.717567912213592e-01 -1.303967751292919e-01 4.575762829723724e-02 2.568403478356506e-02 4.738444321763850e-02 2.304663338968714e-02
            6.717557109301694e-01 -1.303019533446181e-01 1.790018811363561e-02 -9.723458498524457e-02 4.740102474759306e-02 2.302179279237419e-02 4.574202306788380e-02 2.561418260641594e-02
259907500.0000000000 7.036234025218749e-02 4.251745504259830e-02 7.414812387811921e-02 4.115904373318660e-02 -2.301071803417426e-02 -1.000317877406869e-01 5.786551730168250e-01 -3.573190091041707e-01
            7.408413662936379e-02 4.114742755618031e-02 7.028008601212223e-02 4.251616541113992e-02 5.786481909582354e-01 -3.573414692404708e-01 -2.302974543796418e-02 -1.000214772423629e-01
            -2.305534974734254e-02 -1.000652741067720e-01 5.784911234846690e-01 -3.572424362279241e-01 7.284870101299908e-02 4.049741199248774e-02 7.341638275880880e-02 4.069047810606841e-02
            5.785471355328078e-01 -3.573116959826356e-01 -2.302902509587538e-02 -9.994759729044013e-02 7.341950434494189e-02 4.065074572498719e-02 7.275342247060321e-02 4.042821155544118e-02
260740000.0000000000 1.006015244089454e-01 3.663977192188490e-02 1.042967386423916e-01 3.683352599118674e-02 -6.089792633300630e-02 -8.437225051539453e-02 4.141579879978611e-01 -5.338177215735902e-01
            1.042714984206822e-01 3.686621754667666e-02 1.005439772102930e-01 3.663163025338585e-02 4.141599342493942e-01 -5.337592293590606e-01 -6.093707118891676e-02 -8.436627630566455e-02
            -6.086908106253713e-02 -8.434773114169718e-02 4.142457879346529e-01 -5.337457861724989e-01 1.026327727965833e-01 3.370688213647610e-02 1.036813042991098e-01 3.636483396159590e-02
            4.141928274906633e-01 -5.337835152636321e-01 -6.083580702638298e-02 -8.440984353194837e-02 1.037287782219968e-01 3.648559316248266e-02 1.026623373246704e-01 3.370658113778714e-02
261572500.0000000000 1.193424265650092e-01 1.297891928790618e-02 1.237654575291399e-01 1.386010662568657e-02 -8.771901154983011e-02 -5.603069919478960e-02 2.022417900210882e-01 -6.417066972456579e-01
            1.236615982724270e-01 1.388302198842679e-02 1.193921764963595e-01 1.293024651502098e-02 2.021667672445910e-01 -6.417068670093105e-01 -8.766456592599844e-02 -5.598892604336044e-02
            -8.755840341569218e-02 -5.603577874411447e-02 2.021647941691389e-01 -6.416971863341785e-01 1.206131786320660e-01 9.417272282760923e-03 1.232203387979675e-01 1.359329514415486e-02
            2.022334463840857e-01 -6.416778852713932e-01 -8.764800145203157e-02 -5.611393829679100e-02 1.231566738155599e-01 1.364212789478859e-02 1.206728489744432e-01 9.393856978041357e-03
262405000.0000000000 1.184386100603333e-01 -1.700283593619629e-02 1.234017810863808e-01 -1.615229292952539e-02 -1.018617319291059e-01 -2.224673756681034e-02 -3.262543201302889e-02 -6.716645754551995e-01
            1.233201280265147e-01 -1.619113105250514e-02 1.184549481848361e-01 -1.697542933723231e-02 -3.268248322791235e-02 -6.716000709616549e-01 -1.018445391097179e-01 -2.225763779591050e-02
            -1.018300871620272e-01 -2.229314118060081e-02 -3.262979516993159e-02 -6.716386288491166e-01 1.188204375428791e-01 -2.044872214297844e-02 1.230103687408355e-01 -1.617393353351343e-02
            -3.271137527088006e-02 -6.716781419080619e-01 -1.018158955936833e-01 -2.234276590808878e-02 1.230057946603784e-01 -1.618859410786864e-02 1.187971798049491e-01 -2.045308213950474e-02
263237500.0000000000 9.816274409654900e-02 -3.931461714072055e-02 1.032399844656836e-01 -3.898990565417989e-02 -1.055173518798035e-01 1.282662091288200e-02 -2.652785597344689e-01 -6.198727873306469e-01
            1.032483612462807e-01 -3.898771438580058e-02 9.826247524926626e-02 -3.928383329335039e-02 -2.653377576652579e-01 -6.197902990033478e-01 -1.055884300451988e-01 1.280330799888887e-02
            -1.056131087841600e-01 1.274266678395004e-02 -2.652859668387196e-01 -6.199185627282789e-01 9.811384497100405e-02 -4.214609382534396e-02 1.032072705512478e-01 -3.875839161001333e-02
            -2.652904164850713e-01 -6.199053764116964e-01 -1.056180580438922e-01 1.284186994813069e-02 1.032183546550101e-01 -3.875766075810343e-02 9.808039664063234e-02 -4.212382754651257e-02
264070000.0000000000 6.805108990151605e-02 -4.292522468616362e-02 7.236872420913264e-02 -4.304161114857093e-02 -9.962785955145748e-02 4.899695257753967e-02 -4.682381617950512e-01 -4.889649633969774e-01
            7.234436721269039e-02 -4.307269440412539e-02 6.795042704067246e-02 -4.285142968538776e-02 -4.681963016043530e-01 -4.889332646267714e-01 -9.956653069899690e-02 4.897562901890669e-02
            -9.960010344441321e-02 4.895694748647253e-02 -4.681811681267667e-01 -4.889487088820106e-01 6.806241833058371e-02 -4.505095271188885e-02 7.300615112349086e-02 -4.266479781370864e-02
            -4.682735525501323e-01 -4.890120449088283e-01 -9.953228974045458e-02 4.895114410769934e-02 7.292893355448299e-02 -4.275458790255620e-02 6.809604903907443e-02 -4.495249839499086e-02
264902500.0000000000 4.270882611727018e-02 -2.530183716388350e-02 4.618710940853438e-02 -2.530199000110916e-02 -8.107672667270034e-02 8.527005984515224e-02 -6.128867279067056e-01 -2.915168684893113e-01
            4.619933765808727e-02 -2.524441275036189e-02 4.263688442681206e-02 -2.514889138165147e-02 -6.129162994282672e-01 -2.914930613613514e-01 -8.113276377575561e-02 8.530080961602332e-02
            -8.113315895904014e-02 8.530549639982868e-02 -6.128847568866630e-01 -2.915343208569150e-01 4.364646201692466e-02 -2.684429958391911e-02 4.762379756750595e-02 -2.502500556309105e-02
            -6.129069186026698e-01 -2.914764269498173e-01 -8.114219203000210e-02 8.529815730336468e-02 4.751177935841903e-02 -2.510491078732685e-02 4.366846348483761e-02 -2.679790951332067e-02
265735000.0000000000 3.592460922523894e-02 5.176563305830072e-03 3.879213957246209e-02 5.884553343126452e-03 -4.687300771973963e-02 1.156702934646551e-01 -6.757640975744407e-01 -5.356637223468221e-02
            3.865636582404214e-02 6.034786729597295e-03 3.587578104486907e-02 5.184162541000727e-03 -6.757870065879321e-01 -5.362828141105842e-02 -4.692351958721729e-02 1.156063641339157e-01
            -4.691862638415397e-02 1.157050555477110e-01 -6.757972982606610e-01 -5.361550269650620e-02 3.811114686434743e-02 3.104509795113735e-03 4.086234246435340e-02 5.297387591050344e-03
            -6.757661019051788e-01 -5.363273892870923e-02 -4.683466091644705e-02 1.156812938452181e-01 4.078761251779956e-02 5.288832523956778e-03 3.822933239311069e-02 3.162123188977357e-03
266567500.0000000000 5.146008588569242e-02 3.198592087498239e-02 5.418870110949239e-02 3.375373845960099e-02 8.076592371084085e-04 1.303676790825889e-01 -6.474080978902765e-01 1.891891721818030e-01
            5.411963149443864e-02 3.374490436553119e-02 5.151619219869311e-02 3.188664567474250e-02 -6.473903004803061e-01 1.891342352053988e-01 7.476554585424826e-04 1.303376016928404e-01
            7.564468503295071e-04 1.303935813815466e-01 -6.474896406184470e-01 1.891406333314179e-01 5.464936307454218e-02 2.857870841751766e-02 5.650259712415602e-02 3.192339150449404e-02
            -6.475045628596565e-01 1.891490969760991e-01 6.980335939201518e-04 1.303176954655525e-01 5.650448602404828e-02 3.199243496302878e-02 5.461724957279587e-02 2.865919852300825e-02
267400000.0000000000 8.039564113143964e-02 4.100411342981215e-02 8.371005644953397e-02 4.388138603731854e-02 5.181244885951217e-02 1.229932470185133e-01 -5.355306507822777e-01 4.022582440140881e-01
            8.383378280964277e-02 4.385389835719175e-02 8.039568658667300e-02 4.105334940113960e-02 -5.355743628106835e-01 4.023365493223515e-01 5.176213806357112e-02 1.229015805248960e-01
            5.173510239344175e-02 1.228668726072621e-01 -5.356200554733758e-01 4.023098279519013e-01 8.373962736623490e-02 3.596014639856244e-02 8.566802315166888e-02 4.065562480848756e-02
            -5.355070089009073e-01 4.023307296186022e-01 5.171271552017402e-02 1.229275750933165e-01 8.568615799946563e-02 4.063116768410528e-02 8.368263847976007e-02 3.594859083672332e-02
268232500.0000000000 1.074706523296645e-01 2.889426111137228e-02 1.118604838515903e-01 3.192279694994383e-02 9.451551097988518e-02 9.537863696156926e-02 -3.594220737999560e-01 5.604625394515776e-01
            1.117530771522989e-01 3.208372962731695e-02 1.075579276307061e-01 2.889433838329896e-02 -3.595251211578189e-01 5.604297159232381e-01 9.448871523397880e-02 9.527778099449420e-02
            9.443590950920522e-02 9.526386717310435e-02 -3.594628860317090e-01 5.604646624250070e-01 1.098350826949741e-01 2.209249792102067e-02 1.126999981840872e-01 2.802675527441662e-02
            -3.594758621424739e-01 5.604684637225668e-01 9.447906848709875e-02 9.536245023206881e-02 1.126090467965008e-01 2.805137503512302e-02 1.098063392068632e-01 2.213411973028595e-02
269065000.0000000000 1.198098539761299e-01 2.552568567175674e-03 1.250520813688614e-01 5.196475578678090e-03 1.222692342148767e-01 5.527341626312259e-02 -1.424477050145778e-01 6.484051003842315e-01
            1.250323096752609e-01 5.234861211593416e-03 1.198516282212377e-01 2.576006505436278e-03 -1.424206057656784e-01 6.484161997304699e-01 1.223409167063958e-01 5.535447454064599e-02
            1.223323778276556e-01 5.531498929867271e-02 -1.424673456925956e-01 6.483879277149837e-01 1.204636730767082e-01 -5.209730746714482e-03 1.244136989769704e-01 8.661347322800498e-04
            -1.424353592105781e-01 6.485124302962767e-01 1.223301894338973e-01 5.530515899236013e-02 1.244587761278080e-01 8.953424682204325e-04 1.204816143283961e-01 -5.319013491359634e-03
269897500.0000000000 1.121847840047687e-01 -2.536342565195774e-02 1.176205917268183e-01 -2.347903643462146e-02 1.345227648942701e-01 1.032501658433644e-02 9.157647344418400e-02 6.580626226013078e-01
            1.175596830711359e-01 -2.351791900145455e-02 1.121714398080450e-01 -2.542872365359026e-02 9.158823682859207e-02 6.580224733056953e-01 1.346790486985209e-01 1.033024338186545e-02
            1.346344605367225e-01 1.036523966313498e-02 9.156845232352669e-02 6.580412148502446e-01 1.107563004950076e-01 -3.297766809327483e-02 1.156486627377707e-01 -2.742750077775973e-02
            9.153800063664504e-02 6.579601185322174e-01 1.345991049053928e-01 1.034221174390284e-02 1.157350151269110e-01 -2.747478864629422e-02 1.108078892936140e-01 -3.297985619364189e-02
270730000.0000000000 8.791254597745204e-02 -4.165600135606556e-02 9.285466504110111e-02 -4.039047867829017e-02 1.331981907964953e-01 -3.577161185307454e-02 3.169586659410106e-01 5.863337699831990e-01
            9.284292369016901e-02 -4.041456854839765e-02 8.794254080685253e-02 -4.170455271905648e-02 3.169639470068685e-01 5.863716187352083e-01 1.332715018090851e-01 -3.575817798691143e-02
            1.332438914248459e-01 -3.578757889673634e-02 3.169528684315430e-01 5.863500485347654e-01 8.518652192792812e-02 -4.793537102643698e-02 9.009886815961300e-02 -4.347216389340006e-02
            3.169903290485299e-01 5.864867080551217e-01 1.332304673115516e-01 -3.576172754405522e-02 9.008702563770869e-02 -4.342084565922493e-02 8.516854643871433e-02 -4.792819860677437e-02
271562500.0000000000 5.858406236829802e-02 -3.769796031801187e-02 6.273661131468626e-02 -3.658615899831432e-02 1.178720868919372e-01 -8.158312360813447e-02 5.053350923670826e-01 4.380770312504298e-01
            6.274288478116333e-02 -3.654061166211493e-02 5.852934874628170e-02 -3.780407175516152e-02 5.054522773731414e-01 4.380130801338282e-01 1.178464751392874e-01 -8.165603524949343e-02
            1.178072430402725e-01 -8.168403581736755e-02 5.053591082757697e-01 4.380196890804042e-01 5.561447982124883e-02 -4.221467526625949e-02 5.964332694960948e-02 -3.845059303993557e-02
            5.054711984555839e-01 4.380473203622581e-01 1.177760016403433e-01 -8.164630614776734e-02 5.962747923984469e-02 -3.840142642427277e-02 5.560365111727682e-02 -4.225207703061871e-02
272395000.0000000000 3.917431197901283e-02 -1.493948329689147e-02 4.286107350541928e-02 -1.297707283711754e-02 8.565519184105548e-02 -1.236158419583117e-01 6.287608177169394e-01 2.295415411214106e-01
            4.281695887829069e-02 -1.302613918838337e-02 3.908955088000971e-02 -1.490698103506996e-02 6.287376109101648e-01 2.295949275445313e-01 8.560936624186986e-02 -1.236682303944247e-01
            8.556227083030396e-02 -1.235866809457120e-01 6.287031855997205e-01 2.296088183962905e-01 3.747173150942816e-02 -1.790176974523708e-02 4.012156789737055e-02 -1.386744400140781e-02
            6.287375712724252e-01 2.295714360134547e-01 8.565760672561140e-02 -1.236485596849910e-01 4.018508236561646e-02 -1.393468240649062e-02 3.749918388504622e-02 -1.797093776812447e-02
273227500.0000000000 4.041401586640064e-02 1.504467649077723e-02 4.431791591032853e-02 1.801263203756669e-02 3.584501068542643e-02 -1.528802589206954e-01 6.671213919780915e-01 -9.661382211076019e-03
            4.427604496003968e-02 1.798416785423115e-02 4.037216451281150e-02 1.498956948650783e-02 6.671562989893035e-01 -9.667694803786554e-03 3.585960551374469e-02 -1.528789824872347e-01
            3.580395727860560e-02 -1.528727849516384e-01 6.671405595913873e-01 -9.673322528026190e-03 4.079192480572336e-02 1.227258887587205e-02 4.225214019418778e-02 1.751734360170340e-02
            6.671509564926148e-01 -9.667204599243431e-03 3.583191239209138e-02 -1.529388186100324e-01 4.226600991848427e-02 1.739294747217604e-02 4.087537830634263e-02 1.226551331175376e-02
274060000.0000000000 6.134110862169691e-02 3.584484843558660e-02 6.621232756220286e-02 3.964812931870208e-02 -2.489497110753712e-02 -1.596697331585736e-01 6.164652882986226e-01 -2.438536533987436e-01
            6.626392599626636e-02 3.965427491389660e-02 6.125155199948789e-02 3.589088852339594e-02 6.164612222059350e-01 -2.437718857127184e-01 -2.495832295483881e-02 -1.596801301526370e-01
            -2.496091901381188e-02 -1.596365230639013e-01 6.165676686048208e-01 -2.437888749490386e-01 6.367420385856074e-02 3.167885571010520e-02 6.465308471434322e-02 3.891736640779780e-02
            6.165365330353505e-01 -2.438044238772147e-01 -2.493042837785562e-02 -1.596956559623690e-01 6.466780375446027e-02 3.887019296145675e-02 6.371001621922069e-02 3.169538016626187e-02
274892500.0000000000 9.001877703458479e-02 3.718421398370023e-02 9.657817028082860e-02 4.094697909054891e-02 -8.391772518920412e-02 -1.406502893650969e-01 4.882983690628660e-01 -4.414204152332539e-01
            9.659205554401555e-02 4.089290519802661e-02 9.005874043892141e-02 3.726252239448943e-02 4.883584668036578e-01 -4.414272325062895e-01 -8.384177774296958e-02 -1.406217607938721e-01
            -8.389788933500857e-02 -1.406368028505972e-01 4.883798949390297e-01 -4.415015691906979e-01 9.326856960678762e-02 3.052224743922276e-02 9.507697333989699e-02 3.979021219500348e-02
            4.884317247006308e-01 -4.414444242898862e-01 -8.391142071240451e-02 -1.406330991726656e-01 9.508903307283577e-02 3.977082214691970e-02 9.325520829877987e-02 3.051443531845804e-02
275725000.0000000000 1.119822173140052e-01 1.972620917079446e-02 1.198981560313747e-01 2.216110479414892e-02 -1.296060817295299e-01 -1.007672316304929e-01 3.029282651245197e-01 -5.807309159210970e-01
            1.198457906716716e-01 2.207230692193522e-02 1.120425530022609e-01 1.956730182746572e-02 3.028782418380047e-01 -5.806822890244900e-01 -1.296427089925418e-01 -1.007241890923108e-01
            -1.296631056771427e-01 -1.006568289076324e-01 3.029160120817607e-01 -5.806618860753151e-01 1.143699091985336e-01 1.017306752980254e-02 1.179469505534555e-01 2.082058069137788e-02
            3.028853688773080e-01 -5.806559220867761e-01 -1.296734207139153e-01 -1.007643798890182e-01 1.179151692730590e-01 2.081793454875105e-02 1.143397039601024e-01 1.013195227414615e-02
276557500.0000000000 1.169166937732938e-01 -7.675696462296299e-03 1.252295296635302e-01 -7.103850280400343e-03 -1.567775777233102e-01 -4.904039810118863e-02 8.264477727035545e-02 -6.486904697724456e-01
            1.251859859256979e-01 -7.074452854601604e-03 1.168951830577058e-01 -7.566630773081794e-03 8.260862928199299e-02 -6.486588037809122e-01 -1.567736853358047e-01 -4.908851411591809e-02
            -1.567498596345532e-01 -4.898731070267167e-02 8.267896311009842e-02 -6.486810628050044e-01 1.169830928505440e-01 -1.914966682713191e-02 1.226844626660944e-01 -8.204334274388070e-03
            8.265926267140135e-02 -6.486596881432211e-01 -1.567980381701573e-01 -4.901299570325379e-02 1.226365101209509e-01 -8.136317071467182e-03 1.170433309724684e-01 -1.901354433350655e-02
277390000.0000000000 1.028751863110364e-01 -3.139236515624946e-02 1.101072251662906e-01 -3.290001301850862e-02 -1.657045687719484e-01 7.002857477588770e-03 -1.486087176774510e-01 -6.379320326307091e-01
            1.101206733404119e-01 -3.286077307495416e-02 1.028921054982211e-01 -3.142309386208098e-02 -1.485295497023581e-01 -6.379918275995105e-01 -1.656929964823989e-01 7.026248763157611e-03
            -1.656044276434810e-01 7.046317140088711e-03 -1.485286771861629e-01 -6.380307728426092e-01 9.999560796117987e-02 -4.325446672952405e-02 1.073663550602980e-01 -3.315901487007931e-02
            -1.484862174960257e-01 -6.380044610007369e-01 -1.656405244901240e-01 7.028816451625857e-03 1.074206578589003e-01 -3.315210044787333e-02 1.000117478630669e-01 -4.316524484210416e-02
278222500.0000000000 7.626686425864795e-02 -4.025273001833975e-02 8.141185287335836e-02 -4.271335787082747e-02 -1.572572858175725e-01 6.362345428941862e-02 -3.644329673433367e-01 -5.470809933683262e-01
            8.143262746493750e-02 -4.276320070501979e-02 7.629792072318227e-02 -4.027765416265331e-02 -3.644079879217197e-01 -5.470530601471527e-01 -1.571625612648604e-01 6.363387156318659e-02
            -1.572588261331051e-01 6.367288867949676e-02 -3.643538017660334e-01 -5.470286201372068e-01 7.104034660558339e-02 -5.057252993627795e-02 7.904397494600754e-02 -4.201818934154729e-02
            -3.644753794257622e-01 -5.469393009280544e-01 -1.573152092947264e-01 6.370339827845536e-02 7.909415789539541e-02 -4.209910742580615e-02 7.106837026248929e-02 -5.048986856106829e-02
279055000.0000000000 5.009675140054214e-02 -2.895948390343924e-02 5.296999727604523e-02 -3.090704728145829e-02 -1.304202388281698e-01 1.177628112196304e-01 -5.357861028596604e-01 -3.830338493380509e-01
            5.294197980938310e-02 -3.080566340703486e-02 5.010175802198664e-02 -2.892747146721208e-02 -5.358937197479547e-01 -3.830612764123908e-01 -1.304217060032925e-01 1.177595889014350e-01
            -1.305186864824256e-01 1.177712194054891e-01 -5.358922190854557e-01 -3.831461404721200e-01 4.406584581126261e-02 -3.675300719534446e-02 5.174818852045259e-02 -2.955164704907159e-02
            -5.359305066367712e-01 -3.830619794266524e-01 -1.303948754658354e-01 1.178378128928535e-01 5.179640199281951e-02 -2.957135991583048e-02 4.411172373998595e-02 -3.679116211227867e-02
279887500.0000000000 3.832432385948827e-02 -2.672409731673579e-03 3.951787756687682e-02 -2.772301547976177e-03 -8.317849427845275e-02 1.626369665122144e-01 -6.366013385968369e-01 -1.667167913153165e-01
            3.958117005347722e-02 -2.734940371760018e-03 3.832705660087224e-02 -2.626939591132287e-03 -6.365408425323859e-01 -1.666300583038245e-01 -8.313718449210492e-02 1.625757246592045e-01
            -8.313256579784219e-02 1.625962336398130e-01 -6.365440114946481e-01 -1.666961533328415e-01 3.344208196954201e-02 -8.367788204387647e-03 3.998662281048491e-02 -1.744545268210538e-03
            -6.365611183325290e-01 -1.667234581495260e-01 -8.308147786110485e-02 1.627000979385713e-01 4.002580143702539e-02 -1.690593774930825e-03 3.346845944534795e-02 -8.352723098422214e-03
280720000.0000000000 4.727403782452479e-02 2.467624663406031e-02 4.853324327224377e-02 2.706074282267067e-02 -1.831914865993211e-02 1.877239776421218e-01 -6.509948583241338e-01 7.041962977105128e-02
            4.854693439989548e-02 2.706998679467679e-02 4.725988458136041e-02 2.462709222940489e-02 -6.510099234262767e-01 7.040192495998372e-02 -1.820797212316459e-02 1.877310323760112e-01
            -1.825142545250483e-02 1.876498626605012e-01 -6.509688230964655e-01 7.042581044925257e-02 4.501341815238202e-02 1.915273699635482e-02 5.035942842150173e-02 2.647390695385958e-02
            -6.509370118016750e-01 7.042023272586630e-02 -1.821223491249880e-02 1.876682800621457e-01 5.037412798821734e-02 2.649405649719443e-02 4.503621099515530e-02 1.916614939339568e-02
281552500.0000000000 7.181710170065961e-02 3.840144510408101e-02 7.464634000133681e-02 4.293758400706475e-02 5.359573157659141e-02 1.845298136303783e-01 -5.801659879922687e-01 2.934214316798293e-01
            7.463088449206896e-02 4.298866132328720e-02 7.177741914505897e-02 3.850990543819181e-02 -5.801390350712126e-01 2.934635596035181e-01 5.372124892044571e-02 1.845091753638000e-01
            5.370169381864591e-02 1.844690607516479e-01 -5.802219578696314e-01 2.934113156533441e-01 7.190632832903347e-02 3.114263965411789e-02 7.682119333512613e-02 3.974039890411044e-02
            -5.801573985684624e-01 2.935161714932021e-01 5.375745972784805e-02 1.845928772558579e-01 7.686496603408162e-02 3.975919446033679e-02 7.188701246850056e-02 3.114119318294476e-02
282385000.0000000000 9.840784151970118e-02 3.275142344974152e-02 1.038543598954282e-01 3.775903385148494e-02 1.183788301584513e-01 1.529877566881180e-01 -4.381836380205583e-01 4.744884740882708e-01
            1.039588100289048e-01 3.776122656537243e-02 9.843968236765339e-02 3.277729962862557e-02 -4.381628184784625e-01 4.744469739996362e-01 1.184332095995203e-01 1.530236153815882e-01
            1.184534222798852e-01 1.530743175335719e-01 -4.381142334953059e-01 4.744918733304138e-01 9.922824446983450e-02 2.154730122757647e-02 1.048198148410093e-01 3.178488694648498e-02
            -4.380381448811198e-01 4.744721469491507e-01 1.183304857529264e-01 1.530760980447407e-01 1.047756344873334e-01 3.181597090212274e-02 9.923366106884568e-02 2.160506696925326e-02
283217500.0000000000 1.142706586299780e-01 1.167251655695338e-02 1.221116189163996e-01 1.542789656342415e-02 1.653790334942491e-01 1.009003800402078e-01 -2.450967180066620e-01 5.947905841103208e-01
            1.220917994674827e-01 1.545077112727517e-02 1.142782513329859e-01 1.166141269610723e-02 -2.452305816767558e-01 5.948476675147878e-01 1.654263685790013e-01 1.007984942584923e-01
            1.654262632035495e-01 1.008922414151366e-01 -2.452094589062120e-01 5.948296240111576e-01 1.131623492478436e-01 -3.908795121577970e-03 1.201282571512132e-01 7.361407925140622e-03
            -2.451816183467747e-01 5.948294989450218e-01 1.653466050740241e-01 1.008996380907555e-01 1.201743512958736e-01 7.264278340445613e-03 1.131275835008772e-01 -3.827382823653922e-03
284050000.0000000000 1.124969980118111e-01 -1.395046553056946e-02 1.213607486329378e-01 -1.276336806713126e-02 1.907060229358864e-01 3.759117361741656e-02 -2.349054072495391e-02 6.427553395823059e-01
            1.213326355165686e-01 -1.277479290464281e-02 1.124640537199946e-01 -1.393778577868284e-02 -2.342786525652547e-02 6.428026183117745e-01 1.907355477139539e-01 3.763160676187018e-02
            1.907042565081929e-01 3.764386519140216e-02 -2.337590886264766e-02 6.427121772639449e-01 1.066290307960823e-01 -3.259007673831068e-02 1.154535226892207e-01 -2.147284746424226e-02
            -2.339390361790987e-02 6.427790158307529e-01 1.907126482002144e-01 3.762122917593651e-02 1.153906729515587e-01 -2.144853530735212e-02 1.067042707836193e-01 -3.259135451350110e-02
284882500.0000000000 9.447495108322909e-02 -3.179388152281935e-02 1.024798063043530e-01 -3.323423045749133e-02 1.946651472305990e-01 -2.956965336274830e-02 2.031700056900513e-01 6.117858740212253e-01
            1.024933215580243e-01 -3.320318258961367e-02 9.449624198098952e-02 -3.178654187126128e-02 2.031466650349480e-01 6.117602640001082e-01 1.945855266418393e-01 -2.963180022083805e-02
            1.945403394098228e-01 -2.955505154896594e-02 2.031281173693534e-01 6.117464521805787e-01 8.225475306204710e-02 -5.081901228268575e-02 9.231689775734579e-02 -4.055332698526899e-02
            2.032535004070479e-01 6.117290433437285e-01 1.946836818575718e-01 -2.960314196095798e-02 9.233613849884680e-02 -4.063849708136142e-02 8.227161594971352e-02 -5.076752531522991e-02
285715000.0000000000 6.931235696753989e-02 -3.290580171072052e-02 7.500799787294628e-02 -3.572240539827581e-02 1.771696903942026e-01 -9.636951082218234e-02 4.071576032731354e-01 5.019536245944975e-01
            7.505036084451745e-02 -3.580062387906963e-02 6.935289231828061e-02 -3.285805975326643e-02 4.071110989347069e-01 5.020499747929575e-01 1.771331997169619e-01 -9.628800812545139e-02
            1.771096598170603e-01 -9.634914155050124e-02 4.070824736592498e-01 5.020578380398764e-01 5.076845631874483e-02 -4.881385059233338e-02 6.113462855280628e-02 -3.996857649308403e-02
            4.071098114439113e-01 5.020654399890329e-01 1.771772636152361e-01 -9.635316560438122e-02 6.119771361070253e-02 -3.999496740639299e-02 5.077964873848427e-02 -4.876626182786070e-02
286547500.0000000000 5.036723785970953e-02 -1.642315192833459e-02 5.329194001313561e-02 -1.878080163810562e-02 1.366424693543050e-01 -1.569367125088609e-01 5.593663985612827e-01 3.245672795116225e-01
            5.330549028253523e-02 -1.883373021619091e-02 5.038913787585418e-02 -1.643662622820788e-02 5.593088764978452e-01 3.245574529349132e-01 1.366904899267427e-01 -1.569719190588600e-01
            1.366665069366184e-01 -1.569712130116359e-01 5.593459245466459e-01 3.245773470331165e-01 2.778121879249255e-02 -2.600776993851164e-02 3.726362405082188e-02 -1.823121873380180e-02
            5.594254255790370e-01 3.244836980775290e-01 1.366906247061999e-01 -1.569385193539923e-01 3.725186858968231e-02 -1.817825010231607e-02 2.770895274606074e-02 -2.595856298301949e-02
287380000.0000000000 4.830202720028298e-02 8.426999582830287e-03 4.941610181249375e-02 8.381131984779406e-03 7.337270883783532e-02 -2.016478623019237e-01 6.362509988560165e-01 1.035871493303770e-01
            4.955166811657414e-02 8.319846543975100e-03 4.822663564865177e-02 8.420426756120853e-03 6.361800722285097e-01 1.035733935437742e-01 7.333478992127529e-02 -2.016219088236549e-01
            7.338545370925376e-02 -2.016483184361892e-01 6.361823540971293e-01 1.034861309091348e-01 2.531419923238520e-02 6.609624871799669e-03 3.350678712355620e-02 1.441385152758010e-02
            6.362195773703283e-01 1.036027558124065e-01 7.344527091746905e-02 -2.017116611309646e-01 3.348058861910658e-02 1.432392309685310e-02 2.524859101977215e-02 6.512525043296183e-03
288212500.0000000000 6.407192373362959e-02 2.752583627027922e-02 6.572679367225223e-02 3.039249046755057e-02 -5.739392002497699e-03 -2.193120525382156e-01 6.275080127314120e-01 -1.278606327528304e-01
            6.568854094181008e-02 3.040634456127730e-02 6.405143913562501e-02 2.751769368324378e-02 6.275864391006045e-01 -1.278254912236295e-01 -5.765351468092894e-03 -2.192999134038350e-01
            -5.746694117992029e-03 -2.192687185289469e-01 6.275805900476977e-01 -1.278900543783896e-01 4.467696761976044e-02 3.216162807124266e-02 5.176933252076220e-02 4.122089800354813e-02
            6.274921111976418e-01 -1.278541267013762e-01 -5.754169919985424e-03 -2.192769465606198e-01 5.172217478270648e-02 4.125469032343558e-02 4.475418681657411e-02 3.216734975135935e-02
289045000.0000000000 8.833601555255123e-02 3.009887388944658e-02 9.255298970672282e-02 3.509241318007099e-02 -8.672707979043130e-02 -2.041511645920044e-01 5.387520531694936e-01 -3.376371948392961e-01
            9.262423332366482e-02 3.510194464283282e-02 8.831444387409300e-02 3.012500408129771e-02 5.387071984218021e-01 -3.375401931565420e-01 -8.670424561910649e-02 -2.041910797350724e-01
            -8.666206366926923e-02 -2.041971271582124e-01 5.386486281581812e-01 -3.375595931375380e-01 7.518311209933229e-02 3.816949767169062e-02 8.199571590135613e-02 4.950934750332225e-02
            5.386891691869842e-01 -3.375496665729946e-01 -8.663545806358121e-02 -2.041778098216020e-01 8.203569794122295e-02 4.949206082293801e-02 7.520144557048138e-02 3.825941077073981e-02
289877500.0000000000 1.076056305917369e-01 1.546144732580149e-02 1.156862292304866e-01 2.009166581691201e-02 -1.548870598085709e-01 -1.598236033373380e-01 3.852762262740562e-01 -5.011811324390935e-01
            1.156991837585017e-01 2.015476185467743e-02 1.076160921805965e-01 1.549876919344003e-02 3.851974190654571e-01 -5.011779666359497e-01 -1.549004184251725e-01 -1.596987274595376e-01
            -1.549410866439364e-01 -1.597749711669917e-01 3.852749738691305e-01 -5.010877649798435e-01 1.009168182963710e-01 2.306337643396646e-02 1.091451076893489e-01 3.692410415765431e-02
            3.852331645123297e-01 -5.012740231404140e-01 -1.549065045126245e-01 -1.598246449293957e-01 1.091348361353370e-01 3.686930627942608e-02 1.010130356571439e-01 2.309056171282718e-02
290710000.0000000000 1.119463531648097e-01 -8.559674169294351e-03 1.231388238464134e-01 -6.860036520054437e-03 -2.013512779185957e-01 -9.536361717495954e-02 1.868530588199502e-01 -6.023282556688012e-01
            1.231828323613118e-01 -6.874868967691425e-03 1.119569946007609e-01 -8.509508618058733e-03 1.868890454642124e-01 -6.023340041228723e-01 -2.014295409843240e-01 -9.539774394951223e-02
            -2.014225732541650e-01 -9.544392481116920e-02 1.868746990428595e-01 -6.023393005002426e-01 1.101220336969698e-01 -4.562988910736687e-03 1.208248852402827e-01 1.116008607500203e-02
            1.869355781950595e-01 -6.023941938185140e-01 -2.014461226213059e-01 -9.546703916244359e-02 1.208570601256038e-01 1.113227485792542e-02 1.100835070408212e-01 -4.461247254448223e-03
291542500.0000000000 9.868849561540974e-02 -2.980687507592029e-02 1.108000181409103e-01 -3.307025654472408e-02 -2.233790974028822e-01 -2.066211541639203e-02 -3.473086818683752e-02 -6.303039187881486e-01
            1.108691865125135e-01 -3.300924473165005e-02 9.871279682507540e-02 -2.977120337858352e-02 -3.463159247586602e-02 -6.303105300019624e-01 -2.234515683304363e-01 -2.071859477101922e-02
            -2.233241235265445e-01 -2.068847446415295e-02 -3.469350781499541e-02 -6.301595332573539e-01 9.864370549814401e-02 -3.094310933876065e-02 1.130070205915594e-01 -1.470815444918604e-02
            -3.465656303073480e-02 -6.302905282149404e-01 -2.233176616711889e-01 -2.073523340142730e-02 1.129955051647170e-01 -1.474494538173154e-02 9.863896343444403e-02 -3.092453884367975e-02
292375000.0000000000 7.372431932858840e-02 -3.704725682405372e-02 8.327407603868447e-02 -4.541156534731965e-02 -2.206584986639289e-01 5.754101604495977e-02 -2.545345347565858e-01 -5.792162481480794e-01
            8.332650033985764e-02 -4.539548530156776e-02 7.375506417107268e-02 -3.687996879842783e-02 -2.545908960212113e-01 -5.791996703338501e-01 -2.206436869134197e-01 5.754997452026177e-02
            -2.206283765671170e-01 5.751962228315993e-02 -2.545835469886544e-01 -5.792930334131237e-01 7.229833544674617e-02 -4.306221371159395e-02 9.016749579388789e-02 -2.793940837002328e-02
            -2.546371443192330e-01 -5.791825207725595e-01 -2.206087700002275e-01 5.754752208804966e-02 9.014802644742045e-02 -2.785753986468882e-02 7.229003075739517e-02 -4.300351478278861e-02
293207500.0000000000 4.922608340814914e-02 -2.498859981210611e-02 5.326556234595616e-02 -3.660739842918986e-02 -1.919971078138563e-01 1.333933156283524e-01 -4.440590818639701e-01 -4.518662218687221e-01
            5.327029848512386e-02 -3.661545873097424e-02 4.929559281178963e-02 -2.493948762610348e-02 -4.440202303849954e-01 -4.517636116023519e-01 -1.919650794856965e-01 1.333151620066026e-01
            -1.919613153830774e-01 1.333948346075783e-01 -4.440420091601144e-01 -4.518024098486788e-01 4.397392476851517e-02 -3.418267280715317e-02 6.475409066966634e-02 -2.112309039882056e-02
            -4.440804440588078e-01 -4.518635845155240e-01 -1.919969998632370e-01 1.333142665239603e-01 6.483811786247951e-02 -2.117315311692218e-02 4.400878860097818e-02 -3.410510255611746e-02
294040000.0000000000 3.884176581589780e-02 1.508288156611056e-03 3.583389520405002e-02 -9.551866368403971e-03 -1.359355108033647e-01 1.981515602887260e-01 -5.748389610360484e-01 -2.632573834538952e-01
            3.593950786103939e-02 -9.621448938376600e-03 3.891684701353455e-02 1.539968988549407e-03 -5.747679825009545e-01 -2.632741321906104e-01 -1.360434250391254e-01 1.982378324797705e-01
            -1.361358248512543e-01 1.982447938151245e-01 -5.748883564711287e-01 -2.632854012562668e-01 2.890441058873699e-02 -8.063747030385230e-03 5.154862646942967e-02 2.172326688088953e-03
            -5.748138680523902e-01 -2.632667964803295e-01 -1.360603298026040e-01 1.981832094141128e-01 5.164676991400749e-02 2.131124802809203e-03 2.888784126743187e-02 -8.053841582622519e-03
294872500.0000000000 4.950649056972379e-02 2.897393706536378e-02 4.039474090475102e-02 2.226283121040100e-02 -5.608341982180633e-02 2.396991419621586e-01 -6.272398408113643e-01 -4.130687837002214e-02
            4.045901422322179e-02 2.216630246996322e-02 4.948365485200287e-02 2.887913903002700e-02 -6.272279681797495e-01 -4.131128652284823e-02 -5.615809892224387e-02 2.396217761089886e-01
            -5.610673202597535e-02 2.395415133251241e-01 -6.272035392922131e-01 -4.133592540552380e-02 3.551667881837793e-02 2.148512315890199e-02 5.905050334266216e-02 2.878275740355428e-02
            -6.271657325223521e-01 -4.135395295117440e-02 -5.614781571850561e-02 2.396461296247131e-01 5.910113698377628e-02 2.874029580210312e-02 3.547668907312495e-02 2.151716439595468e-02
295705000.0000000000 7.605371712923666e-02 4.239306413700737e-02 6.414681917579217e-02 4.296035063080113e-02 3.606702051355429e-02 2.468412676555629e-01 -5.965901922814609e-01 1.810652524283701e-01
            6.413133151146731e-02 4.294274562244902e-02 7.608784913648084e-02 4.239964847134391e-02 -5.965248862561879e-01 1.810417767670076e-01 3.600045800724691e-02 2.468826303892264e-01
            3.599428618278724e-02 2.469179609817742e-01 -5.965913599345176e-01 1.810055668589894e-01 5.995438679713801e-02 3.869743251537608e-02 8.374040912147525e-02 4.323030730808684e-02
            -5.965284853058762e-01 1.809986652463618e-01 3.601848339373913e-02 2.468726880169943e-01 8.374822231678460e-02 4.318082994410267e-02 5.988632753451407e-02 3.873743340908389e-02
296537500.0000000000 1.050391831491809e-01 3.497600358983897e-02 9.435328717776352e-02 4.347639972750500e-02 1.237520902673132e-01 2.178723398662421e-01 -4.921780694962571e-01 3.749796147560177e-01
            9.441622277683075e-02 4.342074903720983e-02 1.050494121696738e-01 3.495071798785707e-02 -4.921155525450049e-01 3.749426162521990e-01 1.237433136012239e-01 2.178522907733899e-01
            1.237289608610295e-01 2.178845680736815e-01 -4.920496761309886e-01 3.749806334623387e-01 8.888089411661464e-02 3.530685709815091e-02 1.125872714200231e-01 3.723783444658064e-02
            -4.921785181634308e-01 3.749366979734757e-01 1.237665736404777e-01 2.178634271870746e-01 1.125362226278151e-01 3.730855795272381e-02 8.886533017834056e-02 3.529768384018956e-02
297370000.0000000000 1.222580290894124e-01 1.070313646982990e-02 1.169118942796303e-01 2.517880000354471e-02 1.930422675489702e-01 1.595717313790910e-01 -3.300719430076449e-01 5.198543117186476e-01
            1.169360321984992e-01 2.520710904458030e-02 1.222603239673568e-01 1.066603783550157e-02 -3.301708919430310e-01 5.199308696915254e-01 1.930118260413377e-01 1.596051952619806e-01
            1.929717228029015e-01 1.595852962124278e-01 -3.301251565168675e-01 5.199103787210292e-01 1.076242411853589e-01 1.414408734645314e-02 1.311231146523485e-01 1.357059793086803e-02
            -3.302027162535007e-01 5.199575438470408e-01 1.929762498144587e-01 1.595551795377312e-01 1.311619929918309e-01 1.350779544645417e-02 1.076326771159628e-01 1.415075560679014e-02
298202500.0000000000 1.199642364443818e-01 -1.913910568824956e-02 1.221095721012622e-01 -2.067119302385327e-03 2.364015816693132e-01 8.279698169206517e-02 -1.292740876290895e-01 6.016173653029132e-01
            1.222210497375508e-01 -2.067340316584054e-03 1.199407180686600e-01 -1.901093101533985e-02 -1.292699046372345e-01 6.016445979928898e-01 2.364972633162531e-01 8.288091501148273e-02
            2.364823411604619e-01 8.288745848697880e-02 -1.292099094299915e-01 6.016871683430253e-01 1.077901239473413e-01 -1.378834802286537e-02 1.306746774803900e-01 -1.720700195162995e-02
            -1.293463223295289e-01 6.016133345864388e-01 2.364547526881128e-01 8.289495137960934e-02 1.306767861005502e-01 -1.727037453232826e-02 1.077974528743152e-01 -1.378086548290931e-02
299035000.0000000000 9.901080752860343e-02 -4.066380279519104e-02 1.085796079157295e-01 -2.540625220039178e-02 2.525673655103799e-01 -2.706612746003834e-03 8.903033711240606e-02 6.102335836450461e-01
            1.086203242567815e-01 -2.542891644136693e-02 9.897463299555112e-02 -4.054957156292614e-02 8.905780839499912e-02 6.102100745507810e-01 2.525445321647367e-01 -2.726971764030629e-03
            2.525136588718333e-01 -2.751864853358395e-03 8.900459228357820e-02 6.101999332075326e-01 8.917252783565914e-02 -3.493083092478655e-02 1.105239087214498e-01 -4.131080132735585e-02
            8.915103982494962e-02 6.102169802594269e-01 2.525950531235497e-01 -2.691966800305627e-03 1.106354067777757e-01 -4.139146394126896e-02 8.926538812594938e-02 -3.493271611994067e-02
299867500.0000000000 6.852044687572020e-02 -4.361379082141888e-02 8.335997855633862e-02 -3.345331247195488e-02 2.405896015426441e-01 -9.022654841840463e-02 2.994006264080060e-01 5.410147564098280e-01
            8.332961462255147e-02 -3.345752592536676e-02 6.854381495012712e-02 -4.365096316916741e-02 2.994138083789626e-01 5.411188872851850e-01 2.406972830699692e-01 -9.015800310227727e-02
            2.406631040791823e-01 -9.020973444764922e-02 2.993944993023010e-01 5.410725907375299e-01 6.050106149154294e-02 -3.811694725141139e-02 7.938580730287599e-02 -4.734194376267791e-02
            2.993851948426891e-01 5.411068410072813e-01 2.406804782517226e-01 -9.020608792232682e-02 7.945090954397517e-02 -4.731693960497426e-02 6.055659185570666e-02 -3.811211931537958e-02
300700000.0000000000 4.332126031433228e-02 -2.569289533193261e-02 5.969447695597794e-02 -2.171498660447718e-02 1.991428405812816e-01 -1.723384109598091e-01 4.725943367511069e-01 3.991624040725650e-01
            5.971183944650205e-02 -2.177291545922042e-02 4.333742931721412e-02 -2.563321863543339e-02 4.726009835623313e-01 3.992296168340840e-01 1.991031584571860e-01 -1.722636515303467e-01
            1.991585190121984e-01 -1.722746243503417e-01 4.726087718727339e-01 3.993066468968431e-01 3.632516071454397e-02 -2.047185232615136e-02 5.168838782189886e-02 -3.164453604400186e-02
            4.725992046651136e-01 3.992700278201283e-01 1.991304089813759e-01 -1.723881232661515e-01 5.172069432623169e-02 -3.171391058642455e-02 3.635448916123860e-02 -2.032954106468242e-02
301532500.0000000000 3.629148648965359e-02 4.823953174587838e-03 5.117715794681360e-02 3.148725795854742e-03 1.276709439463862e-01 -2.377761339703480e-01 5.818784219919988e-01 2.034957162452684e-01
            5.123148268904928e-02 3.175809178608617e-03 3.635648929192665e-02 4.767676662829226e-03 5.818510279319271e-01 2.035313867956588e-01 1.277249484152067e-01 -2.377954557182715e-01
            1.277479539934681e-01 -2.377418203896096e-01 5.819496522609118e-01 2.035550866362036e-01 3.054260438612011e-02 9.987266855954515e-03 4.140978596732737e-02 -2.042262803924286e-03
            5.818532746739006e-01 2.035900998787260e-01 1.277574615438887e-01 -2.377835571995601e-01 4.148793067850624e-02 -1.973084827970796e-03 3.047105497843533e-02 9.949097036845853e-03
302365000.0000000000 5.140318598155440e-02 3.186566176582458e-02 6.263643824219391e-02 2.681240208250546e-02 3.329727421869660e-02 -2.729070206910029e-01 6.117966694951229e-01 -1.611871727281590e-02
            6.273494746279913e-02 2.681843708563324e-02 5.145831768565664e-02 3.190999149266612e-02 6.117181342289502e-01 -1.614961323346017e-02 3.324471962708386e-02 -2.728519091030610e-01
            3.329003952577489e-02 -2.728665731320137e-01 6.117856184312984e-01 -1.619963761683388e-02 4.703208057994106e-02 3.692719493992429e-02 5.343849672291180e-02 2.602448946908183e-02
            6.117733981358654e-01 -1.613164102971472e-02 3.325379437513740e-02 -2.729117696656017e-01 5.342436524604546e-02 2.604884347572997e-02 4.701388363224068e-02 3.689558878100995e-02
303197500.0000000000 8.016097163418731e-02 4.181706827975057e-02 8.738945888874101e-02 3.595936085092282e-02 -6.893961363121935e-02 -2.686951586014126e-01 5.622316217863915e-01 -2.281421654473853e-01
            8.740624577740358e-02 3.597775899729787e-02 8.015025027482900e-02 4.185718831342535e-02 5.622303165057281e-01 -2.280685097965699e-01 -6.897504682817616e-02 -2.687190911999898e-01
            -6.898994594766139e-02 -2.687441058301376e-01 5.622349078906443e-01 -2.281242676806463e-01 7.734773816676421e-02 4.603023577102663e-02 8.022772050315996e-02 3.782499483017046e-02
            5.622089869446959e-01 -2.280913611242222e-01 -6.893158978106823e-02 -2.687901143435477e-01 8.024247937954937e-02 3.791680196711982e-02 7.738372309079397e-02 4.609071176739069e-02
304030000.0000000000 1.074765744885203e-01 3.074060464024999e-02 1.119825303373718e-01 2.587054416098422e-02 -1.612055092009961e-01 -2.262776906934982e-01 4.446636194346624e-01 -4.067315689373017e-01
            1.119842288420367e-01 2.589272320270375e-02 1.074764910989578e-01 3.073123873421739e-02 4.446923834231368e-01 -4.066388944122329e-01 -1.611900486715791e-01 -2.263175685976220e-01
            -1.611971381782862e-01 -2.262619005949026e-01 4.446228950897385e-01 -4.066777606951699e-01 1.061660461484961e-01 3.339468359037255e-02 1.069447618721414e-01 2.907497775729133e-02
            4.446650955783052e-01 -4.067080284378222e-01 -1.612307636582777e-01 -2.263494729997968e-01 1.069528534221397e-01 2.901773189285785e-02 1.061346123239629e-01 3.340968779387807e-02
304862500.0000000000 1.206003941666594e-01 5.242234464202474e-03 1.239213373892848e-01 1.916414343515506e-03 -2.303945337155409e-01 -1.550236965174330e-01 2.752363113774312e-01 -5.337306364783693e-01
            1.240321532654202e-01 2.007381012372041e-03 1.205379976145733e-01 5.213476785800354e-03 2.752924932330000e-01 -5.337170217997032e-01 -2.303952819915997e-01 -1.549969655525285e-01
            -2.303591223033860e-01 -1.549123013209686e-01 2.752539775889318e-01 -5.337499440590986e-01 1.198327489809104e-01 5.396037507876561e-03 1.205795340430621e-01 5.081070106619729e-03
            2.752872990280801e-01 -5.337772698950531e-01 -2.304133776238613e-01 -1.549819518740377e-01 1.205493729431470e-01 5.049846719967719e-03 1.197470074062103e-01 5.458789356217619e-03
305695000.0000000000 1.139924777889060e-01 -2.213313518883787e-02 1.175091846179617e-01 -2.451064165924242e-02 -2.703967481011392e-01 -6.625587356668661e-02 7.257574071820913e-02 -5.963321294347627e-01
            1.174282336886072e-01 -2.443412287384951e-02 1.139842773844013e-01 -2.218243166450270e-02 7.264840679559727e-02 -5.962518610314081e-01 -2.704809462847915e-01 -6.633736295675974e-02
            -2.704543098150743e-01 -6.629326205384023e-02 7.269623937963110e-02 -5.962268081900682e-01 1.124643838168087e-01 -2.466408879543600e-02 1.146204895876585e-01 -2.169259072206172e-02
            7.270385124709305e-02 -5.962916226590498e-01 -2.704144509314805e-01 -6.627657313420923e-02 1.147207576431242e-01 -2.167764410350157e-02 1.124107572218339e-01 -2.469212595873987e-02
306527500.0000000000 9.117444909761629e-02 -3.823337618949865e-02 9.496577589005437e-02 -4.076293753193278e-02 -2.796364819307478e-01 3.042329199008252e-02 -1.414102075481939e-01 -5.853702667817261e-01
            9.490792315944913e-02 -4.080755353107750e-02 9.120803332994294e-02 -3.824251219565358e-02 -1.414077999091096e-01 -5.853315568297620e-01 -2.796547759602256e-01 3.030204090147134e-02
            -2.796260568856006e-01 3.030373959896844e-02 -1.413362794047893e-01 -5.853332579671693e-01 8.737037565048951e-02 -4.304736025797344e-02 9.217254872125669e-02 -3.818114467874884e-02
            -1.412917807632146e-01 -5.853463186490777e-01 -2.796074973489562e-01 3.041892040042742e-02 9.212691054125906e-02 -3.810795254946424e-02 8.743931640388242e-02 -4.303024642880127e-02
307360000.0000000000 6.327348121795939e-02 -3.477686013442644e-02 6.675311019835688e-02 -3.842378668939467e-02 -2.567963213752869e-01 1.268946483013951e-01 -3.401805681878342e-01 -4.981344989970100e-01
            6.670825305216596e-02 -3.851008220173936e-02 6.338948758707644e-02 -3.485442499005459e-02 -3.401730821513587e-01 -4.981446937514049e-01 -2.567657265745492e-01 1.269195441446061e-01
            -2.568179488777375e-01 1.269084678754145e-01 -3.401383360585304e-01 -4.981061212114858e-01 5.614870691552343e-02 -4.042073573776290e-02 6.353671081465401e-02 -3.512683772369819e-02
            -3.401990822207956e-01 -4.981739811681352e-01 -2.567881166257209e-01 1.269373894381639e-01 6.348448882816110e-02 -3.518192952877518e-02 5.620638492877062e-02 -4.037523732996459e-02
308192500.0000000000 4.516906479868570e-02 -1.309664127695372e-02 4.703994546664244e-02 -1.769957399191741e-02 -2.003943002022776e-01 2.136780722284125e-01 -4.949122972523113e-01 -3.435293776511537e-01
            4.708669284750340e-02 -1.766643456880022e-02 4.514951313679324e-02 -1.310117329751750e-02 -4.948180087937559e-01 -3.434825074450661e-01 -2.003852267169396e-01 2.136691845914724e-01
            -2.002810332576181e-01 2.137640926540038e-01 -4.949402900708190e-01 -3.435333127817403e-01 3.442219793759439e-02 -1.749952279240772e-02 4.389983280098549e-02 -1.300582412717005e-02
            -4.948732297210532e-01 -3.434827769331297e-01 -2.004136371499054e-01 2.136926343154689e-01 4.381178147030478e-02 -1.300840419923997e-02 3.443313908796724e-02 -1.750755776520217e-02
309025000.0000000000 4.727016519943260e-02 1.538673309030917e-02 4.660400288512470e-02 1.084623630344306e-02 -1.126777956253220e-01 2.768445619166462e-01 -5.814303820481971e-01 -1.436323811413241e-01
            4.658489358514286e-02 1.084762575166677e-02 4.718736116418396e-02 1.534235802119698e-02 -5.814927715686642e-01 -1.436902417859413e-01 -1.125874531942316e-01 2.769262504222918e-01
            -1.126780168949872e-01 2.769241165933747e-01 -5.815378885194159e-01 -1.436699553788111e-01 3.388670608791385e-02 1.408286450630385e-02 4.420202939773449e-02 1.708816398841337e-02
            -5.815125062808533e-01 -1.436297636522646e-01 -1.126485945134872e-01 2.768794254396287e-01 4.422850567163081e-02 1.713209060965615e-02 3.381080248911030e-02 1.413205964854981e-02
309857500.0000000000 6.843170250454421e-02 3.473437651737477e-02 6.536975200060680e-02 3.171475320564720e-02 -4.537896234168374e-03 3.027789956174020e-01 -5.896580163306019e-01 7.065433270975838e-02
            6.540028199903063e-02 3.183734409134152e-02 6.850376786952524e-02 3.470747801885783e-02 -5.896456501795323e-01 7.058599844075003e-02 -4.542332207195761e-03 3.027948377669570e-01
            -4.501091232365268e-03 3.028719370112220e-01 -5.895673930678647e-01 7.070673221924950e-02 5.442116652115651e-02 3.759932678312345e-02 6.485597682234129e-02 3.922127883048698e-02
            -5.895647753088060e-01 7.064400666172106e-02 -4.559155228265096e-03 3.027775459830970e-01 6.493955214945744e-02 3.920224509424911e-02 5.440359862573946e-02 3.753935375338355e-02
310690000.0000000000 9.713716803771877e-02 3.452274247100272e-02 9.293735967300981e-02 3.423078657891688e-02 1.057547620234092e-01 2.852810885458266e-01 -5.230767572109206e-01 2.700319233710718e-01
            9.287609180147879e-02 3.432614293082131e-02 9.724060504537337e-02 3.451610553430757e-02 -5.231237954983516e-01 2.700427835730805e-01 1.057519505659358e-01 2.853391890940460e-01
            1.057764157291014e-01 2.852908077318640e-01 -5.229757654167364e-01 2.699995319720968e-01 8.461908632961537e-02 4.133924070221547e-02 9.454665605773556e-02 4.215770743000827e-02
            -5.230846193683119e-01 2.700577685800000e-01 1.058110740606995e-01 2.852994030586044e-01 9.461932916754635e-02 4.216020426153010e-02 8.459559165012834e-02 4.127680794503908e-02
311522500.0000000000 1.185818407095116e-01 1.516695915063076e-02 1.145951667934453e-01 1.810100124733846e-02 2.003088803297590e-01 2.288686070476883e-01 -3.945274596310177e-01 4.321150079518531e-01
            1.146385561740678e-01 1.807159104744960e-02 1.186346485100843e-01 1.512047677755796e-02 -3.944932168228889e-01 4.321786597504391e-01 2.003232017521499e-01 2.288940267139494e-01
            2.003757712915352e-01 2.288485896178198e-01 -3.945444299740976e-01 4.321068104004067e-01 1.091426666683566e-01 2.482005327300740e-02 1.184135112245928e-01 2.524545192321885e-02
            -3.945754251049906e-01 4.321110124998334e-01 2.003359051498856e-01 2.289051370300521e-01 1.184705731805318e-01 2.527408502186913e-02 1.092015582448430e-01 2.484893502695294e-02
312355000.0000000000 1.223525603951414e-01 -1.372583141631680e-02 1.203501539507214e-01 -8.462838562247159e-03 2.674827730655132e-01 1.444943748012013e-01 -2.199544538212070e-01 5.409762817346472e-01
            1.203032057930365e-01 -8.425935005895306e-03 1.224195084535901e-01 -1.366658748540752e-02 -2.199034226332697e-01 5.409354856139212e-01 2.674525655009081e-01 1.446426708305172e-01
            2.675067332235107e-01 1.445786623627145e-01 -2.199588394621666e-01 5.409852302501311e-01 1.169019370727823e-01 -3.005908415866291e-03 1.257062277889446e-01 -2.456401762591629e-03
            -2.199612138847105e-01 5.409433645801054e-01 2.674784571374496e-01 1.446041184877014e-01 1.256677964242151e-01 -2.453708881261695e-03 1.169072356825787e-01 -3.022282658348023e-03
313187500.0000000000 1.063614792104297e-01 -3.859047288777603e-02 1.070373287285242e-01 -3.262447042805341e-02 3.022087605322233e-01 4.410501097554253e-02 -1.762600456852219e-02 5.844414204397551e-01
            1.071274593729515e-01 -3.274992341110550e-02 1.064295367226641e-01 -3.857015756777848e-02 -1.770813961583518e-02 5.844601042805148e-01 3.021829854320546e-01 4.412925818750459e-02
            3.022290559027285e-01 4.415174844953953e-02 -1.768061267820652e-02 5.845464451991240e-01 1.048156264170492e-01 -2.884053336925872e-02 1.134026013010848e-01 -2.797140196592352e-02
            -1.766155385082259e-02 5.844382763195074e-01 3.022283413750484e-01 4.416348885825425e-02 1.133780436240080e-01 -2.788736570860361e-02 1.048537508812481e-01 -2.876820222421635e-02
314020000.0000000000 7.767050842142978e-02 -4.742310184789632e-02 8.052460279476138e-02 -4.269016659126195e-02 3.027546233860477e-01 -6.267428033644588e-02 1.897529193875429e-01 5.545709186570353e-01
            8.050162064303733e-02 -4.262353031124256e-02 7.773043847089095e-02 -4.742594561016616e-02 1.897300734362291e-01 5.545303869248881e-01 3.027749374274628e-01 -6.273416441895774e-02
            3.026887768519071e-01 -6.271939702049929e-02 1.897780636297859e-01 5.545402034563435e-01 7.883417379465833e-02 -4.029863550651786e-02 8.750812368731202e-02 -3.917097655274814e-02
            1.897061400785346e-01 5.545502093720867e-01 3.026969031209614e-01 -6.277502933917310e-02 8.746789702910338e-02 -3.922133866757378e-02 7.886775427147417e-02 -4.026009323263190e-02
314852500.0000000000 4.944871817800638e-02 -3.506956039840622e-02 5.322210933350287e-02 -3.249382008260093e-02 2.671217382802080e-01 -1.667500756130943e-01 3.747077822969931e-01 4.510471877298134e-01
            5.319233482497530e-02 -3.243910630796649e-02 4.962473350263616e-02 -3.505871291315162e-02 3.747600973815689e-01 4.510853637410892e-01 2.671287216227934e-01 -1.667374237872633e-01
            2.670881994383589e-01 -1.667355045530622e-01 3.747784797017400e-01 4.510404038628296e-01 5.188325759188999e-02 -3.119820107067610e-02 6.072890271259396e-02 -3.013562080743204e-02
            3.747563111879853e-01 4.511067561074358e-01 2.671582347705368e-01 -1.667162251096048e-01 6.061780361972222e-02 -3.004718733130083e-02 5.189991772627232e-02 -3.123464909456058e-02
315685000.0000000000 3.669976448903636e-02 -6.772013630024056e-03 3.916182900146573e-02 -6.319978959705755e-03 1.948281273381245e-01 -2.554341316195881e-01 5.094177668510805e-01 2.865217133333807e-01
            3.921695960014928e-02 -6.225927580447054e-03 3.664800416289823e-02 -6.838147773456492e-03 5.094858065577528e-01 2.865328695499902e-01 1.947368967855468e-01 -2.554466514277019e-01
            1.947916141817073e-01 -2.555619559846377e-01 5.094451943424745e-01 2.865045531610827e-01 3.830236696758964e-02 -6.185019496517345e-03 4.723976978205670e-02 -5.098500491425175e-03
            5.094547100106688e-01 2.865199236772091e-01 1.947508950620084e-01 -2.555000020053900e-01 4.725999505748631e-02 -5.060075654075971e-03 3.826998414975551e-02 -6.204913725963792e-03
316517500.0000000000 4.614036378329306e-02 2.267654179990258e-02 4.623621003924951e-02 2.240469432907663e-02 9.120540564529114e-02 -3.134996847617665e-01 5.737624628459417e-01 8.587371841167878e-02
            4.625801537380569e-02 2.244683374795285e-02 4.611570036492924e-02 2.266858291605765e-02 5.738065778365181e-01 8.584188643683729e-02 9.128756805040404e-02 -3.135092698192222e-01
            9.126985914729459e-02 -3.134414114652306e-01 5.737846514331184e-01 8.585872050024722e-02 4.586590640817219e-02 2.131235273094513e-02 5.485261010755611e-02 2.216080734891296e-02
            5.737771482856732e-01 8.591978937644228e-02 9.113337018104126e-02 -3.134597547483143e-01 5.488955879820032e-02 2.217244314144495e-02 4.579688343715980e-02 2.126435431870096e-02
317350000.0000000000 7.268159945711442e-02 3.796583707273082e-02 7.011843313647380e-02 3.884474735511086e-02 -2.861511527341393e-02 -3.280620388042074e-01 5.620854307403472e-01 -1.206571840172399e-01
            7.015414385167559e-02 3.869561622488078e-02 7.260520053694398e-02 3.794948679750207e-02 5.619315343734542e-01 -1.205759352156972e-01 -2.864414712184283e-02 -3.280471777483713e-01
            -2.854619642253227e-02 -3.280178367679331e-01 5.619946617400396e-01 -1.205853442769495e-01 6.979062223467634e-02 3.597363883237012e-02 7.909009994242665e-02 3.666669793064390e-02
            5.619675190078214e-01 -1.205294818168810e-01 -2.861418171196406e-02 -3.280932395543887e-01 7.910802237521884e-02 3.671784839022454e-02 6.975886911514492e-02 3.588376426248856e-02
318182500.0000000000 1.020586445683187e-01 3.179917655451370e-02 9.784872505714501e-02 3.537870248492732e-02 -1.447148030128202e-01 -2.965460352574248e-01 4.808405536269654e-01 -3.063150191507241e-01
            9.787468343010224e-02 3.529860752143459e-02 1.021089326963598e-01 3.192510622036689e-02 4.807454769429610e-01 -3.063513782710705e-01 -1.447564378219623e-01 -2.965121185663568e-01
            -1.446678489499765e-01 -2.966044101352175e-01 4.808055482145924e-01 -3.063044732142124e-01 9.698515602161448e-02 3.077038724844526e-02 1.065439410098651e-01 3.095401255150730e-02
            4.808498376162340e-01 -3.063487406573696e-01 -1.447027749287591e-01 -2.964974890375567e-01 1.065363820062197e-01 3.095080536417678e-02 9.695743148362414e-02 3.074394711891464e-02
319015000.0000000000 1.200787146304369e-01 8.424439763017374e-03 1.158876336430206e-01 1.511339287301632e-02 -2.398100899658071e-01 -2.261790167410722e-01 3.432643113627477e-01 -4.517895949153029e-01
            1.159282654608953e-01 1.512961854987875e-02 1.201083383593533e-01 8.425185221212661e-03 3.432458289196110e-01 -4.517939227896489e-01 -2.398076567298288e-01 -2.262143489528473e-01
            -2.398114002827260e-01 -2.262339692163025e-01 3.431763592359290e-01 -4.518100648965924e-01 1.136242078260535e-01 8.987675402082682e-03 1.234322811324081e-01 8.404147496144657e-03
            3.432769824788778e-01 -4.518332866763256e-01 -2.398452864129692e-01 -2.261228127356591e-01 1.233841876432892e-01 8.399896999555793e-03 1.136126616506786e-01 9.026996782161694e-03
319847500.0000000000 1.186918934179153e-01 -2.095314451309067e-02 1.161854680055050e-01 -1.127826877248390e-02 -3.036483391660396e-01 -1.291790078767759e-01 1.649553776311337e-01 -5.423101168491271e-01
            1.161497605808883e-01 -1.124716870677957e-02 1.187252913407757e-01 -2.104005687653196e-02 1.649664540315687e-01 -5.423983957916846e-01 -3.036705221498593e-01 -1.291183949982678e-01
            -3.037396895735747e-01 -1.291509249935272e-01 1.649520098227411e-01 -5.423464108860293e-01 1.121210402152965e-01 -1.825214261624547e-02 1.216217272176780e-01 -2.008500992945704e-02
            1.649609064312801e-01 -5.423547437615551e-01 -3.036562332286439e-01 -1.291282479607562e-01 1.215712859528793e-01 -1.997908207147420e-02 1.121514937226049e-01 -1.820300707483538e-02
320680000.0000000000 9.858784470660152e-02 -4.249072132038466e-02 9.902608777871386e-02 -3.115340452105569e-02 -3.318868201923122e-01 -1.722511386979521e-02 -3.528438483623159e-02 -5.667361411956456e-01
            9.909161959409257e-02 -3.112225660140459e-02 9.868510344797440e-02 -4.249946299601943e-02 -3.530805582153206e-02 -5.667518037308700e-01 -3.317363280244374e-01 -1.721237062866815e-02
            -3.317089792010743e-01 -1.721663883003011e-02 -3.539890269998069e-02 -5.668045837014439e-01 9.289064533261342e-02 -3.789371883747413e-02 1.014833920486536e-01 -4.106412876470003e-02
            -3.532938738874849e-02 -5.668086239967405e-01 -3.317829424572952e-01 -1.721778510808354e-02 1.014350853599326e-01 -4.098783348742352e-02 9.289288937625675e-02 -3.784824660698305e-02
321512500.0000000000 6.935690005851733e-02 -4.583658146271889e-02 7.274980586779520e-02 -3.454209967906068e-02 -3.217058133945753e-01 9.932331907815067e-02 -2.339277575666087e-01 -5.184472587514355e-01
            7.270869989082512e-02 -3.447216949458004e-02 6.938966306700610e-02 -4.598443241935586e-02 -2.339131767017731e-01 -5.184890773893052e-01 -3.217132023233042e-01 9.936236940432185e-02
            -3.216790251414555e-01 9.929561662643144e-02 -2.339161372247566e-01 -5.184769049456842e-01 6.509959810777818e-02 -3.996753919558776e-02 7.189811678093232e-02 -4.422307285854955e-02
            -2.338713810066642e-01 -5.184997976494375e-01 -3.217873928332601e-01 9.938196367720512e-02 7.190681694332124e-02 -4.423154490335190e-02 6.508896185421433e-02 -4.006002773947517e-02
322345000.0000000000 4.508060133151280e-02 -2.915660456424786e-02 5.080198066947054e-02 -1.878043201372376e-02 -2.714993415648986e-01 2.091485958619502e-01 -4.028382095499781e-01 -4.004841560542783e-01
            5.078261928120552e-02 -1.875299083605362e-02 4.500640131122796e-02 -2.906304908571720e-02 -4.029516878663508e-01 -4.005242846858160e-01 -2.715060836884398e-01 2.091406018788534e-01
            -2.715172678382402e-01 2.091957928337644e-01 -4.028774476576041e-01 -4.005018613325133e-01 4.265392102456721e-02 -2.266021245407191e-02 4.707750635295369e-02 -2.702193954419687e-02
            -4.029223793751341e-01 -4.005225714297120e-01 -2.715126222567184e-01 2.091772444562689e-01 4.705290345627015e-02 -2.708496706962108e-02 4.271706378888608e-02 -2.259943722893168e-02
323177500.0000000000 3.851392149000092e-02 -6.405972517386907e-04 4.555728072073683e-02 8.056396439417843e-03 -1.824600753331228e-01 2.971495345426011e-01 -5.165132298549384e-01 -2.291042549731204e-01
            4.547703061898971e-02 8.051738135999886e-03 3.856440424687945e-02 -6.271458617299041e-04 -5.164784570865397e-01 -2.290654538673432e-01 -1.824292418529332e-01 2.970631301545836e-01
            -1.823758690923325e-01 2.970780655175355e-01 -5.165574910492123e-01 -2.290737634509119e-01 3.813264401241167e-02 5.705644825101231e-03 3.977621229249659e-02 2.183844705022856e-03
            -5.165934045242281e-01 -2.290638626836182e-01 -1.824500246167566e-01 2.971520977409762e-01 3.982375874200225e-02 2.180060640783749e-03 3.812761005288553e-02 5.718955374220219e-03
324010000.0000000000 5.289217661664190e-02 2.403629129992308e-02 6.010498429383887e-02 3.140083450474274e-02 -6.393358458172155e-02 3.469641214655328e-01 -5.592307839022315e-01 -3.071410552405467e-02
            6.012037207770579e-02 3.143777257648522e-02 5.288669875223811e-02 2.401892260950176e-02 -5.593219477747815e-01 -3.078431500152823e-02 -6.396717838689966e-02 3.470352186071783e-01
            -6.396975854927239e-02 3.469768330270170e-01 -5.593012477699035e-01 -3.075680853546175e-02 5.406566148348622e-02 2.956714107449364e-02 5.366224396048921e-02 2.824367450510963e-02
            -5.592127569089116e-01 -3.070752250392501e-02 -6.392098327573512e-02 3.469710511462030e-01 5.355129608974241e-02 2.824253526899203e-02 5.407978983295144e-02 2.959703011804752e-02
324842500.0000000000 7.943873035831968e-02 3.194298813536292e-02 8.650405947057438e-02 3.854676958542851e-02 6.557907067636071e-02 3.485736537138666e-01 -5.296007015235624e-01 1.657406120011910e-01
            8.648585193657793e-02 3.854483246514683e-02 7.945092983898255e-02 3.208469209127485e-02 -5.294189102561245e-01 1.657012527688042e-01 6.564268438678023e-02 3.484533205733059e-01
            6.562703040381079e-02 3.484963570012490e-01 -5.295182705442085e-01 1.657346459367932e-01 8.179301980297483e-02 3.639571483955532e-02 8.028570634264380e-02 3.811847011114498e-02
            -5.294171704039407e-01 1.657335008992829e-01 6.565006865751616e-02 3.485186413861740e-01 8.033465286465012e-02 3.801997316796700e-02 8.176631758739873e-02 3.638469319295175e-02
325675000.0000000000 1.035816082310575e-01 2.013282780443758e-02 1.109255725694506e-01 2.633427277446691e-02 1.854516389566150e-01 3.024681169966720e-01 -4.358030601200186e-01 3.369400679845729e-01
            1.109270097573285e-01 2.632989771877547e-02 1.036393471782315e-01 2.009043517682071e-02 -4.357503257662420e-01 3.369877290027256e-01 1.854868134648048e-01 3.024792706427718e-01
            1.855699187401917e-01 3.024344695078874e-01 -4.358439374035639e-01 3.369596947294168e-01 1.067216867288670e-01 2.320495085254207e-02 1.057445653141169e-01 2.807005269602155e-02
            -4.357616044208451e-01 3.369574582368977e-01 1.854345546977985e-01 3.024131692514861e-01 1.057875635838130e-01 2.814742041189493e-02 1.068166192521627e-01 2.326859129267844e-02
326507500.0000000000 1.135523426645347e-01 -4.662495145384349e-03 1.213046063695381e-01 1.240752005482865e-03 2.795143535673038e-01 2.181590162570039e-01 -2.909857736058466e-01 4.655064600847449e-01
            1.212670306253753e-01 1.192258591602660e-03 1.135464414419697e-01 -4.573047163183126e-03 -2.909857759495463e-01 4.654854535445533e-01 2.795961043282600e-01 2.182625446441206e-01
            2.795570401203104e-01 2.182470229339838e-01 -2.909392022952483e-01 4.655582100885826e-01 1.170375243249095e-01 -2.794355441111430e-03 1.177762191326634e-01 4.558889244604279e-03
            -2.910104554446480e-01 4.654779494831879e-01 2.794932408415555e-01 2.182604613124813e-01 1.177271380653688e-01 4.554108777951710e-03 1.169701912420609e-01 -2.845759009703543e-03
327340000.0000000000 1.044177852341980e-01 -2.986516508885553e-02 1.127450015726613e-01 -2.495601650760115e-02 3.387334025412334e-01 1.085752867062448e-01 -1.106430763319883e-01 5.377819057422875e-01
            1.127843977832081e-01 -2.485436472457596e-02 1.044022389172043e-01 -2.985906374827712e-02 -1.106020553685888e-01 5.377137561348823e-01 3.386308895588468e-01 1.084884240394869e-01
            3.387353802103004e-01 1.084848068961570e-01 -1.106438692032701e-01 5.377365125270220e-01 1.080103394570510e-01 -2.927123671670499e-02 1.113058734723634e-01 -2.056355472063688e-02
            -1.106105901394028e-01 5.378202281956458e-01 3.387304210527798e-01 1.085564342232014e-01 1.112183692220126e-01 -2.066068581453400e-02 1.080133088856843e-01 -2.922388042169271e-02
328172500.0000000000 8.037630992781053e-02 -4.305026175151794e-02 8.891154682296615e-02 -3.955460351082817e-02 3.585613986158457e-01 -1.476475971148009e-02 8.569128335340820e-02 5.432314770765984e-01
            8.894518673124910e-02 -3.956071184292211e-02 8.038594604385774e-02 -4.309855627467185e-02 8.564702360108280e-02 5.431680896468344e-01 3.584338741053009e-01 -1.479106672952544e-02
            3.585348944432589e-01 -1.467936519200674e-02 8.570732312482468e-02 5.431602094995599e-01 8.395611064502446e-02 -4.355249272373574e-02 8.949541456056422e-02 -3.502555933334307e-02
            8.566148963178052e-02 5.431181000773098e-01 3.585125157497124e-01 -1.475360903727477e-02 8.948075236083287e-02 -3.496757663028658e-02 8.394122877170429e-02 -4.353492150063563e-02
329005000.0000000000 5.288509643691738e-02 -3.695822712313526e-02 6.072691745857812e-02 -3.492646785965518e-02 3.358454065771231e-01 -1.401645808121678e-01 2.730818193337345e-01 4.773522491640295e-01
            6.069967589898419e-02 -3.491540950670003e-02 5.282693123158204e-02 -3.694171612904947e-02 2.730411832020425e-01 4.773226032293445e-01 3.358892142808748e-01 -1.400604784539791e-01
            3.358625658949203e-01 -1.400853741644237e-01 2.731756248510001e-01 4.773788165787046e-01 5.634955690443747e-02 -3.844004981456491e-02 6.346643083235565e-02 -3.094723371425224e-02
            2.730931009091480e-01 4.773920199482772e-01 3.358663592968946e-01 -1.401236258078900e-01 6.348708092873023e-02 -3.100350662536614e-02 5.636578389885771e-02 -3.840988830291757e-02
329837500.0000000000 3.620022569115684e-02 -1.349161302168360e-02 4.234765022386747e-02 -1.264158539332532e-02 2.692667308064982e-01 -2.534967813352010e-01 4.241113171392890e-01 3.471392311773897e-01
            4.232201955164527e-02 -1.260844522360967e-02 3.617716471928099e-02 -1.352865354574298e-02 4.241274315678482e-01 3.471284652446019e-01 2.693266977343570e-01 -2.535563369859000e-01
            2.692878479931167e-01 -2.534688575508249e-01 4.241070737666520e-01 3.471336856076220e-01 3.943403977661008e-02 -1.607829105413023e-02 4.683595196518588e-02 -9.883175181773621e-03
            4.241019212338689e-01 3.471768558755243e-01 2.693235083613847e-01 -2.535666700749914e-01 4.693585960949018e-02 -9.908715592011322e-03 3.935195126143614e-02 -1.616375245978512e-02
330670000.0000000000 3.953660844703438e-02 1.516016816083260e-02 4.340106073333130e-02 1.618209971467878e-02 1.631509552602129e-01 -3.375936173190438e-01 5.160107689525514e-01 1.719897235354740e-01
            4.345211309282457e-02 1.622243631265527e-02 3.958094114708171e-02 1.523661047796969e-02 5.160115424840080e-01 1.719901716457820e-01 1.630613640862700e-01 -3.376294300801480e-01
            1.630845350314323e-01 -3.376635954463626e-01 5.160404033411380e-01 1.720858612340960e-01 4.205989123698878e-02 1.140407164053898e-02 4.928086954741743e-02 1.701687989061264e-02
            5.159864509536101e-01 1.720303797560014e-01 1.631032677110552e-01 -3.376173681207893e-01 4.929682849712774e-02 1.707929422825726e-02 4.206928931393199e-02 1.146114475415176e-02
331502500.0000000000 6.121317505513878e-02 3.390954550735985e-02 6.314985596048300e-02 3.648383737103291e-02 3.101198182848791e-02 -3.765971067974420e-01 5.381763071399543e-01 -2.091722993880516e-02
            6.318982920971856e-02 3.645853661912186e-02 6.113733610065754e-02 3.379579570645187e-02 5.382179195276122e-01 -2.084489848870190e-02 3.093239521129227e-02 -3.767266273014004e-01
            3.096860283507428e-02 -3.767061407751370e-01 5.382400454224886e-01 -2.084963988874617e-02 6.264165347701751e-02 2.918923944059275e-02 6.924336331172055e-02 3.516796607942696e-02
            5.382164247576622e-01 -2.093384651658549e-02 3.100079747366309e-02 -3.766786529168006e-01 6.922358786118045e-02 3.507424656525052e-02 6.256766351988419e-02 2.924661879147188e-02
332335000.0000000000 8.924381692766911e-02 3.316718887276311e-02 9.024321397649601e-02 3.838167817293629e-02 -1.061037910881252e-01 -3.636808877781956e-01 4.925687046518694e-01 -2.055759115099369e-01
            9.023783766299386e-02 3.849688645425057e-02 8.916915776703045e-02 3.315828879227391e-02 4.925329786077479e-01 -2.055641088967773e-01 -1.061472609918538e-01 -3.636977781349420e-01
            -1.061003761861107e-01 -3.637065297872343e-01 4.925648648374953e-01 -2.056680362435498e-01 8.924693301616650e-02 2.824003317884506e-02 9.578465342373722e-02 3.503399178703311e-02
            4.925017212771729e-01 -2.056056261988233e-01 -1.060960912578910e-01 -3.636672332197842e-01 9.572919488259497e-02 3.511460522355254e-02 8.922688147023503e-02 2.824242375462447e-02
333167500.0000000000 1.091304611313601e-01 1.439321811841465e-02 1.111234115278596e-01 2.254057581265837e-02 -2.276011622427131e-01 -3.026454605642774e-01 3.884320767234926e-01 -3.615517017171036e-01
            1.111658341035058e-01 2.247296560202204e-02 1.091800601662246e-01 1.434894556403188e-02 3.883381365782562e-01 -3.615407061786781e-01 -2.276019846317469e-01 -3.026746546669137e-01
            -2.275583003562825e-01 -3.025684782067138e-01 3.883992625394557e-01 -3.615758382325717e-01 1.078496428351358e-01 9.819605017413777e-03 1.153916657984499e-01 1.775797213050053e-02
            3.883548368345187e-01 -3.615422666890161e-01 -2.276348775383047e-01 -3.026006421882370e-01 1.154632538052846e-01 1.774257063268145e-02 1.078697624931354e-01 9.859538532831500e-03
334000000.0000000000 1.115797575647227e-01 -1.289129112656656e-02 1.161066268319761e-01 -2.636919355879504e-03 -3.190134756416613e-01 -2.046049231791322e-01 2.381394810788245e-01 -4.729777976650848e-01
            1.159972595991916e-01 -2.681982492041736e-03 1.115581910982282e-01 -1.286305762560045e-02 2.381572638396084e-01 -4.729799346025674e-01 -3.190063163726808e-01 -2.046412577881467e-01
            -3.189614103864577e-01 -2.046114091629872e-01 2.381899535376209e-01 -4.730156019218732e-01 1.095695344848089e-01 -1.633392807889799e-02 1.188420889679386e-01 -7.991862468767345e-03
            2.381710727713832e-01 -4.730444635971708e-01 -3.189751801521313e-01 -2.046574563205673e-01 1.189094352144198e-01 -7.900653058059367e-03 1.095186376797776e-01 -1.622204423443797e-02
334832500.0000000000 9.534982294958086e-02 -3.527087561000349e-02 1.030338089574678e-01 -2.456836339966510e-02 -3.719213809600213e-01 -8.243788912192990e-02 5.768326110625623e-02 -5.267214923424399e-01
            1.029963269980620e-01 -2.446333388441295e-02 9.530469372028784e-02 -3.525561145732818e-02 5.770989071911135e-02 -5.267205855831899e-01 -3.719348506207394e-01 -8.232863652932070e-02
            -3.719114393471838e-01 -8.235036161793334e-02 5.763829635586486e-02 -5.267273183857826e-01 9.324213535051092e-02 -3.699386159603080e-02 1.046488218618351e-01 -2.956003494679099e-02
            5.764222598657788e-02 -5.267066876952186e-01 -3.719501517831561e-01 -8.246846808185515e-02 1.045805091836241e-01 -2.965693380064889e-02 9.326404224748241e-02 -3.696099333281663e-02
335665000.0000000000 6.768875432603527e-02 -4.140396077485194e-02 7.815764868515891e-02 -3.197812940236888e-02 -3.814346527954488e-01 5.185502428996759e-02 -1.324513401501223e-01 -5.134442887856988e-01
            7.815052947848182e-02 -3.194259938580090e-02 6.759652173752596e-02 -4.140559311587638e-02 -1.324323995131360e-01 -5.133600993023475e-01 -3.814972605057629e-01 5.176548155712871e-02
            -3.814632879719382e-01 5.184029514313290e-02 -1.324649803896386e-01 -5.134290225640855e-01 6.685502493808611e-02 -4.174641632392023e-02 7.952910210096170e-02 -3.650446817829493e-02
            -1.324749763754523e-01 -5.132912757121143e-01 -3.813971249291717e-01 5.178999975270624e-02 7.947484591795184e-02 -3.643797770539364e-02 6.690204291887480e-02 -4.171690565101421e-02
336497500.0000000000 4.206628378892312e-02 -2.729685132167940e-02 5.414283433032413e-02 -2.026697164243399e-02 -3.441403927078205e-01 1.845799536001186e-01 -3.062206600278102e-01 -4.315889829332245e-01
            5.413633220068819e-02 -2.027506737834199e-02 4.201341146826344e-02 -2.740046444149698e-02 -3.062700912400574e-01 -4.315989577423613e-01 -3.440970041752364e-01 1.845369018355045e-01
            -3.441445229887451e-01 1.845976666474060e-01 -3.062191589589502e-01 -4.315793163878395e-01 4.369064837437089e-02 -2.707160837239330e-02 5.614263188611390e-02 -2.441089336693711e-02
            -3.062223146505464e-01 -4.316329720529699e-01 -3.442197001403166e-01 1.845828830960755e-01 5.607753714493584e-02 -2.453858099595471e-02 4.378106134584115e-02 -2.709911100758947e-02
337330000.0000000000 3.205679712077894e-02 7.567302116014933e-04 4.416358392189988e-02 5.495856356097712e-03 -2.599478114314129e-01 2.988624813381949e-01 -4.373443462621676e-01 -2.919430881224975e-01
            4.409499512121241e-02 5.386972160249750e-03 3.206167505046327e-02 6.116276671183465e-04 -4.374022635026222e-01 -2.918625318084323e-01 -2.597909179359001e-01 2.988967941567984e-01
            -2.597841545172779e-01 2.989390437966604e-01 -4.373457748351448e-01 -2.919505523939888e-01 3.677142744082430e-02 -9.817897969789655e-05 4.723094625586798e-02 2.756063634818073e-04
            -4.373695306113021e-01 -2.919372465661804e-01 -2.598389744963748e-01 2.988524820355860e-01 4.719960670656106e-02 2.113904178666323e-04 3.681038009697173e-02 -1.192063049400355e-04
338162500.0000000000 4.309976062448168e-02 2.829705279852419e-02 5.416610886986556e-02 3.155504747195030e-02 -1.365923922218590e-01 3.758189868665233e-01 -5.074581013638225e-01 -1.167079948150757e-01
            5.409920187877376e-02 3.166942543013734e-02 4.312490029336153e-02 2.830746076897011e-02 -5.075599430545062e-01 -1.166562442238999e-01 -1.366130313359074e-01 3.758440545517804e-01
            -1.366434346869352e-01 3.758653527647310e-01 -5.074659535170610e-01 -1.166514931220462e-01 5.035457700682616e-02 2.450953145634073e-02 5.774428978796634e-02 2.428104387143574e-02
            -5.074637661552402e-01 -1.166362258890880e-01 -1.365968422028107e-01 3.758480033951991e-01 5.777730326495741e-02 2.429876005426661e-02 5.038631306027289e-02 2.456164364205256e-02
338995000.0000000000 6.927562360923296e-02 4.151207165348991e-02 7.887949970333838e-02 4.477751204892622e-02 7.441711265571509e-03 4.013371231704111e-01 -5.108308765671292e-01 6.792618319110848e-02
            7.884719791251728e-02 4.472807338565506e-02 6.922749377940339e-02 4.147184837469240e-02 -5.107376894727663e-01 6.791991599724109e-02 7.471623340024776e-03 4.014234233044728e-01
            7.454900836061902e-03 4.014250976333755e-01 -5.107394731206514e-01 6.795883973637322e-02 7.742114726337780e-02 3.326313843806950e-02 8.170165038416384e-02 3.428220754020984e-02
            -5.106980026295908e-01 6.793444900142798e-02 7.486203986130590e-03 4.015053139422046e-01 8.180531072199002e-02 3.433832804116406e-02 7.743823647991822e-02 3.325624007053923e-02
339827500.0000000000 9.670367403342156e-02 3.459920955113930e-02 1.058412287587167e-01 3.891005049104970e-02 1.496672814041310e-01 3.724826553369529e-01 -4.515941296342388e-01 2.391445645247303e-01
            1.059154072241342e-01 3.897152962328502e-02 9.675581876293056e-02 3.461879399637855e-02 -4.514941233514710e-01 2.390484968926627e-01 1.497178753030895e-01 3.724549259892974e-01
            1.496895315295757e-01 3.723968234869979e-01 -4.515699554037240e-01 2.390485752355022e-01 1.035114536471352e-01 2.136728244502505e-02 1.060136803537221e-01 2.548357415953195e-02
            -4.515954494086933e-01 2.390416852876708e-01 1.496405454293375e-01 3.724560011536800e-01 1.060455928691798e-01 2.548186255739893e-02 1.034567777525685e-01 2.136392585244296e-02
340660000.0000000000 1.125146464044029e-01 1.231303567139743e-02 1.225060695847021e-01 1.787337558683507e-02 2.704744434938000e-01 2.959739876629230e-01 -3.394427638894508e-01 3.788353003477868e-01
            1.225539805383648e-01 1.787892714342630e-02 1.125317852654851e-01 1.233252203698790e-02 -3.394540830855345e-01 3.789545909517623e-01 2.703719028877583e-01 2.959634185532202e-01
            2.704072230659046e-01 2.959752699283934e-01 -3.393794274158862e-01 3.789738725890590e-01 1.155619149833851e-01 -5.126945288678084e-03 1.183882096249155e-01 2.653861090762764e-03
            -3.393380796770583e-01 3.789587347493135e-01 2.704361623370313e-01 2.959233006410898e-01 1.183361127819191e-01 2.695520224939380e-03 1.156010478856155e-01 -5.121838697318289e-03
341492500.0000000000 1.099634010399410e-01 -1.424837158412752e-02 1.221205071451737e-01 -8.210405954615032e-03 3.566614547374172e-01 1.843471962550070e-01 -1.864055888589003e-01 4.730441618803702e-01
            1.221719045822558e-01 -8.246832681774443e-03 1.099468710434970e-01 -1.420869508271260e-02 -1.863930396633706e-01 4.731711596136356e-01 3.566676035098888e-01 1.842950940944647e-01
            3.566949664130196e-01 1.843117374404623e-01 -1.863748867816286e-01 4.731445182980319e-01 1.073712626142616e-01 -3.392498397219176e-02 1.126333708230224e-01 -2.314452131133139e-02
            -1.862919070277911e-01 4.730690437669228e-01 3.567580416519973e-01 1.842716132167163e-01 1.127181123255354e-01 -2.313224067356357e-02 1.073622401225915e-01 -3.398016880787175e-02
342325000.0000000000 9.079188614409982e-02 -3.227257213730527e-02 1.055631275004967e-01 -2.736415327609257e-02 4.009762402516611e-01 5.031858936945954e-02 -8.273734023103361e-03 5.090236577194467e-01
            1.055597921448843e-01 -2.736053676440140e-02 9.082008048185720e-02 -3.230655919247574e-02 -8.267105119356712e-03 5.089872186966861e-01 4.009094693414000e-01 5.041172408136753e-02
            4.009920958210781e-01 5.035856039405476e-02 -8.354697975339611e-03 5.089712743568093e-01 8.207318206133740e-02 -5.140013913054182e-02 9.112363595351812e-02 -3.947159332350172e-02
            -8.311350579091189e-03 5.090391624973156e-01 4.009150152148373e-01 5.034948022720406e-02 9.101691579118687e-02 -3.944770196499350e-02 8.205388532791554e-02 -5.143984758112973e-02
343157500.0000000000 6.447120897585919e-02 -3.277951638519266e-02 8.112171516347255e-02 -3.065617186880592e-02 3.981047762395890e-01 -9.287797018940029e-02 1.731066224713149e-01 4.788048802347001e-01
            8.105746096504023e-02 -3.066593609861629e-02 6.445218005625614e-02 -3.283402792146453e-02 1.731219558037893e-01 4.788059816659325e-01 3.981045989855320e-01 -9.280922524911078e-02
            3.981759014988977e-01 -9.279058103191522e-02 1.730921632366060e-01 4.788503653577452e-01 5.042675077935883e-02 -4.853106989773302e-02 6.323909336380014e-02 -3.790243223883531e-02
            1.730725417497359e-01 4.788437152153405e-01 3.981716747788063e-01 -9.282687704664938e-02 6.320099473383116e-02 -3.792385754983901e-02 5.038984609678881e-02 -4.857289478758244e-02
343990000.0000000000 4.468574112272489e-02 -1.536564961663725e-02 6.147324205281919e-02 -1.660913045594989e-02 3.447829705541023e-01 -2.298724375382781e-01 3.315947616966421e-01 3.840122682344196e-01
            6.139492553450902e-02 -1.655766898929659e-02 4.462528784259173e-02 -1.541871943601592e-02 3.315288088881490e-01 3.840000144789780e-01 3.448459618475105e-01 -2.298168639404881e-01
            3.448557825373180e-01 -2.298118159298073e-01 3.315151935409172e-01 3.839505609760531e-01 2.781344430096058e-02 -2.543231467211175e-02 4.285685984759049e-02 -1.806936910983102e-02
            3.315778444477448e-01 3.839347907779215e-01 3.449077841023655e-01 -2.298392451941964e-01 4.288482929800753e-02 -1.809487537682358e-02 2.778078480369842e-02 -2.544557932028046e-02
344822500.0000000000 4.202756574055808e-02 1.089652015760314e-02 5.735911978207846e-02 6.681793013878589e-03 2.433455910622870e-01 -3.416426641673053e-01 4.431835160538308e-01 2.385602344050822e-01
            5.731249422396176e-02 6.679934291956068e-03 4.203779148454125e-02 1.090610868259978e-02 4.431543723809794e-01 2.384769394118448e-01 2.433882915407326e-01 -3.416174209273996e-01
            2.434030109393281e-01 -3.416130436106773e-01 4.432253734784911e-01 2.385373718241935e-01 2.572479784508749e-02 6.789803036162632e-03 4.070665607263233e-02 1.010987564718100e-02
            4.431548726130431e-01 2.384922681587786e-01 2.432993958324083e-01 -3.416474504229286e-01 4.066719085216629e-02 1.019890329942961e-02 2.576119045585662e-02 6.770608985503572e-03
345655000.0000000000 5.783213819470606e-02 3.168609411410039e-02 7.069460786014144e-02 2.569563277889565e-02 1.055146482552791e-01 -4.090931360141878e-01 4.935686471757729e-01 6.569401949186222e-02
            7.074233448192468e-02 2.575481621517442e-02 5.787001632775805e-02 3.169760697035417e-02 4.935846877285443e-01 6.566618915679294e-02 1.055193577746470e-01 -4.091423348303909e-01
            1.054766558684094e-01 -4.091883061259897e-01 4.935759187433650e-01 6.578768667446941e-02 4.519338343247492e-02 3.171452377925301e-02 5.761041339905024e-02 3.204971244948936e-02
            4.935994257131860e-01 6.568196857030315e-02 1.055135005779219e-01 -4.091638433283433e-01 5.758435063875760e-02 3.204995135906158e-02 4.514242984160499e-02 3.170317922153378e-02
346487500.0000000000 8.277578918224952e-02 3.608104238582226e-02 9.328740053215838e-02 3.009512608572355e-02 -4.773027831895633e-02 -4.208193269383586e-01 4.804480101278431e-01 -1.099119964290975e-01
            9.330633457923709e-02 3.014846388396393e-02 8.281672959698858e-02 3.609143263515948e-02 4.804889031806489e-01 -1.098442276421565e-01 -4.766457777019908e-02 -4.208116191368493e-01
            -4.765185276386057e-02 -4.207530015788173e-01 4.805024122021376e-01 -1.097619421366588e-01 7.529308870616473e-02 3.731100658669482e-02 8.362986254843709e-02 3.664619738031018e-02
            4.804064577881915e-01 -1.098957610139529e-01 -4.767105639137401e-02 -4.207443855799990e-01 8.364376086820061e-02 3.655172513541015e-02 7.528905580618496e-02 3.730004282573705e-02
347320000.0000000000 1.037836307627539e-01 2.297011696392354e-02 1.129246614856114e-01 1.796486661276942e-02 -1.932591317686490e-01 -3.765983064370519e-01 4.096343708044393e-01 -2.678347914080516e-01
            1.129179715100661e-01 1.786520928319913e-02 1.037242088723941e-01 2.296662674591063e-02 4.095154646140948e-01 -2.679090843348588e-01 -1.932200304887675e-01 -3.766872539245988e-01
            -1.933281459130321e-01 -3.766033128510901e-01 4.095704831974233e-01 -2.679009761434176e-01 1.006801781135018e-01 2.197067976941556e-02 1.049196634566538e-01 2.298013424602022e-02
            4.095576021051299e-01 -2.678076290586356e-01 -1.932247117972497e-01 -3.765933669545126e-01 1.048379368950842e-01 2.301342934032924e-02 1.006827140287937e-01 2.200682917589917e-02
348152500.0000000000 1.101920881272863e-01 -1.709679265008261e-04 1.194761821750253e-01 -4.264238785812882e-03 -3.126122192216751e-01 -2.854932019905811e-01 2.901908825864142e-01 -3.920842076705558e-01
            1.195002109931887e-01 -4.401339732608798e-03 1.101916691829888e-01 -1.425175774652331e-04 2.902486403581385e-01 -3.920412094864449e-01 -3.127480923185713e-01 -2.855614691141968e-01
            -3.126677496254517e-01 -2.855557336941740e-01 2.901406409198381e-01 -3.921467061619908e-01 1.094181925560290e-01 -5.765427397340755e-03 1.110628238227001e-01 -9.092962523043188e-04
            2.902463329526752e-01 -3.922194408502912e-01 -3.126208204575443e-01 -2.855064388925989e-01 1.109546092861416e-01 -8.506351298056419e-04 1.095035420948818e-01 -5.835283290421452e-03
348985000.0000000000 9.936436081345595e-02 -2.132698952138199e-02 1.097371536074594e-01 -2.588181759624017e-02 -3.936852651787900e-01 -1.602368530107923e-01 1.346810351357371e-01 -4.687939523970682e-01
            1.097654286778291e-01 -2.583192759739126e-02 9.939655959305697e-02 -2.133332210793600e-02 1.346796218509815e-01 -4.687966171217207e-01 -3.937221443251873e-01 -1.602434053317222e-01
            -3.936879930101561e-01 -1.602765246747178e-01 1.345896369711543e-01 -4.687846189724053e-01 9.764306407682805e-02 -3.238136322955880e-02 9.907158623129426e-02 -2.257017061820215e-02
            1.346002732323856e-01 -4.688204321803608e-01 -3.936995681289747e-01 -1.602234259412561e-01 9.900083672061494e-02 -2.255036077023399e-02 9.770842371926178e-02 -3.239746451966483e-02
349817500.0000000000 7.676742263121521e-02 -2.917761065754202e-02 8.796537762917812e-02 -3.588074900970966e-02 -4.284890072593726e-01 -1.402002492760372e-02 -3.984257885276882e-02 -4.860745278394689e-01
            8.790643709698277e-02 -3.593792755999831e-02 7.673506979390812e-02 -2.926475880262197e-02 -3.990238689826876e-02 -4.860695219087872e-01 -4.284468115726267e-01 -1.401316293714582e-02
            -4.284674107027382e-01 -1.399607609748633e-02 -3.989300179930345e-02 -4.861026663728876e-01 7.093741772022406e-02 -4.469083613592142e-02 7.460765586052254e-02 -3.022384497051002e-02
            -3.991495982879156e-02 -4.861400195108168e-01 -4.284843893282901e-01 -1.397362047649752e-02 7.463314950222016e-02 -3.016038146063546e-02 7.092160127385143e-02 -4.470109992868183e-02
350650000.0000000000 5.427145992105462e-02 -1.890386582290713e-02 6.470198113448479e-02 -2.886547687960833e-02 -4.111321837938411e-01 1.384198311108418e-01 -2.101267590177766e-01 -4.386395527159851e-01
            6.465065305601869e-02 -2.889392570870139e-02 5.433504221102384e-02 -1.894414011972423e-02 -2.101697833589293e-01 -4.386515045666745e-01 -4.110984674253109e-01 1.384047838312810e-01
            -4.111755399328846e-01 1.383756364525958e-01 -2.100638469257564e-01 -4.385996767775673e-01 4.204962794338105e-02 -3.592887908620412e-02 5.011949599264581e-02 -1.863810682082752e-02
            -2.100702595583117e-01 -4.386543883084731e-01 -4.112218438187964e-01 1.383417556535409e-01 5.001463333861948e-02 -1.863538367292492e-02 4.205078621863665e-02 -3.604540508713264e-02
351482500.0000000000 4.502574912876819e-02 5.108990598302486e-03 5.220457792731661e-02 -7.888208076937710e-03 -3.393445670495821e-01 2.784151655870513e-01 -3.505060780329398e-01 -3.322222702616574e-01
            5.221893356487744e-02 -7.927384586930111e-03 4.504991008791241e-02 5.100419718639034e-03 -3.505284292728742e-01 -3.322096063586979e-01 -3.393984410028195e-01 2.784154247475502e-01
            -3.394117357658085e-01 2.783534152187929e-01 -3.504173919463159e-01 -3.321714521288843e-01 2.626605190303357e-02 -9.977174125288738e-03 3.916424518166763e-02 7.920604828604870e-03
            -3.504364271017739e-01 -3.321449751336484e-01 -3.393492599219942e-01 2.783301086050978e-01 3.915423055415478e-02 7.977761672717529e-03 2.621127734619138e-02 -9.937458450940854e-03
352315000.0000000000 5.553029506340028e-02 2.989267432347695e-02 5.751242726007486e-02 1.561758229829690e-02 -2.190330753752928e-01 3.845622870540175e-01 -4.407080923753166e-01 -1.841042876191815e-01
            5.740520567731210e-02 1.558283987719437e-02 5.549980799247754e-02 2.989494195296528e-02 -4.406874719991020e-01 -1.840700652008347e-01 -2.190518124758852e-01 3.845057221920962e-01
            -2.190598068687464e-01 3.846330031780474e-01 -4.407272659565174e-01 -1.839831967938133e-01 3.179341421445000e-02 1.996435697972283e-02 4.911028817775316e-02 3.633637129002324e-02
            -4.407739024180991e-01 -1.840801348501301e-01 -2.191155103478071e-01 3.845470378222773e-01 4.903506864631744e-02 3.643375652751740e-02 3.176377739556053e-02 1.988677486993466e-02
353147500.0000000000 8.092603590621694e-02 4.149375168766500e-02 7.691194335874919e-02 2.886166263700082e-02 -6.703111097727932e-02 4.388993887600252e-01 -4.716426909813777e-01 -1.760567913882242e-02
            7.694706920007237e-02 2.887558330254359e-02 8.090051912276229e-02 4.135570126655540e-02 -4.714651740531710e-01 -1.759653653483541e-02 -6.709551848881404e-02 4.388601865183511e-01
            -6.708432508191048e-02 4.388318593641741e-01 -4.715682556436662e-01 -1.758159185545540e-02 5.533895426562622e-02 3.800369440886052e-02 7.548810296052796e-02 5.193482542669736e-02
            -4.715267506361599e-01 -1.762104890082477e-02 -6.698868047060677e-02 4.388758875043110e-01 7.555432674967108e-02 5.183868896950404e-02 5.523553926930803e-02 3.806558057923665e-02
353980000.0000000000 1.083246512767626e-01 3.297843005664827e-02 9.982246415910892e-02 2.539172919988873e-02 9.316535934956011e-02 4.336187157329560e-01 -4.440543617542715e-01 1.456094676635997e-01
            9.985370976060635e-02 2.538828264973035e-02 1.083359257119801e-01 3.303208477335962e-02 -4.439839161922167e-01 1.456323656843637e-01 9.321457476877799e-02 4.336852825544240e-01
            9.314813265102886e-02 4.337063074075668e-01 -4.440465391447049e-01 1.455855926524847e-01 8.402192952228417e-02 3.605509236619368e-02 1.055522322461070e-01 4.695876459307966e-02
            -4.439712559543267e-01 1.456849643869589e-01 9.324350043898672e-02 4.336914524041134e-01 1.056404028755391e-01 4.697558449419689e-02 8.397487714938878e-02 3.605830147618647e-02
354812500.0000000000 1.243479995281249e-01 8.455828747878652e-03 1.143730428782610e-01 7.719935779845839e-03 2.390180157396879e-01 3.728706520640604e-01 -3.643860016708320e-01 2.884896150110703e-01
            1.143864544619186e-01 7.703019727054143e-03 1.242677348465765e-01 8.578300623200658e-03 -3.643798052362319e-01 2.885484785890104e-01 2.389519961891385e-01 3.727818495148833e-01
            2.390234293902766e-01 3.728428411575854e-01 -3.644284527894915e-01 2.884668129360683e-01 1.035966872132407e-01 1.624437856523274e-02 1.256485435110941e-01 2.488605741276286e-02
            -3.643384491073162e-01 2.885084351665559e-01 2.390276696658597e-01 3.728539617114924e-01 1.256747533202842e-01 2.486981407045645e-02 1.035874781564518e-01 1.632057677336550e-02
355645000.0000000000 1.209473201680384e-01 -2.116811831718511e-02 1.136308231788229e-01 -1.533815560700133e-02 3.535953591804399e-01 2.669566582003644e-01 -2.412490034890377e-01 3.966526016459819e-01
            1.137320432477364e-01 -1.530421174739904e-02 1.209639921294832e-01 -2.120648028757542e-02 -2.412289849402293e-01 3.966751960772669e-01 3.536224766242624e-01 2.669590740110156e-01
            3.535845767743283e-01 2.670069855934434e-01 -2.413500633170232e-01 3.966878546263931e-01 1.053634227853832e-01 -1.095409924372407e-02 1.273943347298556e-01 -4.062932367083953e-03
            -2.411992405544158e-01 3.967489767564674e-01 3.536204359681406e-01 2.669124015825347e-01 1.274118912801313e-01 -4.018240620086625e-03 1.054348784419031e-01 -1.104749840599477e-02
356477500.0000000000 9.917118295053093e-02 -4.260851261332688e-02 9.785898567837316e-02 -3.267318894313319e-02 4.262318133344498e-01 1.290807355160409e-01 -8.677527529601618e-02 4.565351220859400e-01
            9.771639032364124e-02 -3.264627797152904e-02 9.914349441500452e-02 -4.259010929659301e-02 -8.670973202600074e-02 4.565944353662859e-01 4.261684166476726e-01 1.291302304637431e-01
            4.262314784899234e-01 1.291682637089167e-01 -8.673258337240494e-02 4.565532006502866e-01 8.859784287933507e-02 -3.274460278968461e-02 1.108961345862049e-01 -2.673590868853101e-02
            -8.675790758108082e-02 4.565625827299633e-01 4.261771311666044e-01 1.291128875502180e-01 1.108944871141993e-01 -2.656890223851496e-02 8.862308366104649e-02 -3.270527276206287e-02
357310000.0000000000 6.806011041287033e-02 -4.522475000807340e-02 7.375145216104881e-02 -3.525555105037877e-02 4.487708372171523e-01 -2.687820055900174e-02 8.110855656666949e-02 4.575878145104357e-01
            7.376878728586592e-02 -3.524755029292501e-02 6.800410255792912e-02 -4.523874659522002e-02 8.112248809472439e-02 4.576608547924444e-01 4.487868133157669e-01 -2.691678969321794e-02
            4.487460530911751e-01 -2.695995286839080e-02 8.117770346468947e-02 4.576024771336107e-01 6.133530426114064e-02 -3.787012843609047e-02 8.439007909981638e-02 -3.274418268920746e-02
            8.113160696457437e-02 4.575608815499117e-01 4.488498742371593e-01 -2.689922751097124e-02 8.442094095762379e-02 -3.264612884242572e-02 6.124641780419736e-02 -3.785506269609311e-02
358142500.0000000000 4.237099940138782e-02 -2.691107140563446e-02 5.366026047295549e-02 -2.107147804013172e-02 4.157673461796452e-01 -1.848211214222557e-01 2.386719399826679e-01 3.965478314101241e-01
            5.363742265467727e-02 -2.105129356861547e-02 4.230673525879745e-02 -2.688373041088860e-02 2.386859374249204e-01 3.965469953711201e-01 4.157396362565500e-01 -1.849235760257431e-01
            4.157468681204137e-01 -1.849298682307437e-01 2.387057151574807e-01 3.965516400145303e-01 3.714453771328598e-02 -2.316697174684682e-02 6.136139849267926e-02 -1.946971894741332e-02
            2.386479633807911e-01 3.965908290100069e-01 4.158011201761533e-01 -1.848851497604363e-01 6.148004621856683e-02 -1.940802661576445e-02 3.715382925060253e-02 -2.316312165766961e-02
358975000.0000000000 3.484117794074588e-02 3.898960835169839e-03 4.831800009578043e-02 3.057088932769734e-03 3.263784510746420e-01 -3.240363501233682e-01 3.614822253977429e-01 2.824803076349275e-01
            4.843119168595861e-02 3.144079958207925e-03 3.485106359979981e-02 3.808599608028438e-03 3.614765835098340e-01 2.823813507174491e-01 3.263890728637283e-01 -3.239982553985987e-01
            3.264111629466564e-01 -3.239783883084957e-01 3.614652047898674e-01 2.825122731780713e-01 2.912429794687288e-02 4.255560895429673e-03 5.444271012046243e-02 5.603042712009189e-03
            3.614893936951546e-01 2.824346813303992e-01 3.263647663853460e-01 -3.240049977468770e-01 5.451477695459021e-02 5.654756088087180e-03 2.917878435848269e-02 4.231198313150617e-03
359807500.0000000000 4.943723875340511e-02 3.164091929893736e-02 6.072412982006425e-02 2.425624566851999e-02 1.899697427888499e-01 -4.220222643765609e-01 4.327070072713162e-01 1.344392133611396e-01
            6.067049163680453e-02 2.423333403989509e-02 4.938783492087399e-02 3.160080816674765e-02 4.327430923266996e-01 1.344397063726101e-01 1.899952644078429e-01 -4.220537534580394e-01
            1.900498652780962e-01 -4.219102421072402e-01 4.326945998695242e-01 1.344899823662235e-01 4.158475421780465e-02 2.966627138189077e-02 6.727100559303444e-02 2.820667790205912e-02
            4.327442763184249e-01 1.345125014356183e-01 1.900424328795541e-01 -4.219985593901488e-01 6.730698465080628e-02 2.827486104672162e-02 4.156534363177232e-02 2.966989660318197e-02
360640000.0000000000 7.784494534618633e-02 4.276975518037006e-02 8.338990566184117e-02 3.113705694066469e-02 2.686531716670920e-02 -4.628591818806708e-01 4.469600549164048e-01 -2.506905364116287e-02
            8.339972056041674e-02 3.110739101600730e-02 7.790878307100756e-02 4.281448247926183e-02 4.469205657555633e-01 -2.507925247641678e-02 2.684022881018686e-02 -4.627965003655067e-01
            2.686261167715788e-02 -4.628087020689138e-01 4.469600406717376e-01 -2.504816109144819e-02 6.711368958863942e-02 3.991106633260377e-02 9.218992749212608e-02 3.539940793265187e-02
            4.469645416746329e-01 -2.502266172662074e-02 2.696493943816020e-02 -4.628674337545241e-01 9.224403047833470e-02 3.535357470732367e-02 6.713969017607561e-02 3.986967082142918e-02
361472500.0000000000 1.058570174453163e-01 3.290500228285092e-02 1.041842067218057e-01 2.109149444875636e-02 -1.383623456090900e-01 -4.419650781738906e-01 4.070210398316476e-01 -1.767056083017230e-01
            1.041141132265675e-01 2.108889112934622e-02 1.059434726771371e-01 3.293400979254370e-02 4.069634765704994e-01 -1.767911003618124e-01 -1.383577429164927e-01 -4.419475072995478e-01
            -1.383458092898597e-01 -4.418207336888810e-01 4.069647050617920e-01 -1.767784853202350e-01 9.202594607753060e-02 3.074260854976436e-02 1.156327250326619e-01 2.339227241409534e-02
            4.069483030405209e-01 -1.766813175262095e-01 -1.383801893447621e-01 -4.418818887718778e-01 1.155415196178855e-01 2.337469851392986e-02 9.212581360989773e-02 3.064966293339236e-02
362305000.0000000000 1.203797110409063e-01 8.197760273779667e-03 1.126008824124390e-01 2.382590429629874e-04 -2.837195900662685e-01 -3.654682896115900e-01 3.193335433399263e-01 -3.053932434760659e-01
            1.125863730527840e-01 1.840317965667070e-04 1.202901460117712e-01 8.227008049496078e-03 3.193206541396017e-01 -3.054155350031406e-01 -2.837891376011704e-01 -3.653912531834478e-01
            -2.837778473689485e-01 -3.654403931783584e-01 3.193075976537216e-01 -3.054610479154037e-01 1.042215914478251e-01 7.789676210788626e-03 1.253796098309132e-01 -1.611603806797542e-03
            3.192461157605302e-01 -3.054616937579342e-01 -2.837346389623767e-01 -3.654466126287054e-01 1.254165513488064e-01 -1.672022043242721e-03 1.042394694109729e-01 7.845168337771916e-03
363137500.0000000000 1.154519540992932e-01 -1.944469627752106e-02 1.047983947463391e-01 -2.096708752215242e-02 -3.937754850150971e-01 -2.449711428233559e-01 1.924876269303130e-01 -3.973883355779726e-01
            1.048317567046780e-01 -2.091604643167880e-02 1.155569478252750e-01 -1.943008292013819e-02 1.925505851834121e-01 -3.973110063121454e-01 -3.938125627789239e-01 -2.449713926284988e-01
            -3.937147211536472e-01 -2.449418251343133e-01 1.924748652853709e-01 -3.973641584315931e-01 9.787564454274635e-02 -1.716060567950282e-02 1.165077410675870e-01 -2.779247511276752e-02
            1.925119944952447e-01 -3.974026959647546e-01 -3.938085318999303e-01 -2.449911723497777e-01 1.164384638744307e-01 -2.777909221856020e-02 9.780484230393786e-02 -1.714279519154346e-02
363970000.0000000000 9.415332954146463e-02 -3.662211466233639e-02 8.433991728412391e-02 -3.153679299900011e-02 -4.572084687995869e-01 -9.413048290780972e-02 3.964376167786487e-02 -4.398284651734934e-01
            8.433082063810904e-02 -3.151773157417304e-02 9.414014492223823e-02 -3.669555285522118e-02 3.970662353617398e-02 -4.398210284742886e-01 -4.572735539157715e-01 -9.411276093222647e-02
            -4.572534575534957e-01 -9.412557131386083e-02 3.980789419430764e-02 -4.398173416500694e-01 7.600669643444105e-02 -3.135080782967135e-02 9.198077822954787e-02 -4.255217232054724e-02
            3.972803488326578e-02 -4.398415739525997e-01 -4.572853893011212e-01 -9.413884533528163e-02 9.209502191610161e-02 -4.251602815655224e-02 7.599729038289836e-02 -3.131950802769890e-02
364802500.0000000000 6.719196300159734e-02 -3.523920698161249e-02 6.132907880884099e-02 -2.528906493306664e-02 -4.661490090269420e-01 7.215551619109781e-02 -1.196150731391450e-01 -4.239705818782636e-01
            6.143402614166086e-02 -2.531798773667019e-02 6.711637037804270e-02 -3.523323904719683e-02 -1.196168325585885e-01 -4.239396713832707e-01 -4.660679457870799e-01 7.221020186178374e-02
            -4.659759334656709e-01 7.212419470667054e-02 -1.195971058165205e-01 -4.239747540517366e-01 4.945648294657420e-02 -2.679726875968379e-02 6.310920706756054e-02 -3.800991142096901e-02
            -1.195733537343771e-01 -4.239510243112748e-01 -4.660501780298557e-01 7.207442191651274e-02 6.311064828151701e-02 -3.805081350631543e-02 4.944924044432512e-02 -2.679359738033032e-02
365635000.0000000000 4.870537791462647e-02 -1.588813595990411e-02 4.841031616544762e-02 -4.173135682463186e-03 -4.149294089036138e-01 2.346280843300174e-01 -2.617058893732603e-01 -3.503774368250506e-01
            4.827765204898096e-02 -4.161626370292238e-03 4.869851447195832e-02 -1.596787458910248e-02 -2.618032754585946e-01 -3.504147496465291e-01 -4.148561374518333e-01 2.346783659010800e-01
            -4.148794708258521e-01 2.346739743480045e-01 -2.617329542742526e-01 -3.504087829204201e-01 3.238944540752412e-02 -4.473606192228344e-03 4.392237832203531e-02 -1.542369639621850e-02
            -2.616625820669412e-01 -3.504190831490075e-01 -4.149628311033408e-01 2.346778641773140e-01 4.380763126695994e-02 -1.545176394854855e-02 3.241161302693542e-02 -4.419114803215087e-03
366467500.0000000000 4.881236988702563e-02 1.037793069473080e-02 5.315333962781040e-02 2.086917823260018e-02 -3.062585286857864e-01 3.701502815684457e-01 -3.650997940808651e-01 -2.314017412238943e-01
            5.320712862257745e-02 2.080625474229559e-02 4.883205405086687e-02 1.033284033135559e-02 -3.650532797439698e-01 -2.313805680900115e-01 -3.062120901251927e-01 3.702204154107210e-01
            -3.062192058935578e-01 3.701658679861841e-01 -3.650489960196702e-01 -2.314206875180366e-01 3.504821440195244e-02 2.432890029756529e-02 4.428831956797490e-02 1.415544238081961e-02
            -3.650635255340401e-01 -2.314166344019072e-01 -3.062246597402146e-01 3.702037349892952e-01 4.422049342069231e-02 1.416059558548968e-02 3.504638876028705e-02 2.433539599496968e-02
367300000.0000000000 6.700484651287263e-02 2.889250042253363e-02 7.396779049334802e-02 3.633868872554977e-02 -1.541044246011912e-01 4.566236463955561e-01 -4.173823736923134e-01 -8.702740885097418e-02
            7.392686870383286e-02 3.637818527773851e-02 6.702164573831061e-02 2.882691466283544e-02 -4.173285715618986e-01 -8.705578860322927e-02 -1.541931993120481e-01 4.567348318467874e-01
            -1.541007503362104e-01 4.566702197637780e-01 -4.173576393096279e-01 -8.699061342079603e-02 5.660081648176087e-02 4.437611754303833e-02 6.366805346734009e-02 3.544331290053730e-02
            -4.173642202730517e-01 -8.701610094443868e-02 -1.540815128792453e-01 4.567100319432827e-01 6.367385725209156e-02 3.538674499373456e-02 5.654989183447028e-02 4.432482183086022e-02
368132500.0000000000 9.268091293674866e-02 2.967504419197400e-02 9.987415952108471e-02 3.420038571688713e-02 1.831398119515595e-02 4.813176424591606e-01 -4.166704013238920e-01 6.264789090693053e-02
            9.993015203233475e-02 3.425497730492180e-02 9.265885855512072e-02 2.967099409876488e-02 -4.166724339439724e-01 6.266262581664596e-02 1.829912637825802e-02 4.813568808628096e-01
            1.826898928246927e-02 4.813851805106271e-01 -4.167448827141227e-01 6.267403223877165e-02 8.588076142645205e-02 4.535880228248464e-02 9.125909321750306e-02 3.836913791169039e-02
            -4.166589423143731e-01 6.266494734767562e-02 1.824338083450128e-02 4.813172747262893e-01 9.115943278007652e-02 3.839087234698088e-02 8.587617244718700e-02 4.534550562961025e-02
368965000.0000000000 1.121627255534825e-01 1.282747848486201e-02 1.181274620400746e-01 1.572354047488857e-02 1.859169384588096e-01 4.433634123822843e-01 -3.668244989642990e-01 2.012226575597197e-01
            1.181435821868490e-01 1.571216427353931e-02 1.121974737129976e-01 1.294131707642281e-02 -3.668775220182510e-01 2.012024662462978e-01 1.858602335630427e-01 4.432700192093568e-01
            1.858487665044786e-01 4.432645433685780e-01 -3.667949390134391e-01 2.012612709099193e-01 1.085441713687092e-01 2.745714392423953e-02 1.130540296646482e-01 2.308748753769269e-02
            -3.667957588312756e-01 2.012188569477726e-01 1.859325280435853e-01 4.432294980809107e-01 1.130494989693595e-01 2.307742425127724e-02 1.087018452360201e-01 2.751383176044105e-02
369797500.0000000000 1.156514556258133e-01 -1.288194473563837e-02 1.203433215373092e-01 -1.002372130694218e-02 3.284654642228192e-01 3.508643510930176e-01 -2.736818232434097e-01 3.151708815197291e-01
            1.203323938306691e-01 -1.004716771583116e-02 1.157012603660663e-01 -1.287654860295712e-02 -2.736556509645380e-01 3.151423450915671e-01 3.283876288462815e-01 3.509508458858081e-01
            3.283976035255126e-01 3.508367500628506e-01 -2.736931249794768e-01 3.151391950390767e-01 1.147097391887741e-01 -5.349720617603155e-04 1.191648982288918e-01 -2.054893218137042e-03
            -2.736583600646565e-01 3.151468829866177e-01 3.283431853904585e-01 3.509368431413182e-01 1.190874065865387e-01 -2.058250593662692e-03 1.146456455780725e-01 -5.240112420581571e-04
370630000.0000000000 1.010540014107516e-01 -3.523781668341550e-02 1.055317887560494e-01 -3.128957640877182e-02 4.310135715779008e-01 2.164392422966676e-01 -1.457853910474808e-01 3.911958387998997e-01
            1.054696791082366e-01 -3.138796150198323e-02 1.009801775069685e-01 -3.525942585509124e-02 -1.458688327427861e-01 3.912172133540618e-01 4.310494548802324e-01 2.163849863931009e-01
            4.310422055220804e-01 2.164354792037883e-01 -1.458451607246224e-01 3.912349653876760e-01 1.014409927776971e-01 -2.562775743546772e-02 1.071815858399517e-01 -2.458906625903356e-02
            -1.458670780934095e-01 3.912180147962291e-01 4.309847246265754e-01 2.163732405114133e-01 1.071734453716365e-01 -2.463501545918346e-02 1.015042612426878e-01 -2.573299109299632e-02
371462500.0000000000 7.459298582071305e-02 -4.281246195304994e-02 8.027662382970585e-02 -3.794737926890436e-02 4.832005123943484e-01 5.378565893124197e-02 2.727228631589440e-03 4.173334966877530e-01
            8.032151349945331e-02 -3.799666032185901e-02 7.449581722591794e-02 -4.270777252616847e-02 2.598979990310219e-03 4.173040823818203e-01 4.831037147851103e-01 5.378911229985301e-02
            4.831375445382796e-01 5.389798482612550e-02 2.734567505770126e-03 4.173269924406736e-01 7.508350575148712e-02 -3.617330649048843e-02 8.313046990430135e-02 -3.334603380280542e-02
            2.633730481892230e-03 4.172772062188930e-01 4.830737793900762e-01 5.388192937057751e-02 8.303191439758670e-02 -3.338426447600405e-02 7.514908504110480e-02 -3.616117936819827e-02
372295000.0000000000 4.892529035614686e-02 -3.067391285467586e-02 5.692022869608164e-02 -2.629478598885937e-02 4.761401560050798e-01 -1.201202876386117e-01 1.515471932719340e-01 3.868815340400251e-01
            5.687595749369283e-02 -2.639239265264857e-02 4.891901646877414e-02 -3.071295148441141e-02 1.514830890150659e-01 3.869139078728521e-01 4.762009626377410e-01 -1.201093182495374e-01
            4.761464140283571e-01 -1.201632133871111e-01 1.514524828007821e-01 3.868844277781478e-01 4.834549011124309e-02 -2.668382713520135e-02 5.909442971010311e-02 -2.327976656191624e-02
            1.515379721284500e-01 3.868539869390590e-01 4.761186944246467e-01 -1.200967226018070e-01 5.906027244422958e-02 -2.325657748101550e-02 4.833187766949752e-02 -2.668145807921863e-02
373127500.0000000000 3.760164121141860e-02 -4.213909312866837e-03 4.743436621753559e-02 -2.158754648967969e-03 4.064650881512869e-01 -2.839345481438196e-01 2.775032258853293e-01 3.038603143494820e-01
            4.737199743572943e-02 -2.129108340404525e-03 3.766095631143584e-02 -4.143159456543010e-03 2.775315203899842e-01 3.038830648989636e-01 4.064045543260718e-01 -2.838541186476259e-01
            4.064188480968435e-01 -2.838438451512432e-01 2.774090402813467e-01 3.039101163003390e-01 3.479735425832547e-02 -1.806068511501798e-03 4.829955040392606e-02 1.000116545149022e-03
            2.775253008196846e-01 3.039466273265390e-01 4.064652267028352e-01 -2.839060538368259e-01 4.830203895724717e-02 9.833328869874865e-04 3.480169889515038e-02 -1.742636613696139e-03
373960000.0000000000 4.697752159134631e-02 2.304807946904604e-02 5.684201457667888e-02 2.155174667809617e-02 2.798314236969418e-01 -4.127249641929059e-01 3.621801878754220e-01 1.830285817906919e-01
            5.689971680599006e-02 2.152493909201654e-02 4.694639166771869e-02 2.305447709668311e-02 3.622733249670145e-01 1.829692894164183e-01 2.799026183491405e-01 -4.126785893745623e-01
            2.798928381747284e-01 -4.126830493623632e-01 3.622030979038730e-01 1.830326378612804e-01 4.173410882722910e-02 2.528700073909053e-02 5.707505514831619e-02 2.624737161397280e-02
            3.623108084751621e-01 1.829168854521905e-01 2.799332684549191e-01 -4.125734149083468e-01 5.706106020688319e-02 2.631147570983439e-02 4.173458426390435e-02 2.530134419141984e-02
374792500.0000000000 7.175563065312363e-02 3.689995806362170e-02 7.940064610889766e-02 3.195535997717430e-02 1.143847107126614e-01 -4.860877231950141e-01 3.977267922151485e-01 4.398867414094032e-02
            7.941580327537627e-02 3.197961069077482e-02 7.167466105403555e-02 3.695721852843348e-02 3.977328895030825e-01 4.396913103059018e-02 1.144624124168437e-01 -4.861132901729620e-01
            1.143902036335620e-01 -4.861328166812370e-01 3.978157241287751e-01 4.401218715394167e-02 6.424202493747491e-02 4.015789187963787e-02 8.059529593288273e-02 3.888150457660128e-02
            3.977716512877959e-01 4.402902069371550e-02 1.144597822683635e-01 -4.860617310270793e-01 8.060012106796806e-02 3.898678713365441e-02 6.428150211868078e-02 4.023486980238905e-02
375625000.0000000000 9.889685664879233e-02 3.111965202424135e-02 1.023022557409267e-01 2.431409530470470e-02 -6.486942948244941e-02 -4.945004046541205e-01 3.841218830376701e-01 -9.536332308919546e-02
            1.023757067965752e-01 2.423378222224364e-02 9.893817819897671e-02 3.105939193796746e-02 3.841406251599208e-01 -9.538675835975653e-02 -6.485280107017992e-02 -4.944055224296015e-01
            -6.478085631324350e-02 -4.944018880438183e-01 3.841564487492221e-01 -9.538536713446816e-02 9.005703049262036e-02 3.620618244156219e-02 1.063166880703192e-01 3.286849859614858e-02
            3.841731497392714e-01 -9.542552563301315e-02 -6.492165846226255e-02 -4.943606928421199e-01 1.063424110074835e-01 3.288139887526727e-02 9.006884482934396e-02 3.623861275895458e-02
376457500.0000000000 1.150715048201574e-01 9.277150244826299e-03 1.138641316655131e-01 3.284966185125493e-03 -2.334509078386586e-01 -4.398678442232484e-01 3.255491491861728e-01 -2.210680427181181e-01
            1.137821424912499e-01 3.232197493656325e-03 1.151761606164548e-01 9.256658351809803e-03 3.255765505218601e-01 -2.211296311743706e-01 -2.334223122959267e-01 -4.398779390136669e-01
            -2.334533641056357e-01 -4.398582577220940e-01 3.256376971731125e-01 -2.210557702366686e-01 1.059656850358826e-01 1.671254480418956e-02 1.215457322091508e-01 1.159901765067287e-02
            3.256356090634449e-01 -2.210431060473851e-01 -2.334355195750568e-01 -4.398919979711117e-01 1.215533410575279e-01 1.163753831289025e-02 1.059694971001554e-01 1.678805988338584e-02
377290000.0000000000 1.131569911551538e-01 -1.755815453705952e-02 1.080707552480512e-01 -2.009516741209536e-02 -3.721145101483292e-01 -3.318859983724253e-01 2.278007667851956e-01 -3.201854456834849e-01
            1.079229752847961e-01 -2.017369664008296e-02 1.131399987494337e-01 -1.758014229625800e-02 2.278133340218284e-01 -3.202415831738237e-01 -3.720775825965290e-01 -3.319316610781248e-01
            -3.721287419588972e-01 -3.318516695981714e-01 2.277856804549749e-01 -3.202085053011443e-01 1.046477588340619e-01 -7.960905717075162e-03 1.192744015133287e-01 -1.424246427892353e-02
            2.278047487288875e-01 -3.201963094590898e-01 -3.721266408284449e-01 -3.318583053401246e-01 1.193354471180552e-01 -1.416838275775831e-02 1.046146045180734e-01 -7.902248045023912e-03
378122500.0000000000 9.388100331734180e-02 -3.657915704073491e-02 8.737508941251133e-02 -3.404085628334003e-02 -4.665183009466459e-01 -1.833593616812141e-01 1.000346280240264e-01 -3.798094356486874e-01
            8.742970042557528e-02 -3.400790853453661e-02 9.385164991324672e-02 -3.662159824168808e-02 9.998232823411060e-02 -3.798290030084748e-01 -4.665682406952400e-01 -1.832225194940183e-01
            -4.665684697704494e-01 -1.832118182402885e-01 1.000115879588465e-01 -3.799030752415604e-01 8.691329806919680e-02 -2.510099874652952e-02 1.005870710825288e-01 -3.221382745199435e-02
            1.000270526603960e-01 -3.798370350993550e-01 -4.665350014404139e-01 -1.832266887061735e-01 1.005296102802770e-01 -3.220246159605167e-02 8.688232169544911e-02 -2.510106383688946e-02
378955000.0000000000 6.642789077036046e-02 -3.783145371072173e-02 6.155147983796259e-02 -3.041925296594445e-02 -5.055505785455224e-01 -9.023809504071716e-03 -4.230857036973307e-02 -3.893040936603376e-01
            6.155472577519137e-02 -3.041601866466170e-02 6.645954438178132e-02 -3.775696950225501e-02 -4.240037529649999e-02 -3.892280634430605e-01 -5.055573966443170e-01 -8.952673965917892e-03
            -5.055270293480113e-01 -8.954759938030465e-03 -4.232376761417996e-02 -3.892625163001315e-01 6.167634232350883e-02 -2.548684795668400e-02 7.440280602434950e-02 -3.328762335459166e-02
            -4.226582754159958e-02 -3.893102611270112e-01 -5.055941878983344e-01 -8.924610085946767e-03 7.444891118605355e-02 -3.324809502647740e-02 6.161669597980967e-02 -2.548790294241421e-02
379787500.0000000000 4.521856558405916e-02 -1.991528533839647e-02 4.410880715411503e-02 -9.430004714178732e-03 -4.806029836309557e-01 1.716054784289476e-01 -1.779312345121300e-01 -3.451840076688991e-01
            4.407045367367864e-02 -9.437591996043259e-03 4.521294571024687e-02 -1.989942452959628e-02 -1.779245111164995e-01 -3.452376248378337e-01 -4.805999809948776e-01 1.716256911809797e-01
            -4.805872222549377e-01 1.716512524137093e-01 -1.778911082498858e-01 -3.451753373102254e-01 4.237468229743475e-02 -7.618235366334865e-03 5.421766266380463e-02 -1.603140167915390e-02
            -1.779051504449412e-01 -3.451249743247936e-01 -4.805895908626054e-01 1.716539242638321e-01 5.423836534987870e-02 -1.601282616078127e-02 4.238300789314148e-02 -7.648540283847749e-03
380620000.0000000000 4.177965125934013e-02 7.883811760653829e-03 4.511389665656932e-02 1.880856385360882e-02 -3.905175311195588e-01 3.340309959314118e-01 -2.855823195778858e-01 -2.553145918895477e-01
            4.503660257161783e-02 1.885429325863697e-02 4.175399573397764e-02 7.937506793333982e-03 -2.855208884970214e-01 -2.553499073389834e-01 -3.906582732357995e-01 3.340696091204134e-01
            -3.905532872335054e-01 3.340763061812123e-01 -2.855607889542994e-01 -2.553733953079916e-01 4.073686979836385e-02 1.955129108109273e-02 5.132014187002545e-02 1.061969251890652e-02
            -2.855101918069189e-01 -2.553319287104774e-01 -3.906078964176242e-01 3.340081262239561e-01 5.132558259451977e-02 1.050574424427417e-02 4.061607751686217e-02 1.954840023559140e-02
381452500.0000000000 5.811938883289339e-02 3.069294512121551e-02 6.494707821727300e-02 3.986781446453566e-02 -2.460857293249650e-01 4.528111384438927e-01 -3.514366711582299e-01 -1.361974659327396e-01
            6.502504775621734e-02 3.973630689818589e-02 5.814173489407876e-02 3.069865077769748e-02 -3.513553587719600e-01 -1.362694441276647e-01 -2.460547074387248e-01 4.527703230573353e-01
            -2.460054231784971e-01 4.527689097677736e-01 -3.514356705985305e-01 -1.362146271092344e-01 5.833642211139323e-02 4.133058071178466e-02 6.729990910912814e-02 3.207620740887186e-02
            -3.513786686243234e-01 -1.362033544701582e-01 -2.459730763728414e-01 4.527590154462484e-01 6.735231212188218e-02 3.210899141966553e-02 5.822649091921982e-02 4.138662981777464e-02
382285000.0000000000 8.548364996900817e-02 3.670682736608829e-02 9.371806589156621e-02 4.264119824905280e-02 -6.884561687881775e-02 5.099439346297456e-01 -3.715010139126712e-01 -5.871143944171197e-03
            9.378521745095653e-02 4.264060517201564e-02 8.545560583890847e-02 3.665398218254160e-02 -3.714288538247686e-01 -5.839971770983894e-03 -6.883220943248970e-02 5.099226897325558e-01
            -6.885295709760382e-02 5.099390400037631e-01 -3.714615217696959e-01 -5.845355575191689e-03 8.626569817376362e-02 4.594563505412547e-02 9.350616142157622e-02 3.720502058248570e-02
            -3.715219273761811e-01 -5.894635723841060e-03 -6.880822133354120e-02 5.099822536685396e-01 9.352759764017174e-02 3.716244876035105e-02 8.630736043361618e-02 4.602766790803122e-02
383117500.0000000000 1.097552750601369e-01 2.319929798397524e-02 1.172515284774080e-01 2.641390224001994e-02 1.145922795773020e-01 5.000300808775774e-01 -3.476268107220030e-01 1.212137791494448e-01
            1.172973716157236e-01 2.644836049224526e-02 1.097231462230805e-01 2.319949637580190e-02 -3.477010306142607e-01 1.212007034040900e-01 1.146212686398061e-01 5.000516908937260e-01
            1.145353952952148e-01 5.001782276354391e-01 -3.476590676721015e-01 1.211940835643592e-01 1.108224414369415e-01 3.152278902349405e-02 1.165807214504525e-01 2.386599319762412e-02
            -3.477484805321668e-01 1.211575138178608e-01 1.146046574604935e-01 5.001180949677695e-01 1.165562813964121e-01 2.387517591641781e-02 1.106415645216855e-01 3.152699691438024e-02
383950000.0000000000 1.196657437931854e-01 -2.653895439306910e-03 1.249959235361492e-01 -6.233077201899253e-04 2.809401273949760e-01 4.283509094714571e-01 -2.835096749702621e-01 2.329237457239490e-01
            1.249802999896114e-01 -4.852278984148439e-04 1.195870358209920e-01 -2.711817634713667e-03 -2.835389436504047e-01 2.329667885872166e-01 2.810112639701754e-01 4.283840778917646e-01
            2.810072649064660e-01 4.284195089873039e-01 -2.835325384431384e-01 2.329358889902437e-01 1.202553366735214e-01 4.838504038579671e-03 1.254510230359804e-01 -9.945540474443270e-04
            -2.835091059750822e-01 2.329632678155994e-01 2.809485469195498e-01 4.283054232163830e-01 1.255434348527243e-01 -9.627615626783925e-04 1.203016531782772e-01 4.736665023318419e-03
384782500.0000000000 1.104957243195916e-01 -2.906721655736434e-02 1.137236440716172e-01 -2.589507535972752e-02 4.126463779864503e-01 3.053754675778816e-01 -1.842356265789534e-01 3.174694164217937e-01
            1.138431788415588e-01 -2.586849758688472e-02 1.105401576412459e-01 -2.906733597441998e-02 -1.842920783655754e-01 3.174644050302649e-01 4.126179326241602e-01 3.053700540164079e-01
            4.126034691096912e-01 3.053155662652945e-01 -1.842211998217199e-01 3.175419567003548e-01 1.107525601747183e-01 -2.188386089815173e-02 1.164606646987683e-01 -2.589093629623645e-02
            -1.842455820487373e-01 3.174811209348055e-01 4.127372989186875e-01 3.053066887519394e-01 1.164397141394316e-01 -2.579255409368055e-02 1.107684782203352e-01 -2.196400512622448e-02
385615000.0000000000 8.644723267642872e-02 -4.353539633287964e-02 8.916414887723467e-02 -3.801026410403757e-02 4.960668523510760e-01 1.443325252350582e-01 -5.946534875958630e-02 3.621939636225681e-01
            8.905928524210409e-02 -3.801186686305787e-02 8.637420150115020e-02 -4.363807659885204e-02 -5.956555928195683e-02 3.622626060266572e-01 4.959512230288759e-01 1.443916499289040e-01
            4.961007775927711e-01 1.443663112393775e-01 -5.942691211364455e-02 3.623546399985402e-01 8.617024278326586e-02 -3.626916076364029e-02 9.342044121619883e-02 -3.895206153431895e-02
            -5.950037522141090e-02 3.623914761878863e-01 4.959793956247644e-01 1.444282777014955e-01 9.346026677341575e-02 -3.902386121008583e-02 8.622412404511887e-02 -3.637619178207902e-02
386447500.0000000000 5.835354529611630e-02 -3.875173650438097e-02 6.261591327618685e-02 -3.077660443893774e-02 5.198246053598925e-01 -3.843454204356849e-02 7.453354282261039e-02 3.579790420316569e-01
            6.264117021673618e-02 -3.080024139040304e-02 5.838594929278641e-02 -3.873770563423435e-02 7.446577577789615e-02 3.580950176016854e-01 5.199065739851166e-01 -3.852655521080463e-02
            5.198723305350060e-01 -3.849903952285601e-02 7.445737294296595e-02 3.580302838509555e-01 5.785454629430328e-02 -3.120999377654634e-02 6.734575252982976e-02 -3.380743622368156e-02
            7.447785693956109e-02 3.580399716250535e-01 5.199399527466235e-01 -3.843549958888528e-02 6.736065478559455e-02 -3.382319048361337e-02 5.793502752714709e-02 -3.113857062868941e-02
387280000.0000000000 4.051512814932158e-02 -1.666902318748916e-02 4.791568694321811e-02 -7.461528418433313e-03 4.769639318883209e-01 -2.218458894458259e-01 1.964622696623557e-01 3.040243495927950e-01
            4.797041225218234e-02 -7.489985390702264e-03 4.057481720871350e-02 -1.671355125978056e-02 1.965013966189783e-01 3.040373153869567e-01 4.769622000904043e-01 -2.218679810284058e-01
            4.769476035034044e-01 -2.218417693677488e-01 1.965280641619958e-01 3.040664853788124e-01 4.016531246513028e-02 -8.335022127361534e-03 5.151981101515554e-02 -1.246398400744640e-02
            1.965943974904841e-01 3.039626706633979e-01 4.769196565663460e-01 -2.219141431046212e-01 5.151486444096654e-02 -1.249799264973604e-02 4.020646208116972e-02 -8.320926361962350e-03
388112500.0000000000 4.224276128410959e-02 1.134326655938569e-02 5.340165696523335e-02 1.946793245130510e-02 3.686038105590708e-01 -3.795856480706876e-01 2.875918591111825e-01 2.104988858840522e-01
            5.341705667866026e-02 1.943081374752695e-02 4.233970620303734e-02 1.138865958276642e-02 2.876079424677066e-01 2.105023285930987e-01 3.686281283618585e-01 -3.795958097871354e-01
            3.686386877326704e-01 -3.795920903164920e-01 2.875852072884589e-01 2.104782119648137e-01 4.240401305091480e-02 2.040514830290045e-02 5.454497878184100e-02 1.362837229189842e-02
            2.875696527520120e-01 2.104979026197890e-01 3.686240040927262e-01 -3.796372263786348e-01 5.457153976647887e-02 1.367294772043951e-02 4.230807240752753e-02 2.031567142989557e-02
388945000.0000000000 6.184744234410217e-02 3.022837268914211e-02 7.576975188829251e-02 3.510562134574581e-02 2.091411418986328e-01 -4.868472346789059e-01 3.373333437645128e-01 9.448173629394398e-02
            7.575979813337383e-02 3.505771753589531e-02 6.183654016565637e-02 3.022564939101349e-02 3.373937629455668e-01 9.443661002190951e-02 2.091632344651303e-01 -4.868196580085593e-01
            2.092116087709549e-01 -4.868543993137176e-01 3.372992701135861e-01 9.452739289101222e-02 6.282054173397009e-02 4.003563277643974e-02 7.447174066383097e-02 3.029578396531900e-02
            3.373347495596523e-01 9.447085973474958e-02 2.092538718397418e-01 -4.868268253944248e-01 7.447581769451310e-02 3.020671179878712e-02 6.283245575498378e-02 3.996643640114435e-02
389777500.0000000000 8.814886899775745e-02 3.090109717462271e-02 1.027646516817582e-01 3.125670447643849e-02 2.298279534886435e-02 -5.284694380645897e-01 3.443597570570066e-01 -2.775876189221138e-02
            1.027755283368585e-01 3.128977587699483e-02 8.816999001949043e-02 3.089708264691764e-02 3.443419727965578e-01 -2.781161900474622e-02 2.308332532976391e-02 -5.284623488890143e-01
            2.305095415014142e-02 -5.284627586582692e-01 3.443350166892491e-01 -2.778167853721184e-02 9.044022307577793e-02 4.125035813075425e-02 9.980557434336584e-02 2.892068173400905e-02
            3.443398071027080e-01 -2.775979820300973e-02 2.300732629766317e-02 -5.284707368901580e-01 9.986268769580689e-02 2.890472828728361e-02 9.037790021470754e-02 4.127040188815367e-02
390610000.0000000000 1.075339345919372e-01 1.426238952649108e-02 1.203576196802565e-01 1.039589198883351e-02 -1.633085517960187e-01 -5.019000247606938e-01 3.111255159388898e-01 -1.434476134377477e-01
            1.203295897780858e-01 1.027689940898706e-02 1.075550161620434e-01 1.428284790387783e-02 3.112275971438720e-01 -1.434866570011710e-01 -1.633360110342690e-01 -5.018914551514179e-01
            -1.633422904784459e-01 -5.019508384826160e-01 3.111882566650275e-01 -1.434927080285800e-01 1.114480488759495e-01 2.469688706392866e-02 1.175663745359437e-01 1.115696831977736e-02
            3.111994428366566e-01 -1.435486541943889e-01 -1.633107120626184e-01 -5.018910607766301e-01 1.176023345566178e-01 1.107766529457579e-02 1.115130572229280e-01 2.470786046369449e-02
391442500.0000000000 1.109215342084127e-01 -1.068744344202169e-02 1.199628001925984e-01 -1.748537682388998e-02 -3.275347890330372e-01 -4.137794309868649e-01 2.413768401031960e-01 -2.419030233672498e-01
            1.199618934956523e-01 -1.745953884669699e-02 1.108998733370705e-01 -1.064501007663670e-02 2.413743144724172e-01 -2.418768078556526e-01 -3.274893102168699e-01 -4.137745928729028e-01
            -3.274872433059042e-01 -4.137384652936755e-01 2.413607332929751e-01 -2.419047989421043e-01 1.166317212344837e-01 -5.862279158067097e-04 1.192185353811459e-01 -1.401468877588555e-02
            2.413609389874694e-01 -2.418157970665841e-01 -3.274300739280061e-01 -4.137461110072413e-01 1.193035876180342e-01 -1.399777245717158e-02 1.165736780113389e-01 -6.304495663270993e-04
392275000.0000000000 9.664571963177357e-02 -3.172233477907676e-02 1.012693378505617e-01 -3.905265418025597e-02 -4.521755245742888e-01 -2.756927895993090e-01 1.407649092045793e-01 -3.112330887103750e-01
            1.012726512212899e-01 -3.905200015692947e-02 9.670753954528659e-02 -3.175346193858686e-02 1.407034951184184e-01 -3.112333651137902e-01 -4.521595122046093e-01 -2.756295086882409e-01
            -4.521440112432754e-01 -2.755679963442308e-01 1.407146280591182e-01 -3.112691425386359e-01 1.043580184245129e-01 -2.263178852904728e-02 1.040508878748279e-01 -3.446077264589973e-02
            1.407452023351249e-01 -3.112979972710449e-01 -4.521444571877004e-01 -2.756198883811930e-01 1.040019545221612e-01 -3.435974182140430e-02 1.044587568476084e-01 -2.260028143095794e-02
393107500.0000000000 7.154121861927118e-02 -3.804794048761423e-02 7.215829477143984e-02 -4.369796124494590e-02 -5.235802505510613e-01 -1.016643102466799e-01 2.015997973081477e-02 -3.402618067283293e-01
            7.215905813320657e-02 -4.363930976848102e-02 7.157220839622463e-02 -3.803543534858345e-02 2.021255956348525e-02 -3.403162793814835e-01 -5.234479741418228e-01 -1.016669833372517e-01
            -5.234903793358001e-01 -1.016872047247024e-01 2.009139887646059e-02 -3.402241463475653e-01 8.105627497990997e-02 -3.045619917741064e-02 7.873494393083273e-02 -3.999616144652551e-02
            2.019556319261730e-02 -3.402210832937305e-01 -5.235182910447962e-01 -1.016566527638233e-01 7.867104274374691e-02 -3.998478712203028e-02 8.094270683120919e-02 -3.049081875585310e-02
393940000.0000000000 4.794525140218723e-02 -2.547142801374829e-02 4.629845538867657e-02 -2.811498717856602e-02 -5.304065048671616e-01 8.967043537446429e-02 -1.031218267536447e-01 -3.221547265682336e-01
            4.623202909835975e-02 -2.807539101134349e-02 4.804327881781446e-02 -2.547437621890524e-02 -1.031181739319693e-01 -3.221146922236661e-01 -5.303863187196542e-01 8.963383953321964e-02
            -5.303424718467485e-01 8.966827919506801e-02 -1.030697173027223e-01 -3.222426299379579e-01 5.898181964387157e-02 -2.028697711080919e-02 5.587140516269901e-02 -2.718523547697999e-02
            -1.031820156886144e-01 -3.221406148112035e-01 -5.303085197372043e-01 8.961875779696166e-02 5.586754216835402e-02 -2.726713308550611e-02 5.900588351188264e-02 -2.013844228108005e-02
394772500.0000000000 3.900014969023827e-02 2.828725995476408e-04 3.666466060968661e-02 1.006980427178518e-03 -4.671594845008825e-01 2.740555695884132e-01 -2.091448773544920e-01 -2.599042662905648e-01
            3.665569458861154e-02 9.247746512180343e-04 3.901922143208378e-02 3.188597628923544e-04 -2.091899807520360e-01 -2.598013364076065e-01 -4.672197955914411e-01 2.740800773508472e-01
            -4.671627490995517e-01 2.741214063584940e-01 -2.091443909847661e-01 -2.598165344200177e-01 5.056821058054452e-02 2.576164334477177e-03 4.748389018916713e-02 -2.335948660170894e-03
            -2.090505313598125e-01 -2.599046966107734e-01 -4.672376066724667e-01 2.740646634098272e-01 4.743428139943694e-02 -2.404098510065057e-03 5.066639482757582e-02 2.472664517632252e-03
395605000.0000000000 4.987216792120742e-02 2.559467753768063e-02 4.839572999932498e-02 2.897188163429831e-02 -3.396592374554476e-01 4.242490145309962e-01 -2.825031845008603e-01 -1.658408378081636e-01
            4.831756057357611e-02 2.908874351317224e-02 4.991405799655552e-02 2.558778743519197e-02 -2.824378427034686e-01 -1.657569104422087e-01 -3.397634912619916e-01 4.242459574653369e-01
            -3.397442826607330e-01 4.242073600124752e-01 -2.824758753973850e-01 -1.658214702207644e-01 6.101328331866045e-02 2.460067483094819e-02 5.827104101062305e-02 2.129469962912484e-02
            -2.825576677680642e-01 -1.657528303052836e-01 -3.397757335859035e-01 4.242006007866979e-01 5.821745736436819e-02 2.137741424576168e-02 6.103465215456139e-02 2.455056791871215e-02
396437500.0000000000 7.468084586149526e-02 3.709813837392736e-02 7.475957643065329e-02 4.197646449717349e-02 -1.665317785640591e-01 5.169857300607474e-01 -3.169881632527702e-01 -5.590077512167502e-02
            7.481056867626888e-02 4.208168341221866e-02 7.477456620987426e-02 3.708770040757706e-02 -3.168997725710815e-01 -5.598988653584798e-02 -1.664774229080259e-01 5.170188408668813e-01
            -1.665080409502266e-01 5.170174588071046e-01 -3.169909123288900e-01 -5.600956645804685e-02 8.411950630470529e-02 3.315896231586678e-02 8.176116145047463e-02 3.116453000433566e-02
            -3.169492907137350e-01 -5.590514607876408e-02 -1.665591401474333e-01 5.170570956964656e-01 8.175407793618393e-02 3.118040593515081e-02 8.416155011276563e-02 3.328392453812783e-02
397270000.0000000000 1.007077328926792e-01 2.951220499957348e-02 1.022071987332956e-01 3.500105476314812e-02 2.644565173662512e-02 5.411222901693408e-01 -3.128515232624068e-01 5.586775663952399e-02
            1.021397865196960e-01 3.502073844391565e-02 1.007634988951055e-01 2.949481555947647e-02 -3.128894051940763e-01 5.595344236726726e-02 2.639851947076676e-02 5.412125718012546e-01
            2.642371789898781e-02 5.411577085781226e-01 -3.129166182017477e-01 5.586729464723457e-02 1.075746613657074e-01 2.356479566188364e-02 1.054384928760104e-01 2.273240218204438e-02
            -3.129346132697891e-01 5.588958242891610e-02 2.646215641572354e-02 5.411497915119363e-01 1.053714360068569e-01 2.270248124718324e-02 1.075072898339234e-01 2.366277128114520e-02
398102500.0000000000 1.153790757080250e-01 7.268894766661077e-03 1.176159841954336e-01 1.286386436832514e-02 2.132990476222642e-01 4.968268728437301e-01 -2.728271506199160e-01 1.593104565635531e-01
            1.175972622289641e-01 1.288420687696656e-02 1.153785492410781e-01 7.199889294333031e-03 -2.727571704886442e-01 1.592857983246314e-01 2.132526865372552e-01 4.969291175761531e-01
            2.132813146049707e-01 4.968183854798583e-01 -2.728328503697581e-01 1.593189542357473e-01 1.190993965496011e-01 3.756339741549733e-04 1.175239914136209e-01 7.341922581907340e-04
            -2.728287057017977e-01 1.593563358146282e-01 2.132261005385891e-01 4.968534062748210e-01 1.174261764584268e-01 7.563740646854327e-04 1.191277633781897e-01 3.431464344162509e-04
398935000.0000000000 1.123226532262643e-01 -1.909628559128205e-02 1.150719090315993e-01 -1.318052667096094e-02 3.726827856813105e-01 3.924584371514683e-01 -1.998765150632364e-01 2.440871076678550e-01
            1.150471706420313e-01 -1.325603826094337e-02 1.123814314111170e-01 -1.904739405268313e-02 -1.998662177375222e-01 2.440299082329499e-01 3.727828793411999e-01 3.923843608717784e-01
            3.726800825402290e-01 3.923966786844028e-01 -1.997854426069465e-01 2.440316639970128e-01 1.128632508763905e-01 -2.556529684347699e-02 1.120804381296747e-01 -2.393037675396828e-02
            -1.998055186161792e-01 2.440432139098684e-01 3.727354949412143e-01 3.924140178540738e-01 1.121069689674005e-01 -2.399146095306583e-02 1.128152449074228e-01 -2.558762331467197e-02
399767500.0000000000 9.328350448045396e-02 -3.716640594130410e-02 9.620511829159206e-02 -3.083164922544549e-02 4.879702188043974e-01 2.398395266272643e-01 -1.002189622710938e-01 2.988638247973918e-01
            9.625526425912034e-02 -3.083254856691236e-02 9.323284526219827e-02 -3.721038558487942e-02 -1.002779344344568e-01 2.988628392082742e-01 4.879975667495006e-01 2.399328758987750e-01
            4.879172250120490e-01 2.398729192621213e-01 -1.001883470428805e-01 2.988264125301193e-01 9.087401714632387e-02 -4.205195092851254e-02 9.162265762762929e-02 -3.963969089382034e-02
            -1.002125258044703e-01 2.988829986955622e-01 4.879705704533089e-01 2.398428513002926e-01 9.170929577251451e-02 -3.970170881416921e-02 9.083833503922027e-02 -4.213157817183076e-02
400600000.0000000000 6.711055086687445e-02 -3.844682399769954e-02 7.047332592028532e-02 -3.125203395436680e-02 5.450308530037418e-01 5.476993375986124e-02 1.394314241118512e-02 3.136540370438866e-01
            7.050102589342438e-02 -3.121458281137925e-02 6.700916273534351e-02 -3.849331844810651e-02 1.393040822023361e-02 3.136149878058112e-01 5.450235760052151e-01 5.477033270436542e-02
            5.450964389857044e-01 5.480728573524497e-02 1.388243689383856e-02 3.135826990511688e-01 6.275832892430665e-02 -4.075022883103009e-02 6.538001224290230e-02 -3.822315467079954e-02
            1.393519250464823e-02 3.135882960926811e-01 5.449883966551125e-01 5.470906815637001e-02 6.535902426049940e-02 -3.816853195279256e-02 6.277644607130110e-02 -4.075745989766114e-02
401432500.0000000000 4.676592080670400e-02 -2.231969386002757e-02 5.125977072424630e-02 -1.406939848712701e-02 5.335242391065568e-01 -1.422425647785798e-01 1.250343678110478e-01 2.842809720374772e-01
            5.119665750730593e-02 -1.410200413323568e-02 4.676678315573658e-02 -2.219111236760742e-02 1.250341934022604e-01 2.843704390410140e-01 5.334348151633088e-01 -1.421990491601653e-01
            5.334577040846999e-01 -1.421006685460738e-01 1.250586966799561e-01 2.842941831799551e-01 4.202300394796630e-02 -2.132319635385070e-02 4.628733310848589e-02 -1.974301638534802e-02
            1.251014555708651e-01 2.843313642549762e-01 5.334648235030170e-01 -1.421166013610345e-01 4.633229738095773e-02 -1.984115277635431e-02 4.215669521543994e-02 -2.137790324670728e-02
402265000.0000000000 4.287980517691367e-02 2.840846916653209e-03 4.896083102381215e-02 1.162973809042551e-02 4.505481862449427e-01 -3.243237628139255e-01 2.152226776307420e-01 2.167423404631735e-01
            4.897197429059610e-02 1.164444111549776e-02 4.289082068533037e-02 2.848136733578090e-03 2.151733067351116e-01 2.167915942460104e-01 4.505327272722885e-01 -3.244031053242181e-01
            4.505837463543503e-01 -3.243777086395609e-01 2.150565217263567e-01 2.167514830158803e-01 3.941727032265284e-02 6.766668539626670e-03 4.434066433292124e-02 6.311384408453323e-03
            2.151413853512742e-01 2.167643891602113e-01 4.505225528191050e-01 -3.243641398670409e-01 4.430935471587237e-02 6.380943026578360e-03 3.945459372464435e-02 6.700516686522794e-03
403097500.0000000000 5.674725575270743e-02 2.305263803991622e-02 6.470590578035874e-02 3.177150290120052e-02 3.059860756399453e-01 -4.644366379874096e-01 2.724449984741828e-01 1.243887595631649e-01
            6.465743613830174e-02 3.171977365070251e-02 5.671009157616210e-02 2.301359174883959e-02 2.725072815062770e-01 1.243736032211545e-01 3.060377944778877e-01 -4.644055638184955e-01
            3.059008788840192e-01 -4.645659229314383e-01 2.724537678225152e-01 1.244074252624146e-01 5.570451817071039e-02 2.901062970327103e-02 5.998670711310461e-02 2.628929689426379e-02
            2.724353281284775e-01 1.243736039655008e-01 3.059735035515070e-01 -4.644501895801265e-01 5.996393694398013e-02 2.631864438605465e-02 5.572248767299052e-02 2.891073769540633e-02
403930000.0000000000 7.957161837598596e-02 2.776489706005833e-02 8.934974619579890e-02 3.586639851426513e-02 1.213211469515753e-01 -5.421656904436430e-01 2.936113831644016e-01 2.159334856442983e-02
            8.942623635981761e-02 3.585516045960376e-02 7.969881538096249e-02 2.777381528717807e-02 2.936714577869053e-01 2.161442919630939e-02 1.213587859574966e-01 -5.421708035283941e-01
            1.212995555436571e-01 -5.422012928137862e-01 2.936423803479261e-01 2.157642678013731e-02 8.174465322539182e-02 3.425612711259426e-02 8.377696773431156e-02 3.012205526236157e-02
            2.937146386559196e-01 2.154400693048751e-02 1.213715446517527e-01 -5.421468779343414e-01 8.380720733300573e-02 3.010022168045672e-02 8.165559791938473e-02 3.431560025806030e-02
404762500.0000000000 9.889414065931364e-02 1.583784177551880e-02 1.099974204375568e-01 2.257139993033841e-02 -7.669597806236400e-02 -5.490791779199932e-01 2.799884523024346e-01 -8.020732544049411e-02
            1.100822145371093e-01 2.265784915703649e-02 9.886428446236216e-02 1.590707252468147e-02 2.798962321184544e-01 -8.014910241178874e-02 -7.676246295219796e-02 -5.490977182775474e-01
            -7.672517417424238e-02 -5.490774767267552e-01 2.799179712492390e-01 -8.012255139253825e-02 1.039145038852953e-01 2.135969423873279e-02 1.028268146090268e-01 1.699758547177810e-02
            2.798939488039281e-01 -8.016334420506002e-02 -7.678428757369184e-02 -5.491341605523639e-01 1.028607956490267e-01 1.706141558407312e-02 1.039065116968033e-01 2.139185641851425e-02
405595000.0000000000 1.043255502077346e-01 -5.760351637327374e-03 1.166127507655884e-01 -6.143176096241423e-04 -2.632762438871753e-01 -4.877303195158660e-01 2.333832090562925e-01 -1.713842150160798e-01
            1.166492090181407e-01 -5.614388643202983e-04 1.043467700945627e-01 -5.774396394225200e-03 2.333203159096831e-01 -1.713515085497745e-01 -2.632684576732641e-01 -4.877411624115432e-01
            -2.631789324589908e-01 -4.877076999282253e-01 2.334011937972890e-01 -1.714546890261299e-01 1.117158602217225e-01 -2.399221452432171e-03 1.073595691262429e-01 -5.067236541209017e-03
            2.333999311619392e-01 -1.713953396965962e-01 -2.632510610793510e-01 -4.877220801340155e-01 1.074988290493844e-01 -5.085310876397525e-03 1.117349986010879e-01 -2.407491959685697e-03
406427500.0000000000 9.327935344214472e-02 -2.554802624389551e-02 1.061676147305654e-01 -2.210770930181303e-02 -4.174586845810758e-01 -3.667940785266526e-01 1.575750045728083e-01 -2.420186498452666e-01
            1.060949968371609e-01 -2.206343043195475e-02 9.334094329038121e-02 -2.554261088679984e-02 1.576467817773801e-01 -2.419902603818352e-01 -4.175045795605627e-01 -3.667207823014354e-01
            -4.175178265359059e-01 -3.667667968462620e-01 1.576709551984171e-01 -2.419593123219183e-01 1.016269028053175e-01 -2.518297667151368e-02 9.519212380273100e-02 -2.448541258419294e-02
            1.576028367018261e-01 -2.419064806159862e-01 -4.175233972996231e-01 -3.667557157408873e-01 9.525470889147339e-02 -2.442637691316294e-02 1.016296624903299e-01 -2.515232860121958e-02
407260000.0000000000 7.086075045293633e-02 -3.256743931642008e-02 8.391716697701920e-02 -3.108276984543331e-02 -5.222599328747461e-01 -1.991296949611845e-01 6.022085040059293e-02 -2.810961472470377e-01
            8.395205771884083e-02 -3.100777946679549e-02 7.085907942978203e-02 -3.268183823303578e-02 6.020882591031471e-02 -2.811597615655619e-01 -5.222273799090654e-01 -1.991350828790012e-01
            -5.222576753757697e-01 -1.991138378150863e-01 6.028499914681740e-02 -2.811040086421816e-01 7.867621972681774e-02 -3.544486487745654e-02 7.194917411389694e-02 -3.051025164134237e-02
            6.023063786018562e-02 -2.811023853053796e-01 -5.221747413563115e-01 -1.991079293667811e-01 7.196457905435899e-02 -3.049293876100696e-02 7.874349112904777e-02 -3.531364189673191e-02
408092500.0000000000 4.857763373642449e-02 -2.192290609403155e-02 6.120022293284490e-02 -2.232360116004051e-02 -5.627447549484459e-01 -2.597067667110598e-03 -4.498080136675749e-02 -2.809816798529322e-01
            6.123909510157625e-02 -2.228071038415427e-02 4.862727194866707e-02 -2.187383519944944e-02 -4.503418004408628e-02 -2.810169095420119e-01 -5.627716626508402e-01 -2.586370035055274e-03
            -5.627887296595689e-01 -2.631653740196508e-03 -4.498718649771438e-02 -2.809766670010506e-01 5.453853556214525e-02 -2.709779471830670e-02 4.935195881597305e-02 -1.828144198558527e-02
            -4.501406215422389e-02 -2.810227417231929e-01 -5.627424064537206e-01 -2.619592585417029e-03 4.943889998574409e-02 -1.829793913229209e-02 5.453519309645129e-02 -2.702934409771899e-02
408925000.0000000000 3.913436029681975e-02 2.330867974831617e-03 5.066760925065424e-02 -5.020891876967437e-06 -5.300627934042079e-01 1.985201262008654e-01 -1.408246096053329e-01 -2.416838203810234e-01
            5.068559254563034e-02 -2.034254707836261e-05 3.914817675265370e-02 2.312581006396830e-03 -1.408405924025758e-01 -2.417157349066989e-01 -5.299948373240305e-01 1.984635133306455e-01
            -5.300296512058019e-01 1.985067945087061e-01 -1.408544280156755e-01 -2.417024786864873e-01 4.235417881196087e-02 -4.103400631802458e-03 4.022833178973407e-02 7.277280731964114e-03
            -1.408373797607134e-01 -2.417163990168513e-01 -5.299993137315643e-01 1.985141683753784e-01 4.013960693635182e-02 7.283278612996599e-03 4.236531004821861e-02 -4.055326814714415e-03
409757500.0000000000 4.870569263817632e-02 2.749559658546497e-02 5.845429034424136e-02 2.358204552459066e-02 -4.252479365331351e-01 3.752627873130153e-01 -2.126922038528051e-01 -1.721563695425878e-01
            5.843435415257241e-02 2.349938631022064e-02 4.883456485815840e-02 2.751877806335284e-02 -2.127173174213202e-01 -1.721767906796252e-01 -4.252791843956310e-01 3.752300349771145e-01
            -4.253267617690016e-01 3.752031052792059e-01 -2.127009798117674e-01 -1.721426681968711e-01 4.923953372307665e-02 2.116415708830732e-02 5.049718122429696e-02 3.384190572749336e-02
            -2.126719440336809e-01 -1.721603052477062e-01 -4.253566440821577e-01 3.752207765500562e-01 5.049319725639329e-02 3.373420241020610e-02 4.925287540975966e-02 2.117222543231726e-02
410590000.0000000000 7.331666424544535e-02 4.013585053787699e-02 8.033210396141513e-02 3.533028263013904e-02 -2.637337147232414e-01 5.012213362934120e-01 -2.537875233324134e-01 -8.561583074466500e-02
            8.042755929391829e-02 3.537906493864924e-02 7.337147226063753e-02 4.012883078331255e-02 -2.537788142802971e-01 -8.557642210591787e-02 -2.638482692320977e-01 5.011773313619898e-01
            -2.637628491384262e-01 5.012974805887431e-01 -2.538390295636526e-01 -8.560119278180134e-02 7.139840155979527e-02 3.539206478101903e-02 7.577600135294209e-02 4.753224657608287e-02
            -2.537629790306037e-01 -8.551393785819848e-02 -2.637769772572486e-01 5.012002376139966e-01 7.572687058581021e-02 4.746311603173586e-02 7.139991375864856e-02 3.532580327765140e-02
411422500.0000000000 1.004514641546267e-01 3.365443736291240e-02 1.045117362299660e-01 2.933328968524639e-02 -6.999249599971324e-02 5.602362447907394e-01 -2.636735783209206e-01 6.533588030448890e-03
            1.044820762237350e-01 2.936843035441218e-02 1.004915023570453e-01 3.361097438437044e-02 -2.636304667492330e-01 6.507787539453568e-03 -6.996201993771713e-02 5.601950999079242e-01
            -7.004579550525317e-02 5.602000645969322e-01 -2.636574350331285e-01 6.478486750169215e-03 9.724736424952807e-02 3.118664303276833e-02 1.037578720879948e-01 4.216009242904580e-02
            -2.636769103080753e-01 6.434462957782481e-03 -7.000760161298164e-02 5.602398730823961e-01 1.037119686422793e-01 4.230757755108189e-02 9.718986621834069e-02 3.120648210933854e-02
412255000.0000000000 1.172450969446615e-01 1.093923494378419e-02 1.187149112312905e-01 8.845781012640767e-03 1.296417864324006e-01 5.479844484065473e-01 -2.435384996576030e-01 9.573804529259081e-02
            1.186563132007798e-01 8.872108864495134e-03 1.172156663219816e-01 1.109073993266056e-02 -2.435659633891236e-01 9.575981553810221e-02 1.296046374844766e-01 5.479040522443860e-01
            1.295388200765704e-01 5.478951821037886e-01 -2.435750487531610e-01 9.578052205745823e-02 1.141216737795402e-01 1.142998727709935e-02 1.215933684791079e-01 2.133430931893092e-02
            -2.435791957606533e-01 9.576888479647924e-02 1.296381476403099e-01 5.479924872592935e-01 1.215537843784611e-01 2.141534071969665e-02 1.141855314951273e-01 1.144105432873761e-02
413087500.0000000000 1.160090579569048e-01 -1.746142088325728e-02 1.159172007539664e-01 -1.625995980007654e-02 3.117349008125306e-01 4.691509263818719e-01 -1.946529034148493e-01 1.741551983562319e-01
            1.159891891484514e-01 -1.623067798966100e-02 1.159068751886167e-01 -1.745565063896910e-02 -1.946805537478621e-01 1.741396795268271e-01 3.117021735299522e-01 4.690421725900841e-01
            3.116949344845779e-01 4.690798588967626e-01 -1.946269470986667e-01 1.741398327207673e-01 1.145283650710710e-01 -1.458726744966936e-02 1.223772401478144e-01 -5.017181272827347e-03
            -1.947345360645633e-01 1.741699978344329e-01 3.116487380851916e-01 4.690627651159280e-01 1.224566887223823e-01 -4.896267546418748e-03 1.144563063374838e-01 -1.463808558540404e-02
413920000.0000000000 9.649922960779349e-02 -3.913369800137544e-02 9.709006728105415e-02 -3.395241064847615e-02 4.567531067148750e-01 3.330121732547698e-01 -1.200720195448945e-01 2.317971792043139e-01
            9.721607249479357e-02 -3.401789099373263e-02 9.649682763501798e-02 -3.911096655034944e-02 -1.200151381002478e-01 2.317684760755990e-01 4.567473574727268e-01 3.331400576428495e-01
            4.567946288127911e-01 3.331224613836823e-01 -1.200677554777623e-01 2.317840649692265e-01 9.803752730259481e-02 -3.472301585176295e-02 1.068234714835456e-01 -2.476333607571481e-02
            -1.201153894292142e-01 2.317800140529169e-01 4.568167895136392e-01 3.330792014541147e-01 1.068592269408745e-01 -2.481578050779944e-02 9.807368011948492e-02 -3.479307091196187e-02
414752500.0000000000 6.711642508182249e-02 -4.355600994791103e-02 7.057595254249210e-02 -3.518444309371120e-02 5.479121736091296e-01 1.536192290465770e-01 -2.799634126364828e-02 2.583357697955107e-01
            7.050351416915485e-02 -3.517272767030469e-02 6.708245074648034e-02 -4.366511300964342e-02 -2.797569790602162e-02 2.582751727610642e-01 5.479008005614495e-01 1.536710978271435e-01
            5.479438124862878e-01 1.536488647345491e-01 -2.800928141586297e-02 2.583401778233121e-01 7.239354695102196e-02 -3.946988075581193e-02 8.279965376366326e-02 -2.901237019782418e-02
            -2.800088277961314e-02 2.582741800968205e-01 5.478896259895615e-01 1.535867334347204e-01 8.289727181302439e-02 -2.905051636988626e-02 7.242979185425442e-02 -3.957259444639426e-02
415585000.0000000000 4.125738541475400e-02 -2.798249894414518e-02 4.909947732386967e-02 -1.804104732909684e-02 5.709054703719366e-01 -4.985417343316965e-02 6.702691067396821e-02 2.476052030043293e-01
            4.917782955698549e-02 -1.792858195463079e-02 4.130127696892345e-02 -2.796962947868804e-02 6.723412263229821e-02 2.476307359424534e-01 5.708822881135598e-01 -4.973908503411519e-02
            5.709147710414494e-01 -4.979605411202905e-02 6.709776841226646e-02 2.475538077933142e-01 4.998334670292755e-02 -2.617181096470213e-02 6.329895118605683e-02 -1.580307325145111e-02
            6.721001421902856e-02 2.475756537662001e-01 5.708708702661552e-01 -4.971652749840587e-02 6.341803285398943e-02 -1.578828065275543e-02 5.010948648041966e-02 -2.626693770020345e-02
416417500.0000000000 3.174788443525515e-02 5.067141764748547e-04 4.446337517952403e-02 9.518043025637002e-03 5.185334965861942e-01 -2.506215005309447e-01 1.489976182432571e-01 2.023760329729586e-01
            4.447242417700161e-02 9.618808998392752e-03 3.183196504366193e-02 5.788534007067278e-04 1.490616743560546e-01 2.023975266911420e-01 5.184901348477032e-01 -2.507094355220713e-01
            5.184837372214453e-01 -2.507571786771566e-01 1.490846214334783e-01 2.023635447774493e-01 4.276849058419002e-02 -1.797767589314692e-03 5.928328045471676e-02 7.257022973171834e-03
            1.489624388472536e-01 2.023815876658218e-01 5.185124369250854e-01 -2.506957308869111e-01 5.927422695864280e-02 7.195602489635662e-03 4.274608402652853e-02 -1.726256941157486e-03
417250000.0000000000 4.278950636421723e-02 2.774295398483757e-02 5.935938552209761e-02 3.320202843371275e-02 3.956389875528781e-01 -4.195025039735202e-01 2.058492644926014e-01 1.331098558400019e-01
            5.944616576465416e-02 3.322897179375713e-02 4.274682365000016e-02 2.771274250721542e-02 2.059619161935253e-01 1.330857412113486e-01 3.956806796865966e-01 -4.195213054310190e-01
            3.956802241884693e-01 -4.194621400498312e-01 2.059501742921157e-01 1.331648170746973e-01 5.376895616409684e-02 2.038005910577216e-02 7.305079120905565e-02 2.617508276871488e-02
            2.059916931109353e-01 1.330855689948795e-01 3.956693654250462e-01 -4.195250129743597e-01 7.308177033600013e-02 2.614401891358954e-02 5.369584252815764e-02 2.035062555665197e-02
418082500.0000000000 6.754882369110865e-02 4.062622195039715e-02 8.595181295570051e-02 4.105617207807727e-02 2.207724106895613e-01 -5.315090927467805e-01 2.340489168222851e-01 5.228365119519345e-02
            8.594789100764054e-02 4.108370702797172e-02 6.759425076324878e-02 4.075759266739218e-02 2.340429480231640e-01 5.223769967955212e-02 2.207332331049092e-01 -5.315624113826886e-01
            2.207342326572896e-01 -5.315518391176406e-01 2.340815570191281e-01 5.224982172254839e-02 7.618234123477642e-02 2.851145468695367e-02 9.698087807854025e-02 2.995624920284522e-02
            2.340933306835541e-01 5.221457059544496e-02 2.207552969559766e-01 -5.315773660317074e-01 9.688236801626486e-02 2.998532340203083e-02 7.617212063717585e-02 2.858418340968110e-02
418915000.0000000000 9.319747929880505e-02 3.480721061484450e-02 1.104928629916486e-01 2.976132453924078e-02 1.990205549787441e-02 -5.735592011389771e-01 2.342277278202996e-01 -3.066879288117435e-02
            1.105280688280025e-01 2.974315206272163e-02 9.314561750801846e-02 3.479038601749284e-02 2.342736519351405e-01 -3.069975712979535e-02 1.985915001067302e-02 -5.735041148452751e-01
            1.979132821566315e-02 -5.735706992377110e-01 2.343547884659892e-01 -3.071824905221455e-02 9.746994111629384e-02 1.938089942285326e-02 1.175636894148396e-01 1.594408041615784e-02
            2.342678137277453e-01 -3.076860569591547e-02 1.986226037133869e-02 -5.734828337164544e-01 1.176691350492931e-01 1.591359730208764e-02 9.740220289008351e-02 1.934943448836073e-02
419747500.0000000000 1.077758019775482e-01 1.499050567430918e-02 1.214890408301838e-01 5.703727036824059e-03 -1.810434641884857e-01 -5.436630299903830e-01 2.078085563290767e-01 -1.088547695167543e-01
            1.214992792341240e-01 5.768846493960505e-03 1.078180860246957e-01 1.502690500404042e-02 2.077805220703512e-01 -1.088535992400633e-01 -1.810284176100075e-01 -5.437634800824286e-01
            -1.810101936591220e-01 -5.436309237666702e-01 2.078474837085762e-01 -1.087880692542814e-01 1.066266417801465e-01 -1.616808591406518e-03 1.242924246114313e-01 -9.360763213340791e-03
            2.078171393827165e-01 -1.087847627291796e-01 -1.810275688165440e-01 -5.436097056259261e-01 1.242406192497326e-01 -9.301529742694315e-03 1.065497578786254e-01 -1.691028958953689e-03
420580000.0000000000 1.056603802262616e-01 -8.168377092552491e-03 1.142289753922017e-01 -1.942348354400561e-02 -3.591348107427772e-01 -4.476326949637603e-01 1.559539993518358e-01 -1.744866014627396e-01
            1.143587224557891e-01 -1.936212236237752e-02 1.057293720089877e-01 -8.111171352141558e-03 1.559560619939508e-01 -1.744537341936876e-01 -3.591239313906439e-01 -4.476249477953709e-01
            -3.590509592057512e-01 -4.476799460633880e-01 1.559730654233914e-01 -1.744965600543232e-01 9.898959931633858e-02 -2.346587901719308e-02 1.127996836424601e-01 -3.385854992301153e-02
            1.559074430723612e-01 -1.744298103568016e-01 -3.590855488638220e-01 -4.477240096348413e-01 1.127936068498262e-01 -3.399238973165571e-02 9.893199508243122e-02 -2.347125857507788e-02
421412500.0000000000 8.896096594141351e-02 -2.304846082226876e-02 9.237559112446403e-02 -3.349180311856223e-02 -4.949150744678975e-01 -2.959819075555669e-01 8.265087193545269e-02 -2.179083779516301e-01
            9.237461576555739e-02 -3.350969308424357e-02 8.894135076637695e-02 -2.307531802025859e-02 8.261787140859141e-02 -2.180215825160072e-01 -4.948009677734576e-01 -2.959388779059350e-01
            -4.948920681999887e-01 -2.959779771468822e-01 8.269550202356078e-02 -2.179480335572598e-01 7.785872580330683e-02 -3.493813440636526e-02 8.743873713789918e-02 -4.625209589552864e-02
            8.262800559235053e-02 -2.180195351821921e-01 -4.948103804063884e-01 -2.960332885213086e-01 8.739144950545016e-02 -4.620265969315447e-02 7.790228008826694e-02 -3.493687618274607e-02
422245000.0000000000 6.693962053301181e-02 -2.201399691929042e-02 6.634503680057266e-02 -2.931416660841585e-02 -5.709195293324005e-01 -1.041101483407247e-01 -2.449274023558373e-03 -2.307870674501063e-01
            6.642831183824392e-02 -2.929592187594872e-02 6.692328399237636e-02 -2.202899553925376e-02 -2.445227631192116e-03 -2.308225114433872e-01 -5.709421617352661e-01 -1.040456565916776e-01
            -5.709363252686207e-01 -1.040659513162859e-01 -2.474215352646593e-03 -2.308071030964600e-01 5.352058392693115e-02 -2.883020754832999e-02 5.938734306972846e-02 -3.935643456585020e-02
            -2.389825949214916e-03 -2.307823227175251e-01 -5.708954651134185e-01 -1.041610444438325e-01 5.934843815727911e-02 -3.933350200864693e-02 5.339762256474036e-02 -2.876383123346421e-02
423077500.0000000000 5.200554874260743e-02 -5.458748031262888e-03 4.975201851809878e-02 -8.474217460626212e-03 -5.740447693857655e-01 1.055640439687974e-01 -8.471577889073593e-02 -2.099856295943264e-01
            4.976018198728186e-02 -8.446172497119339e-03 5.205113163594507e-02 -5.427689439229666e-03 -8.469394199337905e-02 -2.099185889283558e-01 -5.740221970305018e-01 1.055633488727379e-01
            -5.740684587653015e-01 1.054950008875420e-01 -8.472186108037261e-02 -2.099218363336627e-01 3.887738113167737e-02 -6.828577352373115e-03 4.236947043147574e-02 -1.583950832891644e-02
            -8.477886895319009e-02 -2.100000262698658e-01 -5.739991591633330e-01 1.055340559830889e-01 4.234602883953472e-02 -1.579101408901007e-02 3.889158100753131e-02 -6.899673981074141e-03
423910000.0000000000 5.344149052729509e-02 1.717409748746579e-02 5.162484130909499e-02 1.836318247617566e-02 -5.001056363334448e-01 3.038829446829875e-01 -1.504166461252847e-01 -1.612959787228587e-01
            5.143089491704143e-02 1.837669785968143e-02 5.346428371541017e-02 1.724639671606662e-02 -1.504877001526228e-01 -1.612148394789810e-01 -5.000877651546159e-01 3.038780921054497e-01
            -5.000670778414180e-01 3.038623802945135e-01 -1.505220398540628e-01 -1.613059068221611e-01 4.311612762107650e-02 2.016378708023157e-02 4.505697239768177e-02 1.267744514274075e-02
            -1.504667201015043e-01 -1.612982360821875e-01 -5.001029563336794e-01 3.038426908067258e-01 4.502596080781301e-02 1.263081141375274e-02 4.298609940159925e-02 2.018701745743360e-02
424742500.0000000000 7.062271127606493e-02 3.265582917643028e-02 7.088432693761806e-02 3.714407016694055e-02 -3.589769183972038e-01 4.614915907994409e-01 -1.920413653611480e-01 -9.568405193066910e-02
            7.088446599425621e-02 3.712496175445890e-02 7.065265618339571e-02 3.274076704601453e-02 -1.920311187780289e-01 -9.565788268327861e-02 -3.589248914362502e-01 4.613914872647213e-01
            -3.589007779144268e-01 4.614661500203913e-01 -1.920793621547668e-01 -9.571332070232134e-02 6.440425240410964e-02 3.788650934473274e-02 6.536651474546733e-02 3.143909528341075e-02
            -1.921133178092261e-01 -9.566666692142452e-02 -3.589435968754314e-01 4.614383125163980e-01 6.540370570293026e-02 3.139692386177797e-02 6.437563313456458e-02 3.784473669082337e-02
425575000.0000000000 9.411216864312372e-02 3.238290140446873e-02 9.745261762760389e-02 3.861729428565974e-02 -1.724019616014489e-01 5.566800268293788e-01 -2.086949187383563e-01 -2.339089057144807e-02
            9.747667004266757e-02 3.858444214124424e-02 9.410754442757062e-02 3.227325775917271e-02 -2.085998800783090e-01 -2.345649355603736e-02 -1.723301494783598e-01 5.566074058516559e-01
            -1.723702066222883e-01 5.566426111196848e-01 -2.086784312790947e-01 -2.344287271174832e-02 9.212622229686314e-02 3.737101366448294e-02 9.199781085047051e-02 3.149239689749268e-02
            -2.085846835400215e-01 -2.342450146143130e-02 -1.723550754639028e-01 5.566909906063485e-01 9.203379728998677e-02 3.140897400379002e-02 9.222371077185973e-02 3.727630805952994e-02
426407500.0000000000 1.115819970017894e-01 1.623348705629697e-02 1.182779283019768e-01 2.278176532978295e-02 3.321786775202951e-02 5.799825684453186e-01 -2.016052800669799e-01 4.855319501982306e-02
            1.181537958255412e-01 2.276397299302288e-02 1.115938130108511e-01 1.622722103011376e-02 -2.015935555822473e-01 4.858688684360793e-02 3.317637692104330e-02 5.800079829919416e-01
            3.317842180299140e-02 5.799668274242205e-01 -2.016217365679253e-01 4.860341057680461e-02 1.130519055016666e-01 1.925216617797634e-02 1.110395076432200e-01 1.400320336047203e-02
            -2.015532846886432e-01 4.861744827264288e-02 3.316852484053297e-02 5.799516328684895e-01 1.110683525969731e-01 1.399394885410615e-02 1.131054086758882e-01 1.927249064536083e-02
427240000.0000000000 1.144136912746980e-01 -7.647934291195414e-03 1.239514152777949e-01 -1.892242801421788e-03 2.324828172463032e-01 5.320038297539829e-01 -1.715509034423296e-01 1.148995622514767e-01
            1.240247122836320e-01 -1.893987361055266e-03 1.143363920305331e-01 -7.607381780728414e-03 -1.714604834553205e-01 1.148887936465862e-01 2.324941168298207e-01 5.319510188439690e-01
            2.325243298300696e-01 5.318809891684899e-01 -1.715078997839811e-01 1.148902684422046e-01 1.177387109870607e-01 -7.812041547965862e-03 1.133532670062163e-01 -1.159421317043199e-02
            -1.715088080899055e-01 1.148726034712609e-01 2.325025938463192e-01 5.319689658095097e-01 1.133416635531633e-01 -1.147764537716676e-02 1.178437323093650e-01 -7.754576886335766e-03
428072500.0000000000 1.007932334713654e-01 -2.794425444275105e-02 1.127768040136583e-01 -2.390842949637252e-02 4.037919429934448e-01 4.192436219607154e-01 -1.193788298058229e-01 1.680174286473186e-01
            1.127266593733108e-01 -2.390157494261182e-02 1.009061150038582e-01 -2.790401908197508e-02 -1.193307399292635e-01 1.679819971732517e-01 4.036992340144781e-01 4.192266043680941e-01
            4.037818349461381e-01 4.192807658656154e-01 -1.193558336172292e-01 1.680059786775522e-01 1.043202240903300e-01 -3.153757765282994e-02 9.755846425536370e-02 -3.250097624750347e-02
            -1.193498811888207e-01 1.680106361474765e-01 4.037921669469752e-01 4.193223594986124e-01 9.756331923231866e-02 -3.248011612494197e-02 1.043394983924916e-01 -3.164553334737606e-02
428905000.0000000000 7.673325801179620e-02 -3.463138631741113e-02 9.044511743000445e-02 -3.289249620855502e-02 5.275561848537098e-01 2.533156255704878e-01 -4.988039252592583e-02 1.987535827745275e-01
            9.040438959829657e-02 -3.292719290010311e-02 7.666671477876401e-02 -3.469139871105397e-02 -4.990969487189705e-02 1.986947021123303e-01 5.275993272085832e-01 2.533485010418658e-01
            5.276287603980885e-01 2.533761752966568e-01 -4.983359722282326e-02 1.987624496392952e-01 7.877796121886572e-02 -4.110255156236465e-02 7.067575205670228e-02 -3.784241704872775e-02
            -4.984194617546269e-02 1.987833981219869e-01 5.275887941378623e-01 2.533520780053584e-01 7.072715357136847e-02 -3.779202946662907e-02 7.887273646709388e-02 -4.108685964333397e-02
429737500.0000000000 5.364604032528931e-02 -2.343687347095248e-02 6.843924367477952e-02 -2.449067119692519e-02 5.867313076966518e-01 5.155447719693357e-02 2.633936941353472e-02 2.001720680009699e-01
            6.845285833529721e-02 -2.458190214930491e-02 5.361064338682744e-02 -2.345225506946048e-02 2.636545102368603e-02 2.001747922795862e-01 5.867835579642338e-01 5.159544373143512e-02
            5.867100642573811e-01 5.162156391597147e-02 2.630445440833619e-02 2.001508551134767e-01 5.345306641659960e-02 -3.161471337814683e-02 4.608839975140749e-02 -2.341170000274850e-02
            2.630037773729653e-02 2.001493350766117e-01 5.866367329967676e-01 5.156157321958956e-02 4.601402181654102e-02 -2.338827695419355e-02 5.345631198278725e-02 -3.161408602644829e-02
430570000.0000000000 4.376365113125638e-02 8.299217437913330e-04 5.885453677034726e-02 -3.587166434143340e-03 5.692851826414710e-01 -1.608741855015661e-01 9.531554480513776e-02 1.722742818376645e-01
            5.887527761353639e-02 -3.613000937354318e-03 4.366451859224486e-02 8.115478280872683e-04 9.530082647055131e-02 1.722574497674025e-01 5.692917033972181e-01 -1.608609533972527e-01
            5.692659476227252e-01 -1.609660057584649e-01 9.527507837931769e-02 1.722855411672308e-01 4.130519110616417e-02 -7.948635746145174e-03 3.666033150942586e-02 4.935132695707851e-03
            9.534613833251247e-02 1.722651720952962e-01 5.693220286284000e-01 -1.608419373604150e-01 3.663303032633853e-02 4.880332003912575e-03 4.125466102004715e-02 -7.882880810606974e-03
431402500.0000000000 5.265590540701301e-02 2.560257047661112e-02 6.693984155143148e-02 1.777656557982766e-02 4.750644878897657e-01 -3.534393359923194e-01 1.458696526688441e-01 1.228847945991621e-01
            6.685850854588002e-02 1.779398829400284e-02 5.260799202487050e-02 2.557873012145079e-02 1.459076415461365e-01 1.228307070177014e-01 4.751133067496606e-01 -3.534493086265015e-01
            4.750378017855584e-01 -3.534284314752809e-01 1.459147758773144e-01 1.228677887612517e-01 4.833825341162337e-02 1.711328026017442e-02 4.838184429815520e-02 3.292306559300488e-02
            1.458597475433233e-01 1.229720168023620e-01 4.750611196979793e-01 -3.534221165342223e-01 4.840901787048933e-02 3.296900980908538e-02 4.832454291475612e-02 1.708368852970293e-02
432235000.0000000000 7.578556147023845e-02 3.825870293361059e-02 8.790486318102411e-02 2.699609993622067e-02 3.181212704007134e-01 -4.979377783736771e-01 1.742018127811388e-01 6.267960062873404e-02
            8.790088938523009e-02 2.709926345721035e-02 7.568729706706243e-02 3.816650811044983e-02 1.742233303350062e-01 6.271060089286364e-02 3.180735811921069e-01 -4.978944672634350e-01
            3.180458823102268e-01 -4.978248725488180e-01 1.741991609852908e-01 6.269026941166607e-02 6.992364802123180e-02 2.996501841645129e-02 7.554916843268503e-02 4.653892752632709e-02
            1.742172476632013e-01 6.264439817119366e-02 3.180670257930349e-01 -4.978479758534036e-01 7.556208567594416e-02 4.653478656450681e-02 6.986073447037768e-02 2.999717393443197e-02
433067500.0000000000 1.010308613931182e-01 3.279985819297449e-02 1.096212822181197e-01 1.920563047774484e-02 1.220845454124757e-01 -5.758024432267899e-01 1.811884956230939e-01 -3.991680728456841e-04
            1.096128812252102e-01 1.926402930867671e-02 1.009916949771625e-01 3.284014472696405e-02 1.811924660468684e-01 -4.643797613653406e-04 1.221196272122530e-01 -5.758326865564203e-01
            1.221303706723459e-01 -5.758721159078096e-01 1.812249770708169e-01 -4.808285634784563e-04 9.381495006144366e-02 2.481364282323308e-02 1.044742521444569e-01 3.962037164902371e-02
            1.812261161532180e-01 -3.856054546096664e-04 1.221896312982614e-01 -5.758208655018763e-01 1.045249268701326e-01 3.965719528573316e-02 9.381193425978557e-02 2.473580177311473e-02
433900000.0000000000 1.165215434056215e-01 1.274707699052811e-02 1.208134193729654e-01 -1.699545518457190e-03 -8.606392643787271e-02 -5.808329451844771e-01 1.683140115974242e-01 -6.163100054776264e-02
            1.209019305143632e-01 -1.720294160506183e-03 1.165752178452342e-01 1.284190003543869e-02 1.682757091390505e-01 -6.170840297243298e-02 -8.618019271478748e-02 -5.808226340043785e-01
            -8.619744032738738e-02 -5.808181359399016e-01 1.682067630797481e-01 -6.168189397227299e-02 1.077606591488003e-01 5.124541128417402e-03 1.220687642470959e-01 1.636168320999686e-02
            1.683456688310580e-01 -6.169117208231865e-02 -8.610858841978344e-02 -5.808256130172140e-01 1.220102828137939e-01 1.625072396420890e-02 1.078764605254176e-01 5.158914642936907e-03
434732500.0000000000 1.158044658488933e-01 -1.208381249062657e-02 1.156111111472641e-01 -2.561182462507544e-02 -2.824931931018911e-01 -5.150530332448677e-01 1.356524864086883e-01 -1.162305075196404e-01
            1.156308645832600e-01 -2.561702963316934e-02 1.158117608689626e-01 -1.202124810340204e-02 1.356904181732742e-01 -1.162453676549180e-01 -2.824925197236387e-01 -5.150335188277810e-01
            -2.825165057791869e-01 -5.149732706418532e-01 1.356291713668753e-01 -1.162521930304195e-01 1.051991110745903e-01 -1.899279551937801e-02 1.205655770091956e-01 -1.219075542942704e-02
            1.356722735283962e-01 -1.161655216899539e-01 -2.824323160636849e-01 -5.150235113642374e-01 1.206632897835786e-01 -1.210887756165908e-02 1.051240372251494e-01 -1.901334756859194e-02
435565000.0000000000 9.939300691358231e-02 -3.006368041194195e-02 9.592182470370426e-02 -4.104709506232632e-02 -4.454797057603007e-01 -3.860555647253930e-01 8.452530796551354e-02 -1.568823449521503e-01
            9.586426346062829e-02 -4.103760583604234e-02 9.932047632840016e-02 -3.008068775155205e-02 8.453777218885355e-02 -1.567975274432117e-01 -4.455334434219665e-01 -3.860023726177487e-01
            -4.455783424248637e-01 -3.860884159765057e-01 8.448719184356732e-02 -1.568339956730383e-01 8.671453919783056e-02 -3.580896638355550e-02 1.013741120610126e-01 -3.272716365772553e-02
            8.457200007093912e-02 -1.568397750257402e-01 -4.455284854721618e-01 -3.860257062476299e-01 1.013252128128213e-01 -3.280741615906575e-02 8.675051311690778e-02 -3.575976163318283e-02
436397500.0000000000 7.542375976007143e-02 -3.268605414938749e-02 7.016052511741695e-02 -4.013802517518129e-02 -5.557700358995292e-01 -2.068162978130351e-01 2.063160922729016e-02 -1.751756130886083e-01
            7.014302384692697e-02 -4.012224852818270e-02 7.545796879295712e-02 -3.272464918043068e-02 2.069334348318052e-02 -1.752668621515573e-01 -5.556930816795371e-01 -2.067705437517355e-01
            -5.558484184130801e-01 -2.067809753965812e-01 2.066939925634356e-02 -1.751527833338555e-01 6.097216531320525e-02 -3.625610419483403e-02 7.316602229794035e-02 -3.571941664705602e-02
            2.063918895050047e-02 -1.752638561812664e-01 -5.557121299603263e-01 -2.068078822368261e-01 7.327861266042869e-02 -3.571387780168019e-02 6.098527814170993e-02 -3.627553539893836e-02
437230000.0000000000 5.636686292398581e-02 -1.847250055022329e-02 5.125846598437055e-02 -2.262494929643271e-02 -5.962680807524920e-01 3.006285239915169e-03 -4.484778500622116e-02 -1.668225451010402e-01
            5.120925205088977e-02 -2.255538075885415e-02 5.642385273928861e-02 -1.850344420000717e-02 -4.480945512619938e-02 -1.668847816080191e-01 -5.962950829013677e-01 3.009218180753042e-03
            -5.963005141479942e-01 2.998277024996384e-03 -4.480140249147432e-02 -1.668570543163109e-01 4.075136289934175e-02 -1.914547704555288e-02 5.025005972618513e-02 -1.920656843041729e-02
            -4.489445239756260e-02 -1.668214027971996e-01 -5.963208962725713e-01 2.965755323859514e-03 5.034925244500602e-02 -1.924923818526439e-02 4.079116265622268e-02 -1.907640348632868e-02
438062500.0000000000 5.264901757083370e-02 4.711493138568588e-03 4.896221789419751e-02 2.857387295993055e-03 -5.578913590753682e-01 2.155802383187299e-01 -9.959405440575164e-02 -1.344776338781989e-01
            4.888656880606936e-02 2.841438017261143e-03 5.265182226208211e-02 4.792746724018704e-03 -9.952774275289739e-02 -1.344003934661841e-01 -5.578814055809025e-01 2.155546297854946e-01
            -5.578951960975576e-01 2.155924055216800e-01 -9.953360230115646e-02 -1.345057111757923e-01 3.687680987103986e-02 7.588650622871599e-03 4.431789076924485e-02 8.312310724724071e-03
            -9.961922455172553e-02 -1.345196336318801e-01 -5.577887125028439e-01 2.156703429313331e-01 4.428342852119458e-02 8.339036306920023e-03 3.679310435173704e-02 7.488724825668245e-03
438895000.0000000000 6.609747306913970e-02 2.368337847973723e-02 6.438165213453140e-02 2.244153034551504e-02 -4.444720672437018e-01 3.997176002738104e-01 -1.357762446946938e-01 -8.708491349731964e-02
            6.439123933550894e-02 2.243151152808089e-02 6.609424519496761e-02 2.359347753542846e-02 -1.358551602584315e-01 -8.704787020977534e-02 -4.444126057754919e-01 3.997788059017049e-01
            -4.444463714168298e-01 3.997190092570039e-01 -1.358216000281864e-01 -8.705718146738346e-02 5.159878943336420e-02 2.990106587186616e-02 5.808151320860001e-02 3.251495931810846e-02
            -1.358514712344373e-01 -8.714394779803758e-02 -4.444101706781672e-01 3.997222271479037e-01 5.807289145181765e-02 3.248507793268631e-02 5.157690644655336e-02 2.985196507044431e-02
439727500.0000000000 8.892857689078401e-02 2.806620859401502e-02 8.829821509383759e-02 2.584711226045085e-02 -2.734511016545248e-01 5.295447025442255e-01 -1.526203627331589e-01 -3.376480261481998e-02
            8.830236604166219e-02 2.588976789193207e-02 8.884569325265231e-02 2.795170636088755e-02 -1.526003460829148e-01 -3.375612141583054e-02 -2.735207026153021e-01 5.295072550727001e-01
            -2.735461593467846e-01 5.295571096928204e-01 -1.525723260831639e-01 -3.378531666094371e-02 7.680461438211968e-02 3.687343675046270e-02 8.371238036045323e-02 4.120757278476637e-02
            -1.525821502739957e-01 -3.374979065896662e-02 -2.734708024801332e-01 5.295998710695071e-01 8.374620302839644e-02 4.128022629234920e-02 7.679591173997054e-02 3.687960976840064e-02
440560000.0000000000 1.086551051561519e-01 1.572014095620310e-02 1.079145359839146e-01 1.194921279527777e-02 -7.031388527369023e-02 5.898089566762102e-01 -1.517462432800611e-01 1.985719869988466e-02
            1.078913129814873e-01 1.198567311326816e-02 1.086240280336942e-01 1.571490726925825e-02 -1.518535684855207e-01 1.979856278440343e-02 -7.024401497321066e-02 5.898285839746172e-01
            -7.026987736266579e-02 5.898528255934307e-01 -1.517666547673779e-01 1.982844471175303e-02 9.942839311548451e-02 2.596352486088851e-02 1.079313190552254e-01 3.154451270211615e-02
            -1.517237382359693e-01 1.980339180222070e-02 -7.029390558021116e-02 5.897851808596354e-01 1.078521386788564e-01 3.152846456990911e-02 9.957839532412839e-02 2.598063796506340e-02
441392500.0000000000 1.153224204461994e-01 -7.058125194066764e-03 1.127450607600925e-01 -1.183288855828878e-02 1.393648432842138e-01 5.764850892666958e-01 -1.343583128606655e-01 7.032423145225755e-02
            1.127151323017996e-01 -1.190301284200187e-02 1.153559634355074e-01 -7.099092668728839e-03 -1.343599553328765e-01 7.028193763984047e-02 1.393456080364652e-01 5.765892184902917e-01
            1.392990831393430e-01 5.765152539155761e-01 -1.344231059734439e-01 7.030194649682703e-02 1.091848434307883e-01 3.661384326002041e-03 1.194984096523137e-01 9.292487460145046e-03
            -1.343802277648173e-01 7.031750756953052e-02 1.394120911041890e-01 5.764837039359447e-01 1.195286119083663e-01 9.286190362655527e-03 1.091250441834943e-01 3.696799197151156e-03
442225000.0000000000 1.051816256446418e-01 -2.922063931667784e-02 1.000204741312113e-01 -3.370839831315780e-02 3.315729263128554e-01 4.929521557334477e-01 -1.002422488397759e-01 1.128670860146566e-01
            1.000036807002319e-01 -3.365911767003145e-02 1.052002023474949e-01 -2.919582533423142e-02 -1.003064519650901e-01 1.129344305339718e-01 3.315573076937388e-01 4.929384799557954e-01
            3.315639361578273e-01 4.929396219228427e-01 -1.002485917721470e-01 1.129562922845945e-01 1.018116906726553e-01 -1.883901839256235e-02 1.138997911032777e-01 -1.412683538161322e-02
            -1.002416280879506e-01 1.129515235787106e-01 3.314853550685932e-01 4.929032842401363e-01 1.138060848289670e-01 -1.411122979841221e-02 1.018146640873342e-01 -1.878093650396450e-02
443057500.0000000000 8.247340077449752e-02 -3.971844123324030e-02 7.482320176972090e-02 -4.215344259915912e-02 4.847941588832353e-01 3.476143358843227e-01 -5.150817393535188e-02 1.406726806630050e-01
            7.475497517190538e-02 -4.220661515499707e-02 8.244304047483368e-02 -3.974454722659886e-02 -5.150287595474284e-02 1.407062813749008e-01 4.848708522544906e-01 3.477119383518347e-01
            4.848079505173672e-01 3.476476369179617e-01 -5.153694072476012e-02 1.407596258229426e-01 8.145276012114086e-02 -3.037778899036193e-02 9.460646325897754e-02 -2.737470083327435e-02
            -5.147306788731445e-02 1.407308501781784e-01 4.848280930348605e-01 3.477003454720182e-01 9.456655645646263e-02 -2.731774995568520e-02 8.151362449042032e-02 -3.037190538479696e-02
443890000.0000000000 5.759640913126486e-02 -3.243750565916251e-02 4.866087450574537e-02 -3.176585860336362e-02 5.793054950093748e-01 1.555939667508399e-01 4.741017271176598e-03 1.471533859339945e-01
            4.862113202190677e-02 -3.172662912698035e-02 5.764081927070161e-02 -3.244176969022665e-02 4.813000249864772e-03 1.471273579142496e-01 5.792615065698190e-01 1.556224206426231e-01
            5.792903203341725e-01 1.556025662771398e-01 4.769503753206870e-03 1.471053374625669e-01 5.871044397486999e-02 -2.481809283660741e-02 7.182924215535726e-02 -2.389296270877567e-02
            4.740164828065974e-03 1.470836705240612e-01 5.792979324592620e-01 1.556439486895638e-01 7.191044652527154e-02 -2.389350149000288e-02 5.867653663718730e-02 -2.484061504329203e-02
444722500.0000000000 4.358123749789721e-02 -1.013109486454488e-02 3.512929222893357e-02 -5.870514175407174e-03 5.991311324864474e-01 -6.024254990919604e-02 5.749686990561556e-02 1.305672149307303e-01
            3.513529804208149e-02 -5.844256040141702e-03 4.359475216119563e-02 -1.011859308323617e-02 5.748942754099102e-02 1.305345766466150e-01 5.991567217334388e-01 -6.037620890851274e-02
            5.991022946389580e-01 -6.029792777909963e-02 5.743311557637087e-02 1.305236752991243e-01 4.590806748744528e-02 -4.665149958830969e-03 5.835555661777877e-02 -5.466754978104899e-03
            5.748756771824278e-02 1.305692410135383e-01 5.992031532715134e-01 -6.027551895573851e-02 5.840903539844366e-02 -5.471925972117929e-03 4.588122917394513e-02 -4.649397108589376e-03
445555000.0000000000 4.821016107248204e-02 1.612385701632943e-02 4.163132676817333e-02 2.305803687271721e-02 5.387779591348143e-01 -2.698897581620140e-01 9.693414805761971e-02 9.652387204788508e-02
            4.167958412106380e-02 2.304023809732830e-02 4.813204443695742e-02 1.615097534885732e-02 9.680504701399131e-02 9.654408906643452e-02 5.387518828844984e-01 -2.698080025009836e-01
            5.387862628639072e-01 -2.697778897902674e-01 9.690373082066378e-02 9.646885529171503e-02 5.079721951027820e-02 1.921354925571169e-02 6.198957708819762e-02 1.720330084765578e-02
            9.687137733797721e-02 9.655618659504679e-02 5.388524516464976e-01 -2.698950146588888e-01 6.198546934561049e-02 1.711936790005636e-02 5.078998079497136e-02 1.920211917041951e-02
446387500.0000000000 6.885489341565765e-02 3.259522686743804e-02 6.514885867146333e-02 4.070461834637183e-02 4.069329741866605e-01 -4.423625856416318e-01 1.193316186918690e-01 5.404327709627814e-02
            6.516484768395149e-02 4.071314526277935e-02 6.878465169759737e-02 3.260762461860459e-02 1.193207954709111e-01 5.401861475845880e-02 4.069532139176071e-01 -4.423892345915879e-01
            4.069564556194580e-01 -4.423856574277578e-01 1.193237944767590e-01 5.412604563377476e-02 7.112547191016624e-02 3.333974770091750e-02 8.064890883394682e-02 3.092463113565634e-02
            1.193709126554495e-01 5.411103189122420e-02 4.068930848750231e-01 -4.423432569717038e-01 8.065652352409616e-02 3.095604575413340e-02 7.104706238443013e-02 3.334157603074449e-02
447220000.0000000000 9.499077066354551e-02 3.147860558173252e-02 9.357508306125194e-02 3.908681126078219e-02 2.241863108675131e-01 -5.550048354083016e-01 1.262941620291733e-01 1.006091526097844e-02
            9.361167211473967e-02 3.907333183312860e-02 9.507400146568133e-02 3.143056866998251e-02 1.262988251858114e-01 9.953521129159726e-03 2.241966306901590e-01 -5.549854344639764e-01
            2.241979660851087e-01 -5.549989402413699e-01 1.263341396193798e-01 1.002420725123359e-02 9.610151667550981e-02 3.002047489646405e-02 1.040511208384024e-01 2.812467588162354e-02
            1.262835914139744e-01 1.001186271676314e-02 2.242146138875874e-01 -5.550245811598665e-01 1.041403353764769e-01 2.810040799849020e-02 9.601651968152532e-02 3.011586441838681e-02
448052500.0000000000 1.139917186891442e-01 1.399799990927459e-02 1.135859359589270e-01 2.017110288077799e-02 1.629941778947913e-02 -5.964065959521369e-01 1.199936442764717e-01 -3.271225033537373e-02
            1.135431804191897e-01 2.012585036611248e-02 1.140305631121543e-01 1.392738802286722e-02 1.199706466821149e-01 -3.277350974532912e-02 1.629117431497992e-02 -5.963826056011027e-01
            1.627884345753423e-02 -5.964434319570435e-01 1.200955555598741e-01 -3.274882375359475e-02 1.130498667133241e-01 1.100189606583080e-02 1.201505147192637e-01 1.019702103968801e-02
            1.200251560109803e-01 -3.277229417073983e-02 1.642557612724753e-02 -5.963957615338532e-01 1.201573804240813e-01 1.018906918198819e-02 1.130927690361491e-01 1.105338534978063e-02
448885000.0000000000 1.174540723139726e-01 -1.127534693569456e-02 1.164267065674264e-01 -6.283068873694613e-03 -1.916661097382876e-01 -5.646099415511346e-01 1.006163488794936e-01 -7.182723014135277e-02
            1.164975052542820e-01 -6.377359104688864e-03 1.174798152163524e-01 -1.125089107196376e-02 1.006519987095727e-01 -7.194941664474482e-02 -1.916060265021239e-01 -5.646126686964237e-01
            -1.915757526119415e-01 -5.645682114894799e-01 1.005915369184820e-01 -7.193478440000733e-02 1.137486576084850e-01 -1.501564162236812e-02 1.209034951900048e-01 -1.428731644682285e-02
            1.005898257517855e-01 -7.196131913645586e-02 -1.916411189776031e-01 -5.645771419714480e-01 1.208578724207479e-01 -1.426074821784229e-02 1.138208842001596e-01 -1.506922581494704e-02
449717500.0000000000 1.043785969080042e-01 -3.269643229432968e-02 1.016600816933786e-01 -2.791353834811052e-02 -3.768259112602280e-01 -4.640850700377647e-01 6.767106182041975e-02 -1.031610620042758e-01
            1.016272183327140e-01 -2.795320712681757e-02 1.042681362699646e-01 -3.275897768425146e-02 6.761659763868598e-02 -1.032570274165170e-01 -3.768483177988886e-01 -4.640060885025278e-01
            -3.768249063289052e-01 -4.640487204848842e-01 6.757724740272257e-02 -1.032102191320636e-01 9.762844291381274e-02 -3.596800279682909e-02 1.056282599384821e-01 -3.409270007268207e-02
            6.769172109131978e-02 -1.032010560795628e-01 -3.768902740180674e-01 -4.640393185722275e-01 1.056776375799984e-01 -3.415077542830605e-02 9.752181622455246e-02 -3.598513157526078e-02
450550000.0000000000 8.083577429290092e-02 -4.076654447513506e-02 7.621901436649137e-02 -3.439936082701370e-02 -5.177946428170038e-01 -3.045411146590024e-01 2.377712648967810e-02 -1.199615426608271e-01
            7.626585085885502e-02 -3.433022962088808e-02 8.079543734428656e-02 -4.082505815611417e-02 2.381079525828171e-02 -1.199384345748858e-01 -5.178433645571469e-01 -3.044487117852849e-01
            -5.178742878119160e-01 -3.044029962253190e-01 2.381238545984153e-02 -1.199633346500112e-01 7.112705357904431e-02 -4.201718553912474e-02 8.096378638304282e-02 -3.959328037103389e-02
            2.377825999640330e-02 -1.200651502575733e-01 -5.179038671736094e-01 -3.044880158733211e-01 8.100552781731316e-02 -3.953594576118654e-02 7.108152917545892e-02 -4.202369656028028e-02
451382500.0000000000 5.811711534183093e-02 -3.158699631870527e-02 5.284488459305006e-02 -2.199168171235973e-02 -5.950086913350550e-01 -1.027638773102606e-01 -2.337318993613698e-02 -1.172519479807305e-01
            5.290617779637551e-02 -2.196879784924970e-02 5.806596291583786e-02 -3.156857194124658e-02 -2.331842342006395e-02 -1.172456795788153e-01 -5.950685359356516e-01 -1.028363685924521e-01
            -5.949940466049403e-01 -1.028261028921672e-01 -2.337292684324090e-02 -1.172365941194173e-01 4.667329756484356e-02 -2.952783060684757e-02 5.874148677886606e-02 -2.778413559758229e-02
            -2.337238154683383e-02 -1.172264562889428e-01 -5.950109456860991e-01 -1.028412213387133e-01 5.877748855648560e-02 -2.775528397129595e-02 4.660305481614297e-02 -2.944002183256204e-02
452215000.0000000000 4.801211444583707e-02 -1.032813870895704e-02 4.379955023885322e-02 2.985625746063565e-03 -5.946691111720263e-01 1.156038263394881e-01 -6.356922065305050e-02 -9.574245897014010e-02
            4.389972993140939e-02 2.985586455893199e-03 4.791398561243307e-02 -1.031525285858182e-02 -6.363555303323133e-02 -9.576371488701081e-02 -5.947146976845006e-01 1.155497333016189e-01
            -5.947245937367261e-01 1.155217709893257e-01 -6.353875665517884e-02 -9.571820397436370e-02 3.619803560912995e-02 -4.102703962838656e-03 5.022585896086051e-02 -4.498371414773650e-03
            -6.355315646861281e-02 -9.567159517054434e-02 -5.946193609138268e-01 1.155730885760952e-01 5.028691658332655e-02 -4.557909209969852e-03 3.629048129522310e-02 -4.082996515761399e-03
453047500.0000000000 5.492994402986467e-02 1.102734019677999e-02 5.390918481316982e-02 2.745298073846953e-02 -5.146297620438766e-01 3.195342788764471e-01 -8.970752740777470e-02 -6.238380838465653e-02
            5.391147394097492e-02 2.753234065703103e-02 5.493977597892133e-02 1.095099912793555e-02 -8.974089837495366e-02 -6.235740090773115e-02 -5.146006260347322e-01 3.194654858887043e-01
            -5.145714108486469e-01 3.194931872051247e-01 -8.971330431493868e-02 -6.230651395449618e-02 4.484612404916829e-02 2.128858872903133e-02 5.970479619731585e-02 1.764220492175126e-02
            -8.977628464127914e-02 -6.231590915873118e-02 -5.146178176956617e-01 3.195018802178812e-01 5.980735133977841e-02 1.765073353189596e-02 4.485954887398497e-02 2.122365497226616e-02
453880000.0000000000 7.385273719002355e-02 2.075627908238946e-02 7.743586525758950e-02 3.890375407855140e-02 -3.671511457669507e-01 4.797450952312095e-01 -1.009773621102083e-01 -2.529694516711296e-02
            7.737298401799768e-02 3.890214257752297e-02 7.387012599096787e-02 2.076979222935902e-02 -1.008243224283174e-01 -2.530325898150255e-02 -3.670827962446312e-01 4.796977236412691e-01
            -3.671136948932221e-01 4.796477050115441e-01 -1.008216960693621e-01 -2.533994674067342e-02 6.709395575381936e-02 3.410864469527363e-02 8.107507960045980e-02 2.654092612777178e-02
            -1.008804441639295e-01 -2.531335899684758e-02 -3.671407399095104e-01 4.796975007490845e-01 8.111572709395952e-02 2.663411604480828e-02 6.710952516051838e-02 3.409163590102973e-02
454712500.0000000000 9.338559099759440e-02 1.452269577953960e-02 1.018402049492950e-01 3.213026352494049e-02 -1.746287685554914e-01 5.760682141785004e-01 -9.961834047711524e-02 1.043479620287718e-02
            1.018151168276771e-01 3.213733354001687e-02 9.336306869504686e-02 1.444878121734567e-02 -9.964861152489986e-02 1.049622090595489e-02 -1.745520388696081e-01 5.761362136601281e-01
            -1.745669712008619e-01 5.761625825869006e-01 -9.961869249131310e-02 1.048749398189952e-02 9.096937284010542e-02 2.917707428149456e-02 1.021130290936292e-01 1.823810437862746e-02
            -9.963327885003655e-02 1.049097680380365e-02 -1.746431510063479e-01 5.761279542703441e-01 1.021754183419182e-01 1.825013432798910e-02 9.096356069920725e-02 2.909089358524120e-02
455545000.0000000000 1.027195104518487e-01 -3.517561665548077e-03 1.153693786380102e-01 1.162912810205429e-02 3.732553734782749e-02 5.996310682751214e-01 -8.801319664551926e-02 4.338907777483452e-02
            1.153886053190164e-01 1.162318156940896e-02 1.027323989230771e-01 -3.438696532527448e-03 -8.803617072670165e-02 4.326122807456045e-02 3.736375794984851e-02 5.997136869483475e-01
            3.734440661231679e-02 5.996096061183203e-01 -8.808142735417178e-02 4.326550929498564e-02 1.047870291195516e-01 1.057036880381638e-02 1.116565057067683e-01 -2.443392003242447e-03
            -8.806580035410276e-02 4.334169528917911e-02 3.739650869088223e-02 5.996025639399770e-01 1.115910226402539e-01 -2.460536931947279e-03 1.047935129614791e-01 1.050463928363641e-02
456377500.0000000000 9.674820154060397e-02 -2.339766898425332e-02 1.122003600118377e-01 -1.201766749905883e-02 2.439823698879571e-01 5.494517146197918e-01 -6.615550295534042e-02 7.120176520857226e-02
            1.121515851638420e-01 -1.206209878215775e-02 9.682991667931701e-02 -2.343926546263399e-02 -6.616071531862094e-02 7.119517383340485e-02 2.439838209306423e-01 5.494411719304610e-01
            2.440266101862808e-01 5.494978043851956e-01 -6.614055682291742e-02 7.121530540134575e-02 1.025259275944938e-01 -1.163996708573723e-02 1.042415667168645e-01 -2.459480941601785e-02
            -6.622519702443445e-02 7.113296293009967e-02 2.439289782982804e-01 5.494497308602049e-01 1.042810085291623e-01 -2.467775079495295e-02 1.024745138114655e-01 -1.166812409461919e-02
457210000.0000000000 7.812306595675662e-02 -3.432832402535976e-02 9.437126330771704e-02 -2.720961499690089e-02 4.218598309256248e-01 4.310718995644129e-01 -3.432200772487194e-02 8.976914121027721e-02
            9.433392231486455e-02 -2.718441017727673e-02 7.813180986916536e-02 -3.432984496536495e-02 -3.429366319367347e-02 8.984193069124530e-02 4.219095139861252e-01 4.309348684467006e-01
            4.218633442781023e-01 4.310853564368375e-01 -3.433469848506060e-02 8.978949817929736e-02 8.587023974306188e-02 -2.607526003943905e-02 8.288438183608215e-02 -3.688777305843922e-02
            -3.437193279767633e-02 8.977837768758094e-02 4.219246921524218e-01 4.310193681972261e-01 8.295765135074473e-02 -3.694418915651683e-02 8.578231401383433e-02 -2.607442434355207e-02
458042500.0000000000 5.566043922201852e-02 -2.954346605090885e-02 7.120071205235330e-02 -2.624996255068039e-02 5.489948141288571e-01 2.561907646886930e-01 3.070131873002008e-03 9.400497103753430e-02
            7.109979203579721e-02 -2.622094038794951e-02 5.560754093532223e-02 -2.955875500118094e-02 3.084995962287931e-03 9.406198614561398e-02 5.489100530330940e-01 2.561964382383043e-01
            5.489659718080365e-01 2.561883803084357e-01 3.085463103834972e-03 9.396946673076427e-02 6.366023587975285e-02 -2.492513795133004e-02 5.727950954034493e-02 -3.181362737477003e-02
            3.036882706778075e-03 9.402415466819095e-02 5.489310806342605e-01 2.561575361067649e-01 5.735376904658829e-02 -3.180748338238427e-02 6.370608539935357e-02 -2.493937538880146e-02
458875000.0000000000 4.143668087062653e-02 -9.872966708518961e-03 5.513482068152879e-02 -9.569817599042635e-03 6.060173349762712e-01 4.501613799502664e-02 3.804285944586346e-02 8.192822595833255e-02
            5.517481271093571e-02 -9.517012255471420e-03 4.135992670310788e-02 -9.923762002996996e-03 3.800385002267376e-02 8.194605897181084e-02 6.060156221286904e-01 4.504972819965648e-02
            6.059644394514171e-01 4.505184093226924e-02 3.800632171573917e-02 8.189336608024200e-02 4.820172802376443e-02 -8.085569138623199e-03 4.035859104449536e-02 -1.023162649554390e-02
            3.797232661252289e-02 8.183341041316035e-02 6.060931607591451e-01 4.503003379648685e-02 4.036658498180283e-02 -1.033269883197283e-02 4.819037401941129e-02 -8.124893795365117e-03
459707500.0000000000 4.402215394608714e-02 1.514786611686000e-02 5.543716941959251e-02 1.369179768875049e-02 5.826132703327309e-01 -1.735163047793184e-01 6.270647079622865e-02 5.753509744128427e-02
            5.544208984488244e-02 1.368192338430356e-02 4.403432553398939e-02 1.517621395943939e-02 6.265121736573502e-02 5.756640752159987e-02 5.825524165137821e-01 -1.735332249608356e-01
            5.826040328179644e-01 -1.735695143104908e-01 6.265134957173520e-02 5.752277881144156e-02 4.871905288325992e-02 1.535463861422927e-02 4.147034190319675e-02 1.774837029987314e-02
            6.266771802589795e-02 5.747813488572361e-02 5.825896878483028e-01 -1.735662445562840e-01 4.149186975340590e-02 1.771848349850522e-02 4.874962212548453e-02 1.538299433186982e-02
460540000.0000000000 6.304283038556147e-02 3.249201137791276e-02 7.191205346279560e-02 3.000637529034725e-02 4.817976535640586e-01 -3.679230521465642e-01 7.427287057323365e-02 2.864632012632721e-02
            7.185086351003087e-02 2.991318807042078e-02 6.293613388023742e-02 3.248050072113709e-02 7.421308953796586e-02 2.852974283346154e-02 4.817999804584470e-01 -3.679743100037292e-01
            4.818163183928725e-01 -3.679814018286854e-01 7.418373973606995e-02 2.860765234054762e-02 6.556771997323303e-02 3.259760669601882e-02 6.024158867041730e-02 3.842710490766655e-02
            7.418159670836190e-02 2.864262575557762e-02 4.817705210168532e-01 -3.679633984963323e-01 6.025745547396476e-02 3.838559454472039e-02 6.551875562400682e-02 3.252088246497400e-02
461372500.0000000000 8.874839610138555e-02 3.313102007493078e-02 9.503042826737308e-02 3.047787038697676e-02 3.199460612935882e-01 -5.118367254284003e-01 7.502905849844439e-02 1.043487694819043e-03
            9.513461316028281e-02 3.049825780607194e-02 8.870335519582827e-02 3.317566275205742e-02 7.493785756458553e-02 9.803541538806111e-04 3.199217764006313e-01 -5.118497099842940e-01
            3.199236881933580e-01 -5.118538394496223e-01 7.492885336394411e-02 1.076840072222711e-03 8.987333747205993e-02 3.426704180265951e-02 8.715404921265305e-02 4.217974707759581e-02
            7.497027787070150e-02 1.068855938466770e-03 3.199463792368762e-01 -5.118697651323986e-01 8.715965314617527e-02 4.209251836236897e-02 8.991063985242577e-02 3.429354303046186e-02
462205000.0000000000 1.086837894615171e-01 1.704485301746023e-02 1.126857069459990e-01 1.500142453682766e-02 1.205409704001689e-01 -5.891837846591950e-01 6.832090798767268e-02 -2.356488344574001e-02
            1.127326604194052e-01 1.491127265104440e-02 1.087248438782918e-01 1.719590355162327e-02 6.822826485260881e-02 -2.356243069579156e-02 1.205609654059663e-01 -5.892848731975995e-01
            1.205199263053726e-01 -5.892189283573206e-01 6.831403051362979e-02 -2.350376121357753e-02 1.094546038084845e-01 1.973494331118912e-02 1.091353043991092e-01 2.855302321248463e-02
            6.837387750561179e-02 -2.355547308225294e-02 1.205717619170902e-01 -5.892828947894920e-01 1.091278798336198e-01 2.848826027785934e-02 1.094892205682424e-01 1.968316024462732e-02
463037500.0000000000 1.138043338185725e-01 -8.090913777710327e-03 1.154730488475873e-01 -8.741252719979341e-03 -9.164672287444964e-02 -5.936209420182277e-01 5.506592888196628e-02 -4.518447304418814e-02
            1.154538784935671e-01 -8.781093107714586e-03 1.137663892354857e-01 -8.098497809407230e-03 5.508210038226314e-02 -4.521647290865600e-02 -9.171554013033206e-02 -5.936616326124643e-01
            -9.168824708048313e-02 -5.937134392549428e-01 5.512673074341155e-02 -4.520383168407749e-02 1.152941146638787e-01 -4.139132943016101e-03 1.167407434453771e-01 5.113447674927900e-03
            5.504988757168566e-02 -4.511752691890192e-02 -9.165090970225899e-02 -5.937385729427934e-01 1.167211700058049e-01 5.170076795460049e-03 1.152770313051871e-01 -4.057341369926513e-03
463870000.0000000000 1.013741336947840e-01 -3.075980011428757e-02 1.015061413333455e-01 -2.900413240807559e-02 -2.929912733601406e-01 -5.257302385915196e-01 3.434968343324869e-02 -6.216898742545125e-02
            1.015259216518365e-01 -2.904804261815239e-02 1.014357596051260e-01 -3.086362981109832e-02 3.439180454429969e-02 -6.217702563899562e-02 -2.930245555026480e-01 -5.257006735847221e-01
            -2.930538027217242e-01 -5.257758801414424e-01 3.442434107032497e-02 -6.213981436111617e-02 1.047386610789106e-01 -2.604382319610032e-02 1.073102224971174e-01 -1.648716757491072e-02
            3.445813108223689e-02 -6.218516127709173e-02 -2.930391979827432e-01 -5.257116136338867e-01 1.072952408932683e-01 -1.642122608182181e-02 1.047770460409648e-01 -2.606486119015274e-02
464702500.0000000000 7.715551806256145e-02 -4.048275753700786e-02 7.674176667482560e-02 -3.539512082572012e-02 -4.602593682245983e-01 -3.915932668608435e-01 7.037500724949983e-03 -7.021932648153260e-02
            7.675732199784467e-02 -3.537615670031712e-02 7.704389233603959e-02 -4.044510877135297e-02 7.132093022877696e-03 -7.020584281391193e-02 -4.603250540890068e-01 -3.914984366946021e-01
            -4.603128125091128e-01 -3.915043165742957e-01 7.034323815288974e-03 -7.019656462146667e-02 8.251983517342072e-02 -3.605172947441973e-02 8.632136833663033e-02 -2.557987659125564e-02
            7.064805880617722e-03 -7.016958786320632e-02 -4.603479610870411e-01 -3.915525141497152e-01 8.635418951465211e-02 -2.570610637939522e-02 8.258638573356893e-02 -3.607432884730791e-02
465535000.0000000000 5.211329312235466e-02 -3.182460349010105e-02 5.288105181413957e-02 -2.343812205929890e-02 -5.713994116981461e-01 -2.048127509010851e-01 -2.189202208981804e-02 -6.522269303056537e-02
            5.278881025942795e-02 -2.342647852633506e-02 5.207468847236877e-02 -3.183687839473841e-02 -2.181708797995191e-02 -6.516112670970399e-02 -5.713286922369589e-01 -2.047955955753994e-01
            -5.713343496259092e-01 -2.047824810757353e-01 -2.187983246081220e-02 -6.516932623111857e-02 5.936708793223763e-02 -2.903707640915334e-02 6.499470459070142e-02 -1.752978843653970e-02
            -2.183640709125075e-02 -6.514768511609009e-02 -5.713728804113865e-01 -2.046826561747674e-01 6.489949922847275e-02 -1.745543652888114e-02 5.936396950874714e-02 -2.905230053755458e-02
466367500.0000000000 3.891970267051798e-02 -8.880914540735274e-03 4.254554912287679e-02 2.238835517055633e-03 -6.082132645130539e-01 1.154613213007483e-02 -4.460576341450290e-02 -4.761688079432223e-02
            4.254255697886067e-02 2.297740015979923e-03 3.893008018648191e-02 -8.887947822556077e-03 -4.473291833157698e-02 -4.763800780136240e-02 -6.082049282231183e-01 1.161176745888197e-02
            -6.082024562349114e-01 1.163301491119136e-02 -4.464873263847457e-02 -4.761535170896039e-02 4.715419618104702e-02 -8.623705404720707e-03 5.538284741081122e-02 3.689577421503674e-03
            -4.470801588942308e-02 -4.762410518200560e-02 -6.082041261921567e-01 1.163107530588280e-02 5.536931658900730e-02 3.683576576340912e-03 4.712734655190152e-02 -8.540063768949774e-03
467200000.0000000000 4.417606384122603e-02 1.647028311745017e-02 5.198428947710033e-02 2.878061507696493e-02 -5.636975791341710e-01 2.269656716529906e-01 -5.580050869866739e-02 -2.355595272576282e-02
            5.201388108320527e-02 2.881343900851029e-02 4.422316221334970e-02 1.650762060093420e-02 -5.579216954897036e-02 -2.358090631262064e-02 -5.637207233506883e-01 2.269769772674341e-01
            -5.636866002722951e-01 2.269167143856345e-01 -5.583606055627869e-02 -2.350983827517916e-02 5.206262216570733e-02 1.405246273124438e-02 6.367053146991104e-02 2.628041733044731e-02
            -5.580497592442772e-02 -2.359642751183488e-02 -5.637770368560393e-01 2.269488869664750e-01 6.370410104499014e-02 2.629193814822123e-02 5.215308324555566e-02 1.405458037621036e-02
468032500.0000000000 6.433892723292733e-02 3.148194645460671e-02 7.657998746727843e-02 4.262918250199538e-02 -4.451311152264013e-01 4.103316328399065e-01 -5.562739688351216e-02 -2.908139928447171e-04
            7.667391002764906e-02 4.265510080417607e-02 6.430375428245814e-02 3.150978983410965e-02 -5.558066729121119e-02 -3.623959972314214e-04 -4.452158392640924e-01 4.102423898778806e-01
            -4.451374934603939e-01 4.102787507229893e-01 -5.569763710820361e-02 -3.581314902797133e-04 7.072444381926203e-02 2.672339271567777e-02 8.592078767380348e-02 3.736456565441826e-02
            -5.566217991095119e-02 -4.023658762891552e-04 -4.451460275388960e-01 4.102430525811759e-01 8.588313999355703e-02 3.727496652946965e-02 7.067793975619836e-02 2.672510596963953e-02
468865000.0000000000 8.815015955892809e-02 2.920339554246705e-02 1.040058524039232e-01 3.723447958241826e-02 -2.715141134114802e-01 5.380439300578382e-01 -4.829743128631107e-02 1.827283872048097e-02
            1.040467479146780e-01 3.726256794612069e-02 8.811792565165914e-02 2.927864215953759e-02 -4.838496677695904e-02 1.824816919194241e-02 -2.716523812742573e-01 5.380961539925236e-01
            -2.716458064675441e-01 5.380863522992492e-01 -4.834637343298276e-02 1.816781695382510e-02 9.225139300851934e-02 2.318404687851712e-02 1.102697025039908e-01 3.067326418436459e-02
            -4.833435414135353e-02 1.821559921616211e-02 -2.715677369550110e-01 5.380467923265245e-01 1.103936388441941e-01 3.064588188534388e-02 9.225920960263882e-02 2.325301163275007e-02
469697500.0000000000 1.036719637889772e-01 1.252858085869629e-02 1.211913237021914e-01 1.569528426303555e-02 -6.684060333887477e-02 5.971552617431152e-01 -3.731288134383358e-02 3.254014573018572e-02
            1.211660928675506e-01 1.574172729205910e-02 1.037036026675734e-01 1.250963005401304e-02 -3.732831586925446e-02 3.257033508163329e-02 -6.684120935972063e-02 5.971071084684813e-01
            -6.684530595653479e-02 5.971368773076582e-01 -3.736216592033093e-02 3.254342343090337e-02 1.053997926275398e-01 6.273406464851959e-03 1.248729662948633e-01 9.421837765759798e-03
            -3.740132978090951e-02 3.257466521076673e-02 -6.686509329981066e-02 5.971700959197005e-01 1.248528224109658e-01 9.448842074301576e-03 1.053483758237490e-01 6.266002022283824e-03
470530000.0000000000 1.040641739433740e-01 -9.687322348017722e-03 1.205671200480100e-01 -1.140897375494603e-02 1.448671306958785e-01 5.831653458548819e-01 -2.281281533291682e-02 4.348506391624400e-02
            1.205607770584121e-01 -1.137113139949580e-02 1.041291095076720e-01 -9.711987241887468e-03 -2.273100283878645e-02 4.346441927188006e-02 1.448395594039913e-01 5.831672512839474e-01
            1.448051517118391e-01 5.831150312247017e-01 -2.282058742627549e-02 4.347299898307142e-02 1.035792208447430e-01 -1.516679924009616e-02 1.227377540432715e-01 -1.635400038311214e-02
            -2.279215770780126e-02 4.343094645464150e-02 1.448730133183604e-01 5.830916379024280e-01 1.227818182454955e-01 -1.641790388701366e-02 1.036407638930037e-01 -1.520311184932022e-02
471362500.0000000000 8.943978721456507e-02 -2.604148188218066e-02 1.026760907798442e-01 -3.148553900718932e-02 3.399896781371390e-01 4.974492873951474e-01 -3.972031842878667e-03 4.942149144088923e-02
            1.026024767293760e-01 -3.155730739277909e-02 8.939636260331518e-02 -2.611970327167143e-02 -3.976617926608683e-03 4.944682548187018e-02 3.399930144864398e-01 4.974038758285555e-01
            3.400581654850681e-01 4.973878400602925e-01 -3.967976086723867e-03 4.951172726389351e-02 8.754570598446007e-02 -3.022106099997292e-02 1.044649410310589e-01 -3.506685946120514e-02
            -3.941957639473358e-03 4.945480970893834e-02 3.399654285733927e-01 4.974825057665055e-01 1.045103779609199e-01 -3.505241400869268e-02 8.747449788333048e-02 -3.021574879749421e-02
472195000.0000000000 6.708871090310564e-02 -2.798025265719559e-02 7.578863669001264e-02 -3.501697977187016e-02 4.952011577387525e-01 3.477628156131513e-01 1.754623472637536e-02 4.662519274834787e-02
            7.582773472845970e-02 -3.500708019810315e-02 6.713081840513926e-02 -2.802079542578287e-02 1.762259693852034e-02 4.669448519822818e-02 4.951199983223059e-01 3.477137253773425e-01
            4.950621178057828e-01 3.477506252161092e-01 1.755473508477879e-02 4.660831526832394e-02 6.448942495064855e-02 -3.042443436132302e-02 7.856107169361745e-02 -3.736712730484896e-02
            1.762671213399746e-02 4.662228098990872e-02 4.951053412375347e-01 3.477532840531751e-01 7.852122926753216e-02 -3.746155640147709e-02 6.447541191216141e-02 -3.040884602194006e-02
473027500.0000000000 4.919262672479782e-02 -1.355827373838148e-02 5.341790437923446e-02 -1.955129522567698e-02 5.880994427897240e-01 1.503479121336425e-01 3.622367286541669e-02 3.320672045041729e-02
            5.336848335556030e-02 -1.956738284344009e-02 4.926367145409012e-02 -1.351368397374113e-02 3.619140570720428e-02 3.316760663779884e-02 5.881029599242278e-01 1.503314319353536e-01
            5.881637381704993e-01 1.504699337743262e-01 3.613789224988449e-02 3.318182459640211e-02 4.651899028362686e-02 -1.448170225775385e-02 5.752191472571097e-02 -2.212306691541542e-02
            3.620184689523194e-02 3.321168020052854e-02 5.882036350651794e-01 1.504602250618662e-01 5.756347278126205e-02 -2.199444582607547e-02 4.661799047922639e-02 -1.439737739826857e-02
473860000.0000000000 4.619514847335397e-02 1.002167831772742e-02 4.718238225835518e-02 7.041143945108408e-03 6.034688424793661e-01 -6.882102436872310e-02 4.528355688980730e-02 1.233420068655522e-02
            4.718119091779788e-02 7.075425603685500e-03 4.628950336440731e-02 1.006737160569555e-02 4.529714707243407e-02 1.229333110201727e-02 6.034401073232888e-01 -6.879276009055425e-02
            6.034501890617637e-01 -6.881949298810171e-02 4.518773809406184e-02 1.233149936475247e-02 4.401134959348128e-02 1.048788493344313e-02 5.270446390646233e-02 3.272040431209581e-03
            4.529686694795042e-02 1.233995371435032e-02 6.034773203428880e-01 -6.879900588115268e-02 5.272611131299532e-02 3.303685652397356e-03 4.391343235891414e-02 1.053016579289002e-02
474692500.0000000000 6.057020801685104e-02 2.970053403793656e-02 6.042754429434535e-02 3.089363505594383e-02 5.381385606767777e-01 -2.778693057857378e-01 4.277909443170073e-02 -8.769703244047094e-03
            6.049175922374806e-02 3.085465174595364e-02 6.062291003041704e-02 2.977314517287480e-02 4.274637517033877e-02 -8.730154243099161e-03 5.380845196075307e-01 -2.779560190137643e-01
            5.380938869988436e-01 -2.778398514168449e-01 4.280387495888743e-02 -8.724728366131154e-03 5.896671348607421e-02 3.128836377120445e-02 6.643343414424703e-02 2.469309377946172e-02
            4.279249207804132e-02 -8.708680807277724e-03 5.380738054227265e-01 -2.779072588182171e-01 6.650174802776797e-02 2.467085003251890e-02 5.897974118862344e-02 3.133424930821248e-02
475525000.0000000000 8.478166424962583e-02 3.474386133121443e-02 8.597166599836396e-02 3.953262138580498e-02 4.034565108632624e-01 -4.476003151255408e-01 3.214703037321329e-02 -2.383714531095526e-02
            8.603677481322965e-02 3.950598565873427e-02 8.492483740454006e-02 3.466289118876455e-02 3.215343164105380e-02 -2.386993449037086e-02 4.034041773340533e-01 -4.476701216668753e-01
            4.035503259185927e-01 -4.476709160114700e-01 3.215010217244133e-02 -2.387424466984376e-02 8.408599152187979e-02 3.736905864353825e-02 9.096767967276470e-02 3.095901645257771e-02
            3.213750350885077e-02 -2.387973295852321e-02 4.034235014255388e-01 -4.476560830869149e-01 9.098401864547685e-02 3.086387890086892e-02 8.400603582320215e-02 3.737801237517135e-02
476357500.0000000000 1.067322219329860e-01 2.238111096431085e-02 1.105703794843533e-01 2.958434030433193e-02 2.204256334435240e-01 -5.579396733365999e-01 1.887641513546724e-02 -3.204838449714950e-02
            1.104638895456565e-01 2.963277672820082e-02 1.066558590203940e-01 2.238224568685834e-02 1.892223298363875e-02 -3.197662648096945e-02 2.204320110389770e-01 -5.578510913753869e-01
            2.203854586218013e-01 -5.578453473760608e-01 1.893209560669480e-02 -3.199582282848232e-02 1.068607521054329e-01 2.593531540465333e-02 1.132127787298371e-01 1.905006057625023e-02
            1.891850751570402e-02 -3.189838238577907e-02 2.204107802889646e-01 -5.578378649204504e-01 1.132669885776341e-01 1.903680783626074e-02 1.069450678859854e-01 2.586467707979017e-02
477190000.0000000000 1.154972254272085e-01 -1.448659736516755e-03 1.227436258777985e-01 6.483130838535484e-03 1.288883617385005e-02 -5.982674154096440e-01 5.824399162263560e-03 -3.533392419369207e-02
            1.226862924080412e-01 6.603827159374237e-03 1.154323296628592e-01 -1.410322760927674e-03 5.868922686331678e-03 -3.540117877882949e-02 1.278310896439406e-02 -5.983582403525770e-01
            1.287978202473384e-02 -5.983017079565387e-01 5.795585117428236e-03 -3.547870694816533e-02 1.173050194478706e-01 3.116828391826712e-03 1.224160129652126e-01 -4.733324871159021e-03
            5.761865037040702e-03 -3.550463447741602e-02 1.287271321982233e-02 -5.983165801656859e-01 1.223766752608369e-01 -4.748642591445323e-03 1.172678660139677e-01 3.138199195352316e-03
478022500.0000000000 1.070535915223113e-01 -2.555161656690823e-02 1.173570209944571e-01 -1.867309051341765e-02 -1.958512996036535e-01 -5.660768557626118e-01 -7.670219035528871e-03 -3.581759100232058e-02
            1.173671718047265e-01 -1.869184705988037e-02 1.070545007957582e-01 -2.554638474669796e-02 -7.719395999882878e-03 -3.584555802431009e-02 -1.958833204000706e-01 -5.660154303850323e-01
            -1.959257632389614e-01 -5.660047916868367e-01 -7.732103477364419e-03 -3.577998148835045e-02 1.110900918182194e-01 -2.065432964528587e-02 1.138207627279683e-01 -2.935196323981258e-02
            -7.720824615695017e-03 -3.581101333614742e-02 -1.959150365462956e-01 -5.660810786585313e-01 1.140067769190386e-01 -2.932847810729985e-02 1.111176714105805e-01 -2.067332959111139e-02
478855000.0000000000 8.473203382798387e-02 -3.916326826863141e-02 9.711961533999537e-02 -3.449985083106503e-02 -3.825413381278772e-01 -4.636406089426707e-01 -2.249123401252620e-02 -3.161752226826376e-02
            9.706781764530807e-02 -3.440284249002450e-02 8.479519124556165e-02 -3.914584512388395e-02 -2.250995411443318e-02 -3.163633669718732e-02 -3.824792333916450e-01 -4.636772296325598e-01
            -3.824694562880925e-01 -4.637104607492663e-01 -2.259558126925862e-02 -3.162296198611526e-02 9.154496964232395e-02 -3.470401995811716e-02 9.142518428223331e-02 -4.309998344582497e-02
            -2.255083951020085e-02 -3.160416273861036e-02 -3.824772758826154e-01 -4.637265253381503e-01 9.135351451954267e-02 -4.310336281517553e-02 9.148953743684751e-02 -3.462915220044391e-02
479687500.0000000000 5.856963710896458e-02 -3.519135208688476e-02 7.165663176733925e-02 -3.299052647250943e-02 -5.234255379024000e-01 -3.007944166067346e-01 -3.645725823752752e-02 -2.007209703747046e-02
            7.162340397980060e-02 -3.299687845193518e-02 5.848887230819410e-02 -3.523526363836439e-02 -3.650579851642710e-02 -2.009412009326419e-02 -5.234491343762099e-01 -3.007500695341531e-01
            -5.234084435799847e-01 -3.007280417639781e-01 -3.649087347038043e-02 -2.004068409084695e-02 6.803893514294637e-02 -3.227949842275553e-02 6.476568662461560e-02 -3.901142916050478e-02
            -3.648929202281920e-02 -2.010823886492901e-02 -5.234517026390272e-01 -3.007415053901512e-01 6.485515146061697e-02 -3.890562939351105e-02 6.800957162125425e-02 -3.232769799337412e-02
480520000.0000000000 4.104938622332542e-02 -1.504556001544596e-02 5.387738466087212e-02 -1.505903248421868e-02 -5.977602113414077e-01 -9.575897387658265e-02 -4.394983353308184e-02 -1.067249432478520e-03
            5.391876208663719e-02 -1.514182998500182e-02 4.093815776912456e-02 -1.512260518486127e-02 -4.396286389641189e-02 -1.082040375877871e-03 -5.977477689032430e-01 -9.582612548894315e-02
            -5.977960768318176e-01 -9.574879833692897e-02 -4.401016247913488e-02 -1.086565925060841e-03 5.269876873500549e-02 -1.497615738515920e-02 4.728146877820003e-02 -1.856067398979385e-02
            -4.396897409485950e-02 -1.030308612685467e-03 -5.977843164920515e-01 -9.563895851987959e-02 4.729551247213847e-02 -1.853476976215386e-02 5.272758715843543e-02 -1.494399749052488e-02
481352500.0000000000 4.113319699870147e-02 1.144025116666617e-02 5.312918579406158e-02 9.702586869017897e-03 -5.924624839204263e-01 1.231917914124959e-01 -4.046461545590980e-02 2.035193122675323e-02
            5.319413740108109e-02 9.803081564718203e-03 4.114652892676957e-02 1.134366261031919e-02 -4.044818877123634e-02 2.039817841822115e-02 -5.924396194655028e-01 1.231699218772187e-01
            -5.925235889518721e-01 1.232231059184476e-01 -4.051358310146686e-02 2.034896594650098e-02 5.380699736191343e-02 7.635247070661899e-03 4.775780602954131e-02 7.918973255211497e-03
            -4.044336385154713e-02 2.031602569996572e-02 -5.924813425992966e-01 1.231381783986128e-01 4.774788134448738e-02 7.850956316153996e-03 5.376216075094503e-02 7.547394722966628e-03
482185000.0000000000 5.833674789843244e-02 3.067568822688052e-02 6.931406146328112e-02 2.786207193311532e-02 -5.085894931139378e-01 3.242644604220478e-01 -2.655952722691219e-02 3.684292258277126e-02
            6.935560026949161e-02 2.781828707783667e-02 5.833246021717862e-02 3.071711293632588e-02 -2.650838806834370e-02 3.681746408069883e-02 -5.086357283484916e-01 3.242886818914286e-01
            -5.085957735056524e-01 3.242577681878037e-01 -2.655394900007153e-02 3.681565246963567e-02 7.005806457555898e-02 2.277922774958236e-02 6.531618015603555e-02 2.663113875347925e-02
            -2.649803210982388e-02 3.682428724897186e-02 -5.085819479125391e-01 3.242491671003352e-01 6.537069652659276e-02 2.663918696663294e-02 7.009629801391154e-02 2.270465822897232e-02
483017500.0000000000 8.296019311328362e-02 3.357050773112019e-02 9.291926290412100e-02 2.994819410100619e-02 -3.602171602883714e-01 4.803412734634123e-01 -7.667840934503943e-03 4.393434022111788e-02
            9.291304811734810e-02 2.992661218739506e-02 8.292638818637070e-02 3.349814583193628e-02 -7.638245116215755e-03 4.403155436765784e-02 -3.602528434168181e-01 4.802600131154911e-01
            -3.601745333623646e-01 4.803014968857131e-01 -7.670575517189340e-03 4.398103664239923e-02 9.214977286051880e-02 2.220040058654169e-02 9.001010241832258e-02 2.850652695059296e-02
            -7.665560753235275e-03 4.403643526845742e-02 -3.602480791381867e-01 4.802643388933500e-01 8.999484753924725e-02 2.850869317839584e-02 9.214378337400930e-02 2.221844493772894e-02
483850000.0000000000 1.024627703227095e-01 1.992734577309313e-02 1.114739741490531e-01 1.568990837215732e-02 -1.689934907674697e-01 5.736321020425587e-01 1.055401905345644e-02 4.253042076607103e-02
            1.113817231436020e-01 1.571390264090706e-02 1.023857029786250e-01 1.990510495255694e-02 1.053591012829587e-02 4.255708758930509e-02 -1.691358618725667e-01 5.737197600015245e-01
            -1.690738640602374e-01 5.737387567556387e-01 1.056126769717895e-02 4.264436129555565e-02 1.079416520062167e-01 6.855659702763066e-03 1.089957300191769e-01 1.367961984946565e-02
            1.052612217677054e-02 4.258129019059974e-02 -1.690870505894896e-01 5.737381648697037e-01 1.089168242829414e-01 1.379805648855758e-02 1.079080954654271e-01 6.822024673010622e-03
484682500.0000000000 1.077067074592791e-01 -2.486179245567800e-03 1.155953425834450e-01 -7.152744709410936e-03 4.108010878983919e-02 5.959250004423554e-01 2.576796508461049e-02 3.576828713241633e-02
            1.157177675312674e-01 -7.145916730120595e-03 1.076770827947992e-01 -2.542720097630384e-03 2.576670202949865e-02 3.574397411166937e-02 4.106304124234927e-02 5.958969382114788e-01
            4.113432487727824e-02 5.959214779125981e-01 2.579585968436162e-02 3.574558065868504e-02 1.094235049470214e-01 -1.537700592260879e-02 1.131570539492752e-01 -9.551570299990540e-03
            2.572819368743511e-02 3.574586928466342e-02 4.103537629531508e-02 5.959147501624277e-01 1.130806001567729e-01 -9.559227629807219e-03 1.093663584155979e-01 -1.538151222569677e-02
485515000.0000000000 9.673442634671567e-02 -2.233066469869420e-02 1.035873707989742e-01 -2.744702858376770e-02 2.465834677772452e-01 5.450994419418285e-01 3.847370614337459e-02 2.521164966246885e-02
            1.036222285617268e-01 -2.732380410027650e-02 9.666985192103004e-02 -2.235818533052833e-02 3.838550885281469e-02 2.517803237700973e-02 2.466238711459323e-01 5.451501528338787e-01
            2.466050266751319e-01 5.450961373654200e-01 3.841922437697542e-02 2.515405628294391e-02 9.556023276212822e-02 -3.349617987992598e-02 1.006752444941243e-01 -2.975328352684095e-02
            3.851410007798980e-02 2.511517904586340e-02 2.465832262613157e-01 5.451229332197790e-01 1.006549126175255e-01 -2.977975074899585e-02 9.557947952375764e-02 -3.340263392270962e-02
486347500.0000000000 7.504775302143955e-02 -2.958789618436527e-02 8.078242495876634e-02 -3.464325629524091e-02 4.235189611309277e-01 4.254224788861450e-01 4.843118451122271e-02 9.832554619661118e-03
            8.074054500562670e-02 -3.467454089266183e-02 7.503650525906186e-02 -2.953715606296792e-02 4.835470909498382e-02 9.819989266997500e-03 4.235140351147966e-01 4.254397879240523e-01
            4.235692418241744e-01 4.254421933708546e-01 4.835415219716541e-02 9.835477914299553e-03 7.288537469093374e-02 -3.800601906629566e-02 7.759281255207122e-02 -3.673191476355164e-02
            4.842676708521886e-02 9.848558384520629e-03 4.235856628073911e-01 4.254275908768897e-01 7.756840732172672e-02 -3.674440481677971e-02 7.278612565004106e-02 -3.813047462414294e-02
487180000.0000000000 5.380888720770669e-02 -1.983311443830520e-02 5.833628593720014e-02 -2.483661951324264e-02 5.481327073535296e-01 2.489014874866374e-01 5.264579587141070e-02 -1.097825567798480e-02
            5.822928581906628e-02 -2.482153582646881e-02 5.377699234573306e-02 -1.978087110648768e-02 5.268120108681582e-02 -1.105922162272901e-02 5.482379979558477e-01 2.488933561529136e-01
            5.481871287703902e-01 2.489176420230724e-01 5.261898586251487e-02 -1.100007454355637e-02 5.213073590065779e-02 -2.591671298747703e-02 5.538630592262603e-02 -2.621126329787925e-02
            5.263084354669868e-02 -1.100946363164519e-02 5.481537349751674e-01 2.489144309952955e-01 5.536703208243293e-02 -2.626719390767480e-02 5.218597521303697e-02 -2.594122249614401e-02
488012500.0000000000 4.468588173454122e-02 2.382194056431447e-03 4.806504068985783e-02 -2.196300870979014e-03 6.012212942362494e-01 3.771384930893511e-02 4.663064954397308e-02 -3.450186722437351e-02
            4.799792920434789e-02 -2.206774917485881e-03 4.464273376598275e-02 2.392237682893124e-03 4.658241577409707e-02 -3.447969626133651e-02 6.012723484813061e-01 3.780556592773660e-02
            6.012663263196778e-01 3.775591275520872e-02 4.662215389168860e-02 -3.445957450832213e-02 4.501912960244405e-02 -2.682735583291095e-03 4.601580980800003e-02 -3.384317014045183e-03
            4.671690768531456e-02 -3.448934346270975e-02 6.012190614320054e-01 3.784236448943104e-02 4.607376734054131e-02 -3.379054022590746e-03 4.499984327927696e-02 -2.719339548678163e-03
488845000.0000000000 5.320981894060405e-02 2.540958779067802e-02 5.553668966032980e-02 2.139950019586310e-02 5.739187723992319e-01 -1.778780689522088e-01 2.889982091746285e-02 -5.373763499898687e-02
            5.552406075239740e-02 2.137716631283722e-02 5.318591609535009e-02 2.537365355525358e-02 2.886841360926640e-02 -5.370404334604881e-02 5.739060253690426e-01 -1.778323728508897e-01
            5.739620030252839e-01 -1.779674301885220e-01 2.890338429211516e-02 -5.375253194826769e-02 5.562198760874482e-02 1.943821923530566e-02 5.458075974460920e-02 1.962667874436727e-02
            2.890038182155962e-02 -5.381913801807011e-02 5.739243149697707e-01 -1.779016180152671e-01 5.450119764235517e-02 1.960429778850826e-02 5.570096631721857e-02 1.944303539523438e-02
489677500.0000000000 7.501775543971273e-02 3.696103940015380e-02 7.653565234132495e-02 3.357533325745048e-02 4.719045876072016e-01 -3.674031425499723e-01 3.711052773168937e-03 -6.237867161421106e-02
            7.656468439832521e-02 3.357186115548266e-02 7.504718086995252e-02 3.697624730678498e-02 3.688762212691005e-03 -6.225341039396036e-02 4.718763992781691e-01 -3.673841894357964e-01
            4.717907006364994e-01 -3.673133908593947e-01 3.643040596936212e-03 -6.241562193965176e-02 7.854881402581278e-02 2.873917807463268e-02 7.608380859351430e-02 3.053023296129849e-02
            3.689559119526351e-03 -6.233653540428691e-02 4.717905887009521e-01 -3.673723038403017e-01 7.610374286603928e-02 3.042270774693106e-02 7.854668987367766e-02 2.871627347256912e-02
490510000.0000000000 9.905175920593939e-02 3.147943178470465e-02 9.958233250622334e-02 2.904241225612560e-02 3.116533860080244e-01 -5.067784148835099e-01 -2.175751006769585e-02 -5.890342805277694e-02
            9.965004183455792e-02 2.893668045668578e-02 9.907246120251804e-02 3.153102344049746e-02 -2.182409894028629e-02 -5.887059236821279e-02 3.116570885105734e-01 -5.068633128792932e-01
            3.115854660368589e-01 -5.068335457735600e-01 -2.178394373035922e-02 -5.893158321416420e-02 1.018581988063145e-01 2.039113650928602e-02 9.883977070800967e-02 2.403991440322402e-02
            -2.175690590812885e-02 -5.882263971178574e-02 3.116725905418523e-01 -5.069231281615696e-01 9.876581556448087e-02 2.394772132033775e-02 1.018039644085326e-01 2.036753767284033e-02
491342500.0000000000 1.139353813617537e-01 1.212705484578013e-02 1.135010132392651e-01 1.076150813107702e-02 1.153855675858387e-01 -5.819711422431961e-01 -4.232797832484259e-02 -4.646938205414328e-02
            1.134264497709584e-01 1.087495764138494e-02 1.139092911368999e-01 1.214773441203268e-02 -4.227645233194974e-02 -4.648921429317339e-02 1.152954519235974e-01 -5.819615362922581e-01
            1.152764748980624e-01 -5.819045355815544e-01 -4.232919523004079e-02 -4.639036608708776e-02 1.142362658890177e-01 -1.252941408788048e-03 1.111038124522279e-01 4.139219719469663e-03
            -4.236743674479641e-02 -4.635740225045975e-02 1.153322646911610e-01 -5.818710598835061e-01 1.112294469618036e-01 4.105274099161254e-03 1.141944202488541e-01 -1.304829723355447e-03
492175000.0000000000 1.130986270152274e-01 -1.197529348158955e-02 1.118564262378942e-01 -1.165797252025711e-02 -9.422403320686897e-02 -5.856423692075980e-01 -5.678654782198481e-02 -2.897836851746105e-02
            1.119160420897652e-01 -1.153448813589861e-02 1.130216819596252e-01 -1.197828621640707e-02 -5.669943229365395e-02 -2.896127950853779e-02 -9.416368037881673e-02 -5.856686896564484e-01
            -9.420723450170450e-02 -5.855903094395859e-01 -5.668521571307234e-02 -2.894434696992905e-02 1.097507281679614e-01 -2.601983659521440e-02 1.070964353784720e-01 -1.917051655315303e-02
            -5.675650450213100e-02 -2.894342980125498e-02 -9.421364147630362e-02 -5.856674444756947e-01 1.070073774689250e-01 -1.915672356488938e-02 1.098010072322248e-01 -2.594962647285831e-02
493007500.0000000000 9.715160186076156e-02 -2.970876155723135e-02 9.592034773280317e-02 -2.712279404188110e-02 -2.934413500981062e-01 -5.171690045755944e-01 -6.557872755861550e-02 -8.131062323299163e-03
            9.591138230815542e-02 -2.718917971595549e-02 9.720545560885263e-02 -2.972789379881831e-02 -6.564947240501344e-02 -8.135738367596554e-03 -2.934784933931889e-01 -5.171391814501840e-01
            -2.934793150543601e-01 -5.171739467639499e-01 -6.571131479389233e-02 -8.129811463731819e-03 9.034434951322147e-02 -4.237379781707503e-02 8.798587528373672e-02 -3.435107671858269e-02
            -6.573772769396879e-02 -8.086587539379140e-03 -2.933940442242928e-01 -5.171179050497304e-01 8.791116155944639e-02 -3.435879259309924e-02 9.044590940193784e-02 -4.236683289470811e-02
493840000.0000000000 7.380754265929215e-02 -3.289469798777640e-02 7.333593943267301e-02 -2.785445144851762e-02 -4.581493714411969e-01 -3.821537509698323e-01 -6.846851342477596e-02 1.640219739639790e-02
            7.340346855274144e-02 -2.772721964396615e-02 7.394764904039325e-02 -3.276491332112474e-02 -6.848217820651552e-02 1.636521279095545e-02 -4.580995871563326e-01 -3.820986579275576e-01
            -4.582098075575159e-01 -3.821410833827539e-01 -6.850296304674246e-02 1.634483042093199e-02 6.489076856392015e-02 -4.252315391490306e-02 6.270423719965237e-02 -3.298910363848286e-02
            -6.840030297785013e-02 1.632456707430638e-02 -4.581333230530282e-01 -3.821853615317444e-01 6.269500093687934e-02 -3.300491843875875e-02 6.493457639178493e-02 -4.255421335357849e-02
494672500.0000000000 5.484695870945082e-02 -1.984799015306709e-02 5.629962106684280e-02 -1.268313359186589e-02 -5.650375967240667e-01 -1.953220237334046e-01 -6.176792858623550e-02 4.352113953808826e-02
            5.635548576353763e-02 -1.281033658823790e-02 5.488579767451058e-02 -1.980710237708888e-02 -6.185348997282292e-02 4.351638196125779e-02 -5.650953439338737e-01 -1.953276477719661e-01
            -5.650684153552380e-01 -1.953548601363701e-01 -6.176410900296316e-02 4.349232419367344e-02 4.546677255108186e-02 -2.599773280920290e-02 4.390716870548383e-02 -1.470649615430676e-02
            -6.178312456754693e-02 4.353311579145979e-02 -5.651141558598884e-01 -1.953051280122130e-01 4.386728927163085e-02 -1.484740782014872e-02 4.543148406890313e-02 -2.594905057984663e-02
495505000.0000000000 4.987005099196944e-02 2.092538731207096e-03 5.438013676824859e-02 1.034674552127529e-02 -5.971492954361293e-01 1.848634164199452e-02 -4.259221685142469e-02 6.829584826722158e-02
            5.433629834955093e-02 1.027038890268531e-02 4.990744466460630e-02 2.022832661403866e-03 -4.255135063556658e-02 6.827388175234962e-02 -5.971449961300020e-01 1.850298540397079e-02
            -5.971122995568232e-01 1.845662235243906e-02 -4.261708422733942e-02 6.834233630849097e-02 4.211793926000962e-02 -1.134736311519709e-03 4.177749192515915e-02 1.197252916097323e-02
            -4.253519370088805e-02 6.827518046752208e-02 -5.971406076638184e-01 1.839925606913508e-02 4.172714373816654e-02 1.204462484140160e-02 4.203436620564829e-02 -1.080932118798126e-03
496337500.0000000000 6.103505718155119e-02 2.069432294300266e-02 6.885977469170831e-02 2.869354984055834e-02 -5.496813995370757e-01 2.282697840994966e-01 -1.244996558265225e-02 8.297100836610725e-02
            6.884732586025555e-02 2.873309005886882e-02 6.098880689441631e-02 2.079758396969754e-02 -1.244796590005403e-02 8.308387003447031e-02 -5.497105736360772e-01 2.281674276413352e-01
            -5.497050735920405e-01 2.281799862480040e-01 -1.249439859882672e-02 8.303743738001540e-02 5.599985168063778e-02 1.900383494524547e-02 5.772850377451385e-02 3.364931023928978e-02
            -1.244716521130194e-02 8.298776258116014e-02 -5.496622526904549e-01 2.281326964336462e-01 5.772345611194787e-02 3.365281135834609e-02 5.598010196410803e-02 1.898728501599861e-02
497170000.0000000000 8.125450839129798e-02 2.637506631811779e-02 9.216955611827515e-02 3.248255564905168e-02 -4.318450759298765e-01 4.050365592687510e-01 2.167531530999271e-02 8.305661433438098e-02
            9.217825583770038e-02 3.241557558207663e-02 8.124093060998627e-02 2.635390505405907e-02 2.158674673577659e-02 8.309964093098343e-02 -4.318640000018747e-01 4.050989414949870e-01
            -4.318429049424537e-01 4.050119266501404e-01 2.166056923071358e-02 8.307652517146016e-02 7.895603684072583e-02 2.405388776653047e-02 8.341398480984372e-02 3.951349116300338e-02
            2.167714609678014e-02 8.306822928569302e-02 -4.318759163436631e-01 4.051051165275170e-01 8.342004492352557e-02 3.951916612021484e-02 7.890367208522775e-02 2.409225121658039e-02
498002500.0000000000 9.951144210741375e-02 1.666612465263487e-02 1.120820542714227e-01 1.962467371255739e-02 -2.619269835747887e-01 5.281108530256490e-01 5.186520222573875e-02 6.928488756543995e-02
            1.119549354274404e-01 1.950929382766893e-02 9.946918110895067e-02 1.675964190509989e-02 5.199115606451674e-02 6.925922914401661e-02 -2.619196072442692e-01 5.281057081352896e-01
            -2.619238117664430e-01 5.281413157410922e-01 5.197524599734073e-02 6.924653402411765e-02 9.866544090284535e-02 1.263718126900321e-02 1.061043271133471e-01 2.754106610157216e-02
            5.194202891345158e-02 6.932579172318884e-02 -2.618877834728960e-01 5.281366655638311e-01 1.061351138219846e-01 2.760760647419613e-02 9.864257166742514e-02 1.269063120483861e-02
498835000.0000000000 1.061544719496195e-01 -2.557020445270875e-03 1.187196011066568e-01 -3.328654567201513e-03 -6.162263722275665e-02 5.851450864727591e-01 7.392007923463731e-02 4.620407210656994e-02
            1.186823902303110e-01 -3.214474241473972e-03 1.061655280086199e-01 -2.601663147235932e-03 7.397403887266274e-02 4.621634757580241e-02 -6.158236904421098e-02 5.851050816162734e-01
            -6.163446569788911e-02 5.850264451484936e-01 7.405617283189429e-02 4.623788783154947e-02 1.054044715929031e-01 -8.621812565544914e-03 1.154024255164223e-01 4.601768547629070e-03
            7.393014229539895e-02 4.628002431798755e-02 -6.160006948839539e-02 5.850961588140441e-01 1.153419528236339e-01 4.578132402726839e-03 1.054252676767195e-01 -8.675514907793783e-03
499667500.0000000000 9.808214407728739e-02 -2.171934222120500e-02 1.086989379302290e-01 -2.523858553960845e-02 1.461573840365683e-01 5.703269825498625e-01 8.687769992744475e-02 1.814327040916085e-02
            1.087559520729727e-01 -2.519229382593459e-02 9.804996451195046e-02 -2.181189092121652e-02 8.691978776263094e-02 1.818893123033384e-02 1.462519618388489e-01 5.704191635177938e-01
            1.462070734094035e-01 5.703425015612529e-01 8.687893215487161e-02 1.820014874119691e-02 9.622670626009813e-02 -2.902349629894246e-02 1.074685982317731e-01 -1.830839724223890e-02
            8.689295648367294e-02 1.812061029197979e-02 1.462054249388340e-01 5.703368680252789e-01 1.074625354603809e-01 -1.833707322761310e-02 9.626164477227822e-02 -2.898830250697347e-02
500500000.0000000000 7.850298023962185e-02 -3.066370198930180e-02 8.645064288900110e-02 -3.568534084734266e-02 3.377880495769025e-01 4.842419468485042e-01 9.107090315758201e-02 -1.303022317059117e-02
            8.649868329879461e-02 -3.576492015644635e-02 7.848428542095620e-02 -3.076641013084182e-02 9.107085849197838e-02 -1.306009827354514e-02 3.378105909961674e-01 4.841648156786357e-01
            3.377246669227059e-01 4.842233292179138e-01 9.103231094246564e-02 -1.307780242913667e-02 7.548773680498604e-02 -3.807479285818896e-02 8.670137824951556e-02 -2.998263563983337e-02
            9.099570410278819e-02 -1.310122339821079e-02 3.377100631209299e-01 4.842455337300233e-01 8.664559801161029e-02 -3.004256707239267e-02 7.543059709395961e-02 -3.820186883420816e-02
501332500.0000000000 5.704485350777837e-02 -2.426253472446290e-02 6.245806713407394e-02 -2.874102033084435e-02 4.882978581871087e-01 3.344566531518182e-01 8.489437654347499e-02 -4.656244429425523e-02
            6.243270416564686e-02 -2.874290180116639e-02 5.702009578372556e-02 -2.421001855136881e-02 8.493603838729094e-02 -4.644556741162374e-02 4.882463065023431e-01 3.345424165771466e-01
            4.883158680796568e-01 3.344952471295340e-01 8.490899989158060e-02 -4.650021685023349e-02 5.369981386292231e-02 -3.070108154374183e-02 6.350531141877085e-02 -2.457166570620999e-02
            8.486827340956997e-02 -4.644565208561564e-02 4.883293058355819e-01 3.344370326690112e-01 6.343577865751836e-02 -2.449853650039800e-02 5.371579806852479e-02 -3.067181692655603e-02
502165000.0000000000 4.505563058598212e-02 -4.263890564859743e-03 4.894052717171131e-02 -7.315491814022312e-03 5.754663007956844e-01 1.392115119323285e-01 6.537056011401014e-02 -7.852184839138399e-02
            4.894196415140031e-02 -7.283938283680857e-03 4.505935998215340e-02 -4.286494373122725e-03 6.544418663688194e-02 -7.844253903888611e-02 5.754767282677025e-01 1.392065659257247e-01
            5.754846106374608e-01 1.391773246942191e-01 6.538413274062919e-02 -7.847552509396706e-02 4.255753173364112e-02 -1.013683608997024e-02 5.033857740125925e-02 -4.543690583444773e-03
            6.532215767784257e-02 -7.846371356903789e-02 5.755134578982565e-01 1.392147020413971e-01 5.025378839499865e-02 -4.558848992774494e-03 4.259467452109993e-02 -1.013549368081581e-02
502997500.0000000000 4.948892245225687e-02 1.899748278262324e-02 5.327118938940870e-02 1.778463699879175e-02 5.857825930236324e-01 -7.422063421467977e-02 3.209455048626602e-02 -1.018120724192492e-01
            5.318936314925509e-02 1.779498623940989e-02 4.949747744145802e-02 1.909960081245816e-02 3.211707865326316e-02 -1.018719401131277e-01 5.856882110773806e-01 -7.420749418630468e-02
            5.858157681707198e-01 -7.419910216683992e-02 3.213798670318252e-02 -1.018638939222936e-01 4.884541068184487e-02 1.271292719818052e-02 5.463407061700333e-02 1.912229198496287e-02
            3.208651987982961e-02 -1.019362622463847e-01 5.857813133915315e-01 -7.424655806002425e-02 5.462339498672922e-02 1.905995213159667e-02 4.882438898686377e-02 1.264226664271764e-02
503830000.0000000000 6.817623435466429e-02 3.376285608542567e-02 7.301308802707909e-02 3.353571935952172e-02 5.189848023739549e-01 -2.751115053244110e-01 -9.726943513012695e-03 -1.093963357490952e-01
            7.294324277960357e-02 3.348150922803340e-02 6.806315004591965e-02 3.389584739774872e-02 -9.646481889818920e-03 -1.093949912404182e-01 5.189608171116743e-01 -2.751132551972975e-01
            5.189137115743615e-01 -2.750871810297129e-01 -9.717284883179064e-03 -1.094244700136711e-01 6.913251964501603e-02 2.518220415447629e-02 7.395694480133853e-02 3.332238674585510e-02
            -9.730340367441574e-03 -1.093224275119166e-01 5.189226740812176e-01 -2.751381033682521e-01 7.389733335037856e-02 3.338577006498200e-02 6.910384960862831e-02 2.518861093529364e-02
504662500.0000000000 9.157044196312261e-02 3.295895375147607e-02 9.778831179387908e-02 3.212798962292555e-02 3.873713343894005e-01 -4.371714288940124e-01 -5.103279989991584e-02 -9.892371556123440e-02
            9.782808251465604e-02 3.215181366714315e-02 9.153013289535364e-02 3.301318903346285e-02 -5.103980979804068e-02 -9.877868968245271e-02 3.873747151342194e-01 -4.371121358468627e-01
            3.873009054833027e-01 -4.370346763279348e-01 -5.103839215542278e-02 -9.884120881293926e-02 9.272264637562165e-02 2.058262258253435e-02 9.781374929912885e-02 3.087595448778951e-02
            -5.103932799082311e-02 -9.884339301827878e-02 3.873499036449770e-01 -4.372420118925598e-01 9.780412258782933e-02 3.089450179730937e-02 9.272115179664393e-02 2.058683060282488e-02
505495000.0000000000 1.085823488177669e-01 1.785533565487736e-02 1.154531613621511e-01 1.528560248327569e-02 2.100518217202025e-01 -5.425888566688073e-01 -8.401109189857237e-02 -7.364540644305050e-02
            1.154497287557545e-01 1.528786061851414e-02 1.085877351342193e-01 1.777443820408610e-02 -8.400497602287384e-02 -7.365294933534393e-02 2.099841279896130e-01 -5.425924775845934e-01
            2.100394742764910e-01 -5.425596456602680e-01 -8.399778864329838e-02 -7.366660696064999e-02 1.076557317525974e-01 1.245552516378872e-03 1.140276372184774e-01 1.330861286849603e-02
            -8.407757915131454e-02 -7.366210297512028e-02 2.100360667848715e-01 -5.425446712292860e-01 1.140678679111399e-01 1.321893753792318e-02 1.076529112086504e-01 1.280344754646815e-03
506327500.0000000000 1.118382232492132e-01 -3.946404522034164e-03 1.180184186572159e-01 -8.825022228003713e-03 8.335297301862029e-03 -5.811321072587967e-01 -1.051366837158790e-01 -3.971563132038294e-02
            1.180041694334538e-01 -8.902117227334406e-03 1.118311794529891e-01 -3.908022585281602e-03 -1.050791838014485e-01 -3.973564300100366e-02 8.342335721005564e-03 -5.811859062192317e-01
            8.408157690193343e-03 -5.811417040302900e-01 -1.050942239879175e-01 -3.967421426609344e-02 1.064272407132163e-01 -2.373687240730024e-02 1.147550437021914e-01 -1.077628084685287e-02
            -1.051233704059016e-01 -3.968289872150833e-02 8.390828220019799e-03 -5.811490663220160e-01 1.148449013222055e-01 -1.081090415685490e-02 1.063719257808075e-01 -2.384118448528214e-02
507160000.0000000000 1.006506542257823e-01 -2.220582081348325e-02 1.044219237936812e-01 -2.873199409231843e-02 -1.951756805000206e-01 -5.485443412195112e-01 -1.142503294263806e-01 -1.579221195092784e-03
            1.044016141285880e-01 -2.878633313695644e-02 1.006851495008646e-01 -2.215751464260920e-02 -1.141958991902732e-01 -1.639488104907624e-03 -1.952196580992067e-01 -5.485047651041485e-01
            -1.951376647784049e-01 -5.485083479666401e-01 -1.142852936995930e-01 -1.579632366739034e-03 8.900750464654464e-02 -4.280698610229227e-02 9.954643981104074e-02 -2.997466469223176e-02
            -1.142780408891931e-01 -1.543903961320507e-03 -1.951417658499145e-01 -5.484888976217150e-01 9.955723511801108e-02 -2.991879115397426e-02 8.902607751078243e-02 -4.283978134411028e-02
507992500.0000000000 8.087710878370884e-02 -2.843420400029898e-02 8.095849635913299e-02 -3.496575368247667e-02 -3.765998700270974e-01 -4.462819407524059e-01 -1.114332780125609e-01 3.865441581109489e-02
            8.097028898392966e-02 -3.503306706625206e-02 8.082029762872264e-02 -2.849503862320251e-02 -1.113762432715267e-01 3.864096227056114e-02 -3.766443321950730e-01 -4.462243815098934e-01
            -3.765682433719536e-01 -4.463571838910498e-01 -1.114756501822847e-01 3.859650922407872e-02 6.285166882316318e-02 -4.660321579710316e-02 7.525426203637374e-02 -3.473795274317516e-02
            -1.114353916691697e-01 3.861615892383371e-02 -3.765527605730078e-01 -4.462582000179420e-01 7.521818154163812e-02 -3.457042602505801e-02 6.285291008071271e-02 -4.654636832206637e-02
508825000.0000000000 6.258447650740263e-02 -1.973413240360064e-02 5.939903247053443e-02 -2.419538803224765e-02 -5.111973936698843e-01 -2.846713687169569e-01 -9.489214115339641e-02 7.835255627798003e-02
            5.940806777032195e-02 -2.416722932205496e-02 6.249315131276847e-02 -1.982092761269436e-02 -9.486056078687199e-02 7.843291437664633e-02 -5.112415293833998e-01 -2.845852623742692e-01
            -5.111755890011663e-01 -2.846376024454865e-01 -9.481027572447689e-02 7.837247278919003e-02 3.999434539510230e-02 -3.260963811614980e-02 5.345807562668325e-02 -2.195126368134002e-02
            -9.478657419027585e-02 7.836597590010207e-02 -5.112241410712708e-01 -2.846473804605735e-01 5.347788008493752e-02 -2.201688708546600e-02 3.998768952667734e-02 -3.264738876350892e-02
509657500.0000000000 5.553077328699262e-02 -1.195011195914379e-03 5.057645782122252e-02 -1.788525650842958e-03 -5.786363313200885e-01 -8.422691652763298e-02 -6.257595096437672e-02 1.121561503644386e-01
            5.055489035183408e-02 -1.909147478381082e-03 5.545302415325456e-02 -1.246606499156638e-03 -6.261999633525066e-02 1.121796516661966e-01 -5.786489292284922e-01 -8.417202109176100e-02
            -5.786411549279367e-01 -8.417896523976738e-02 -6.260421591188185e-02 1.120849230460367e-01 3.161957098467581e-02 -7.388142059726145e-03 4.568056248458540e-02 2.091698506404697e-03
            -6.261720778548653e-02 1.120812775232454e-01 -5.786363826602149e-01 -8.415615629334865e-02 4.572140827976739e-02 2.031908014946351e-03 3.160463866089749e-02 -7.355011674898891e-03
510490000.0000000000 6.346922221650633e-02 1.644334878338159e-02 5.893004029009340e-02 2.019606101676543e-02 -5.688228726736861e-01 1.262483418559220e-01 -1.701006963814274e-02 1.317884695337240e-01
            5.903823957444063e-02 2.018216993293272e-02 6.349283326401528e-02 1.655123609806740e-02 -1.698183892770500e-02 1.317807835378431e-01 -5.687730617758795e-01 1.262003559398750e-01
            -5.687646009129270e-01 1.262939744915134e-01 -1.700642388404239e-02 1.318037878424644e-01 4.157341411636794e-02 1.648863992700711e-02 5.607100315401565e-02 2.484543884816329e-02
            -1.700202554159615e-02 1.317920698286177e-01 -5.687414421816811e-01 1.261960824718709e-01 5.603352848241423e-02 2.476810988859048e-02 4.155668979999985e-02 1.653813380626453e-02
511322500.0000000000 8.125857867611762e-02 2.346795966069056e-02 7.955074950753263e-02 3.063384289233816e-02 -4.851183193634152e-01 3.170585772683174e-01 3.422831030814037e-02 1.313052155571549e-01
            7.945475841329402e-02 3.064152933819005e-02 8.134835028722741e-02 2.349025758356923e-02 3.417993331542545e-02 1.312931504037448e-01 -4.850416373895755e-01 3.170904368490587e-01
            -4.851905086815070e-01 3.171303885677665e-01 3.426967344322093e-02 1.313029883131801e-01 6.370855066711663e-02 2.696582581338170e-02 7.857544232525969e-02 3.437269594204438e-02
            3.431879431745373e-02 1.313236064965476e-01 -4.850869598677210e-01 3.171715013914428e-01 7.853216886004941e-02 3.443084606435460e-02 6.371284992756988e-02 2.695483462240276e-02
512155000.0000000000 9.897827857758497e-02 1.619161016566663e-02 1.010435510347313e-01 2.474012957253692e-02 -3.416628220264662e-01 4.645283073811119e-01 8.106745540049640e-02 1.106374824844910e-01
            1.010689978614335e-01 2.471516189744330e-02 9.893646994067874e-02 1.615968906096584e-02 8.106498587175470e-02 1.106967275051266e-01 -3.416135930714492e-01 4.645041706552223e-01
            -3.416873103720281e-01 4.645766620845903e-01 8.112281919790880e-02 1.107341392967178e-01 8.595894720613365e-02 2.013418496987472e-02 1.010467150352963e-01 2.649095944361406e-02
            8.108123922672501e-02 1.106703132345332e-01 -3.417118279809736e-01 4.644953773909769e-01 1.010562871175653e-01 2.651655424632513e-02 8.587563287119335e-02 2.020574567504918e-02
512987500.0000000000 1.068853229382513e-01 -1.173427893659977e-03 1.128807738978705e-01 6.579141575451516e-03 -1.578769753939613e-01 5.528428348918260e-01 1.160182902991985e-01 7.474607531930209e-02
            1.128997265261877e-01 6.583656130545824e-03 1.069133388421018e-01 -1.112589336935841e-03 1.159698416837160e-01 7.481679343497556e-02 -1.579506446991929e-01 5.528345125781144e-01
            -1.579438287160236e-01 5.529739578150454e-01 1.160444078744474e-01 7.476514937086605e-02 9.713148925813538e-02 8.271537403721766e-04 1.123918690811584e-01 5.700895988423535e-03
            1.159933992020727e-01 7.475179472195562e-02 -1.579279350071529e-01 5.528340279181851e-01 1.123845226656315e-01 5.797037712578956e-03 9.711049466580683e-02 8.635395395863551e-04
513820000.0000000000 1.011633666105569e-01 -1.966494832567273e-02 1.096576053255566e-01 -1.451010138936130e-02 4.468761916662035e-02 5.731652091970906e-01 1.362022990482476e-01 3.010133992015359e-02
            1.097200667447712e-01 -1.454237238428452e-02 1.010909688154595e-01 -1.974181204980172e-02 1.361530977568862e-01 3.010443163561183e-02 4.466879296175357e-02 5.732118540214742e-01
            4.472311517827923e-02 5.732299013749722e-01 1.361965298225766e-01 3.007522368536768e-02 9.202897906728913e-02 -2.065477099135788e-02 1.069670625850521e-01 -1.730188548594638e-02
            1.362051639562251e-01 3.007426124283775e-02 4.469577043629108e-02 5.732286318528453e-01 1.068510897877660e-01 -1.726993035279880e-02 9.211347460966460e-02 -2.061422091300417e-02
514652500.0000000000 8.415130520713140e-02 -2.979841033777951e-02 9.344851319293677e-02 -2.780111740273946e-02 2.430797504374675e-01 5.221645915208478e-01 1.410075724952311e-01 -1.882036667833743e-02
            9.342061623626233e-02 -2.792071214301812e-02 8.410174213536323e-02 -2.985024703713430e-02 1.411353911534831e-01 -1.887235704769499e-02 2.431188559628581e-01 5.221271342841702e-01
            2.431942509980854e-01 5.221971007827569e-01 1.410858953565486e-01 -1.884640459969863e-02 7.334257160540096e-02 -3.314382590024895e-02 8.706348244947966e-02 -3.134544581075577e-02
            1.410576070106849e-01 -1.890076910944686e-02 2.431479331911745e-01 5.221097060168424e-01 8.702283663716283e-02 -3.134122277572571e-02 7.318453756577445e-02 -3.316108514217169e-02
515485000.0000000000 6.417254109994439e-02 -2.593760965457590e-02 7.247553403346020e-02 -2.647248038294556e-02 4.126101961130564e-01 4.034065737040822e-01 1.296981734204907e-01 -6.852658338258454e-02
            7.250800990441821e-02 -2.644332255018743e-02 6.417364380356233e-02 -2.599053019064691e-02 1.297015221299657e-01 -6.852310717508965e-02 4.126299254035424e-01 4.034011997144120e-01
            4.125400934931333e-01 4.033737068722150e-01 1.295784537555703e-01 -6.857887808366327e-02 5.008041905011681e-02 -2.928471638547706e-02 6.205439597752869e-02 -2.858533704685616e-02
            1.296698073227048e-01 -6.857456051030679e-02 4.126395077194941e-01 4.033731613480978e-01 6.197566254487790e-02 -2.856513984979709e-02 5.009723325134688e-02 -2.927408586307526e-02
516317500.0000000000 5.189331460276645e-02 -9.132542469131259e-03 5.838778514233025e-02 -1.078042259958586e-02 5.289260082715657e-01 2.305599541225379e-01 1.002092778408320e-01 -1.141345299011763e-01
            5.830587586032929e-02 -1.092224674117882e-02 5.183738491440494e-02 -9.166410146649019e-03 1.002722142446568e-01 -1.141805528198016e-01 5.289444911426892e-01 2.305443617063937e-01
            5.289122177995663e-01 2.305571934420181e-01 1.002768143570277e-01 -1.141221202382230e-01 3.490900596617192e-02 -9.987498603034363e-03 4.445663845091594e-02 -9.432818743812943e-03
            1.003078712864548e-01 -1.141067070786080e-01 5.289291808236165e-01 2.305042496881465e-01 4.454123858836277e-02 -9.387952137715993e-03 3.497495976836350e-02 -1.002732359031170e-02
517150000.0000000000 5.438686826639112e-02 1.176537590780155e-02 5.923597027100146e-02 1.027873375084652e-02 5.745127785278621e-01 2.743648777027512e-02 5.331381594004122e-02 -1.474265996864533e-01
            5.924109409704805e-02 1.022990429895057e-02 5.432430331691947e-02 1.179076025002427e-02 5.333305424742359e-02 -1.474583290179048e-01 5.745045268388187e-01 2.732229272563836e-02
            5.745146268753414e-01 2.747261098617094e-02 5.327869790937378e-02 -1.474234664981974e-01 3.651394060355794e-02 1.535415253289162e-02 4.381537214270761e-02 1.689539244021206e-02
            5.328508126827605e-02 -1.475046346519099e-01 5.744862540425454e-01 2.747807012404925e-02 4.372248405207473e-02 1.690355636480284e-02 3.657497803870562e-02 1.547008907729246e-02
517982500.0000000000 7.056244694333492e-02 2.547056201801385e-02 7.490122596331662e-02 2.465274564686214e-02 5.440596022801966e-01 -1.765518294125556e-01 -5.214446969095788e-03 -1.601438986297601e-01
            7.493722817840735e-02 2.472984679492863e-02 7.058385624741328e-02 2.549434144970416e-02 -5.166264992044086e-03 -1.601804532789947e-01 5.440524763735766e-01 -1.765930347652475e-01
            5.440621988643731e-01 -1.765685410764326e-01 -5.162261018165899e-03 -1.602251236722923e-01 5.473436108862911e-02 3.363293224538833e-02 6.032965254829912e-02 3.719411259208068e-02
            -5.249803416281724e-03 -1.602149801020788e-01 5.440737866175588e-01 -1.765447517760693e-01 6.034641490070294e-02 3.721288204083048e-02 5.476960420460752e-02 3.356520936440185e-02
518815000.0000000000 9.179302416355679e-02 2.482963824824409e-02 9.662160859082745e-02 2.444357859087705e-02 4.448001125756596e-01 -3.540451855535036e-01 -6.458517120113688e-02 -1.486424207880772e-01
            9.659409101633133e-02 2.442676572183362e-02 9.184098219943479e-02 2.494097373101426e-02 -6.457230457355616e-02 -1.486725840122250e-01 4.448327410455969e-01 -3.540674365150163e-01
            4.448111094145268e-01 -3.540126410514462e-01 -6.452717894341120e-02 -1.485973638068578e-01 8.036927516901288e-02 3.566782269959251e-02 8.526654169748082e-02 4.192072609782148e-02
            -6.456660925770003e-02 -1.486160066211587e-01 4.447675785434383e-01 -3.540952525422619e-01 8.529806138991833e-02 4.188719605028901e-02 8.029931712182545e-02 3.560841453161236e-02
519647500.0000000000 1.074401580886123e-01 1.025711319087590e-02 1.129232934646854e-01 9.014826288536230e-03 2.922062190245766e-01 -4.847191701681750e-01 -1.143745584778703e-01 -1.158433019825470e-01
            1.129045011592451e-01 9.054384677853411e-03 1.074038130130409e-01 1.020513059568559e-02 -1.143003009659403e-01 -1.158196014019556e-01 2.921731959782892e-01 -4.846803711202262e-01
            2.922184029441289e-01 -4.847361782199853e-01 -1.143840828450005e-01 -1.158000797953957e-01 1.009901268693390e-01 2.108484809056995e-02 1.064480014966725e-01 2.990953843041018e-02
            -1.143071731304701e-01 -1.158466697746135e-01 2.921787930586052e-01 -4.846934097281201e-01 1.064597693911472e-01 2.998893189003926e-02 1.009508641099699e-01 2.101433339530815e-02
520480000.0000000000 1.096773495051640e-01 -1.112337347177198e-02 1.151325949937650e-01 -1.406397184356633e-02 1.052381799425140e-01 -5.551124683015121e-01 -1.483299671820010e-01 -6.856883942884583e-02
            1.152303534337383e-01 -1.407043037957386e-02 1.097071859162587e-01 -1.117206935125538e-02 -1.483073212945860e-01 -6.855424909857073e-02 1.052770431735161e-01 -5.551518264808696e-01
            1.052822885717762e-01 -5.551246606846215e-01 -1.483297506481399e-01 -6.856294863419782e-02 1.073770676186773e-01 -2.977064672496200e-03 1.144618132760811e-01 8.230297370923633e-03
            -1.483291293747525e-01 -6.859338117484755e-02 1.052414051241591e-01 -5.551450698915020e-01 1.143582553715127e-01 8.184843049876805e-03 1.074250941605808e-01 -2.971041604090063e-03
521312500.0000000000 9.755473008382615e-02 -2.910646929113082e-02 1.013876888851431e-01 -3.412453966034580e-02 -9.513350447535165e-02 -5.575968225914666e-01 -1.645254894178363e-01 -1.366455723594971e-02
            1.015076304430537e-01 -3.414141541439005e-02 9.749431270185377e-02 -2.911406742466392e-02 -1.644109886393152e-01 -1.358541328839606e-02 -9.508776382164395e-02 -5.575622177831651e-01
            -9.512574276129392e-02 -5.575266334408622e-01 -1.645527412474484e-01 -1.361142824853871e-02 9.716804270845497e-02 -2.519632088781575e-02 1.062955786091025e-01 -1.255257075416465e-02
            -1.645186732471695e-01 -1.355293181190509e-02 -9.506402792068482e-02 -5.576131140315531e-01 1.063006031629817e-01 -1.247764723008106e-02 9.713670312440420e-02 -2.519850796291357e-02
522145000.0000000000 7.630526188712125e-02 -3.502688084579610e-02 7.711964063902062e-02 -4.104126651501130e-02 -2.856002054710649e-01 -4.896534106071179e-01 -1.624242578616302e-01 4.437020107629915e-02
            7.713774526049946e-02 -4.102330744735040e-02 7.637646419429306e-02 -3.489370319583784e-02 -1.624498654844081e-01 4.434672078926218e-02 -2.855674748858698e-01 -4.897801350781566e-01
            -2.856004367077888e-01 -4.897087898409860e-01 -1.624493650683807e-01 4.439946477686327e-02 7.524137598172580e-02 -3.534888816995639e-02 8.687033623427057e-02 -2.202874886740609e-02
            -1.624874496755135e-01 4.451109221860930e-02 -2.855103718936691e-01 -4.896741286334692e-01 8.680534519106474e-02 -2.202299331504003e-02 7.515525897760039e-02 -3.532421504092293e-02
522977500.0000000000 5.637390424414292e-02 -2.541635951633567e-02 5.316612292014487e-02 -3.053396587898424e-02 -4.410874354686187e-01 -3.574290236896739e-01 -1.409465994710512e-01 1.007820114862573e-01
            5.315059497268074e-02 -3.054636257493807e-02 5.633933510048697e-02 -2.540755137780768e-02 -1.408583242830369e-01 1.008705175858062e-01 -4.410742199098101e-01 -3.573263226761022e-01
            -4.410415221884668e-01 -3.573358226406949e-01 -1.408665135216645e-01 1.008097719826513e-01 5.226584391312462e-02 -2.864709876685707e-02 6.623973080552939e-02 -1.539136846091248e-02
            -1.408291261436812e-01 1.007854006940444e-01 -4.411609160176855e-01 -3.573630480085632e-01 6.620843736339881e-02 -1.538406333712252e-02 5.218748635170668e-02 -2.864983469198304e-02
523810000.0000000000 4.803124883129041e-02 -4.908330133813265e-03 4.141316777921709e-02 -6.765003145453872e-03 -5.387500834536888e-01 -1.770142081596444e-01 -9.861547716162360e-02 1.488569569293990e-01
            4.138876243059329e-02 -6.762795387681457e-03 4.797524444345228e-02 -4.901304155473594e-03 -9.862366959704416e-02 1.488326023032737e-01 -5.387518970832790e-01 -1.770236375217275e-01
            -5.386927055434718e-01 -1.769629605719452e-01 -9.861781880476855e-02 1.488112656583256e-01 3.997463915378836e-02 -8.640976733391760e-03 5.605795633233502e-02 4.166937597013922e-03
            -9.863776368690236e-02 1.488969616986878e-01 -5.387569894811987e-01 -1.769490409591934e-01 5.600481436371196e-02 4.106835676705545e-03 3.999301199573647e-02 -8.669560958572424e-03
524642500.0000000000 5.563143436067253e-02 1.555004607082181e-02 4.786726439958904e-02 1.874237515833995e-02 -5.640790875298517e-01 2.576921680979930e-02 -3.872525973389503e-02 1.789786423050961e-01
            4.787339510048228e-02 1.871372010993839e-02 5.557410207931274e-02 1.552708343998494e-02 -3.864726074527671e-02 1.790162017906841e-01 -5.640678173168937e-01 2.583889014197937e-02
            -5.640925847221491e-01 2.576774108948946e-02 -3.871386393522551e-02 1.790697344202734e-01 4.444831246168335e-02 1.372613624792533e-02 6.240322221798137e-02 2.559876951335227e-02
            -3.868158639256587e-02 1.790361094084223e-01 -5.641293625805304e-01 2.582075695684670e-02 6.236177184961005e-02 2.562139916556418e-02 4.444820911900461e-02 1.367799681926007e-02
525475000.0000000000 7.485503864820123e-02 2.491090770683160e-02 6.892319210005034e-02 3.330226161990141e-02 -5.155583042851706e-01 2.218416895173465e-01 3.014982180553877e-02 1.837335025629844e-01
            6.878642846974690e-02 3.342808553710098e-02 7.478686622364472e-02 2.494213309206249e-02 3.010336964086703e-02 1.837486381586408e-01 -5.155696224706560e-01 2.218309627104351e-01
            -5.155696522826454e-01 2.218445626522699e-01 3.013411359772604e-02 1.837066255494351e-01 6.230003217254061e-02 2.639430158030891e-02 8.204791684856326e-02 3.738645479510244e-02
            3.017522962828251e-02 1.836721379667939e-01 -5.155266862507640e-01 2.218657935559608e-01 8.199704346787644e-02 3.727341000703328e-02 6.233779336754279e-02 2.642758291703754e-02
526307500.0000000000 9.490391574126443e-02 1.871615237681738e-02 9.326818646679744e-02 3.068233407888438e-02 -4.028942860238144e-01 3.860393990452902e-01 9.559139179609738e-02 1.615444662909276e-01
            9.326961962371111e-02 3.073408384276196e-02 9.486424916242353e-02 1.880332767828207e-02 9.560065172670776e-02 1.615005546447942e-01 -4.029841746014278e-01 3.860094123973614e-01
            -4.029361594929158e-01 3.860021159231349e-01 9.551238491968324e-02 1.615091991268892e-01 8.322101043611621e-02 2.359483897350684e-02 1.046860196698602e-01 3.306102545805720e-02
            9.567342551478461e-02 1.615909370253409e-01 -4.028185417217059e-01 3.861135108598465e-01 1.047622741453658e-01 3.302510002131923e-02 8.327517689934728e-02 2.360605345326727e-02
527140000.0000000000 1.051961825352631e-01 7.651159521963003e-04 1.094641634998709e-01 1.320157663515282e-02 -2.424086911607479e-01 5.003194702810236e-01 1.474558681150617e-01 1.173132025070896e-01
            1.093829021691216e-01 1.318383396184121e-02 1.052592191331521e-01 6.927185486234760e-04 1.473960145298114e-01 1.173497839116047e-01 -2.423650274252337e-01 5.003847774520893e-01
            -2.423593224577199e-01 5.004397891028137e-01 1.473093971603150e-01 1.174581893179054e-01 9.630286198044373e-02 7.534523630843994e-03 1.190763063185588e-01 1.525334944975299e-02
            1.474061092171689e-01 1.173369887153310e-01 -2.423776428456858e-01 5.003262579080079e-01 1.190661678428266e-01 1.520876844481450e-02 9.630510088734717e-02 7.437596196346413e-03
527972500.0000000000 1.007741939919891e-01 -1.974558286145425e-02 1.098989294490673e-01 -1.023225101679687e-02 -5.286041092325815e-02 5.529741821241855e-01 1.800772549038096e-01 5.903381292924731e-02
            1.098816982463488e-01 -1.013539895779761e-02 1.007073270166315e-01 -1.971612820656548e-02 1.801473904822195e-01 5.895263993906003e-02 -5.293667787351866e-02 5.530217356018321e-01
            -5.289792020411505e-02 5.530651726231143e-01 1.799833961700531e-01 5.900721119010863e-02 9.475644157004762e-02 -1.317859755682608e-02 1.186379876474536e-01 -7.587132315838590e-03
            1.800908236894026e-01 5.909103831434006e-02 -5.289363634883652e-02 5.529961375483686e-01 1.187036375514254e-01 -7.543871629457410e-03 9.480399418816431e-02 -1.309465368062356e-02
528805000.0000000000 8.315683039369565e-02 -3.238765492093437e-02 9.472405567831761e-02 -2.796767920071062e-02 1.443143307073957e-01 5.371960540965175e-01 1.918410471264871e-01 -6.645797739776293e-03
            9.472394470910221e-02 -2.799267906953398e-02 8.321251121623652e-02 -3.238664845073899e-02 1.918577488856501e-01 -6.629949826671144e-03 1.442519896865236e-01 5.372059159389359e-01
            1.443164825042099e-01 5.372079621974774e-01 1.918704777644716e-01 -6.663046593912403e-03 7.944780511257508e-02 -2.759338446840943e-02 1.038006968433438e-01 -2.442409534753218e-02
            1.919165780111566e-01 -6.612340181270006e-03 1.443232283776809e-01 5.372174305917380e-01 1.037885030399366e-01 -2.433176369423428e-02 7.943607982406881e-02 -2.761821820386742e-02
529637500.0000000000 6.079391565820525e-02 -3.003457473425886e-02 7.137310833623106e-02 -3.120562364476253e-02 3.250634414816680e-01 4.524388164140979e-01 1.815224222273527e-01 -7.399706843996252e-02
            7.133977664847546e-02 -3.112995951296063e-02 6.086122398454707e-02 -2.991421459632541e-02 1.815459700146580e-01 -7.392733048949350e-02 3.251050650135917e-01 4.524547943075037e-01
            3.251039596193823e-01 4.524914014556287e-01 1.815339466311821e-01 -7.393995978688413e-02 5.758078981562201e-02 -2.790915616945912e-02 8.185768924549601e-02 -2.704072276403347e-02
            1.815601134451716e-01 -7.400834746328423e-02 3.251032488940796e-01 4.525234615931062e-01 8.175468619714960e-02 -2.700365543258531e-02 5.757031019983270e-02 -2.788659097634279e-02
530470000.0000000000 4.515427875674312e-02 -1.269480064267676e-02 5.132154932448132e-02 -1.772895521845197e-02 4.644794581658216e-01 3.074657902749385e-01 1.477059337800851e-01 -1.365787308583820e-01
            5.139456617547127e-02 -1.772809134315067e-02 4.511311333872350e-02 -1.266954779050515e-02 1.476322319904020e-01 -1.364623459765159e-01 4.644150693162875e-01 3.074468945769215e-01
            4.644662424954966e-01 3.074883855400899e-01 1.476548739520616e-01 -1.364228565147964e-01 4.049558151808952e-02 -1.298223526152694e-02 6.417966699491710e-02 -1.410763214547405e-02
            1.476813310412023e-01 -1.365354621932083e-01 4.644578062855408e-01 3.074058334621348e-01 6.424273402092644e-02 -1.412637174234948e-02 4.047380658608000e-02 -1.306013419869857e-02
531302500.0000000000 4.506436970929169e-02 1.146293311271095e-02 4.536580637811672e-02 5.720214701625624e-03 5.417186659548450e-01 1.218027341299059e-01 9.102621572884316e-02 -1.849363634293269e-01
            4.547538365479249e-02 5.721329669231771e-03 4.506488606426896e-02 1.151669507275197e-02 9.101332051647090e-02 -1.849227331454276e-01 5.417207701992559e-01 1.217786750336012e-01
            5.416290189208682e-01 1.217781589954771e-01 9.104255614887902e-02 -1.848791443267713e-01 3.772389026936981e-02 1.012573872352746e-02 6.059006670700118e-02 7.192035895367314e-03
            9.102093443896021e-02 -1.848337575108615e-01 5.417233941615951e-01 1.218477620533356e-01 6.072890670779613e-02 7.210012202097895e-03 3.757927994580094e-02 1.012375962176403e-02
532135000.0000000000 6.123877660642706e-02 2.978643125069792e-02 5.630331953093157e-02 2.683923017031246e-02 5.464329850994013e-01 -7.739408947181307e-02 1.770479330915384e-02 -2.092350090253266e-01
            5.633653354881627e-02 2.687153409431130e-02 6.131186040811770e-02 2.979328666834019e-02 1.772675999307455e-02 -2.091352701050622e-01 5.464818238329600e-01 -7.735954994357851e-02
            5.464926055499411e-01 -7.737651311467958e-02 1.779153318453079e-02 -2.090529795528758e-01 5.088055944419523e-02 2.948670388270958e-02 7.311998932580940e-02 2.503805534759459e-02
            1.773205261070043e-02 -2.091566436873697e-01 5.465220998236503e-01 -7.740131328670308e-02 7.314365784250729e-02 2.493371571460129e-02 5.086382285728604e-02 2.938612869625290e-02
532967500.0000000000 8.555105918543300e-02 3.287091743318244e-02 7.772609594147221e-02 3.536311677366245e-02 4.812213154604307e-01 -2.626230648041785e-01 -6.019037928830370e-02 -2.032503838257367e-01
            7.772415910779669e-02 3.533462110455675e-02 8.556995987717242e-02 3.284147910116109e-02 -6.017447975756819e-02 -2.032573433119547e-01 4.811962844496517e-01 -2.626900752709379e-01
            4.811398048723916e-01 -2.627008150352767e-01 -6.018275539707615e-02 -2.033234638556897e-01 7.312832451887176e-02 3.511566144058877e-02 9.466865085940848e-02 2.917420625786625e-02
            -6.010704799665641e-02 -2.032631787512937e-01 4.812684134575948e-01 -2.626433671865138e-01 9.470550607590428e-02 2.903260477887553e-02 7.323445660610974e-02 3.514421368047400e-02
533800000.0000000000 1.059232597099134e-01 1.930875240938342e-02 9.848661879567827e-02 2.802480079299726e-02 3.575429209879241e-01 -4.117937378189884e-01 -1.296812707787083e-01 -1.689277662051641e-01
            9.842632954956533e-02 2.809683709670203e-02 1.059335426258502e-01 1.929693370659014e-02 -1.294911866376074e-01 -1.687955664509050e-01 3.575074769616045e-01 -4.118289285175643e-01
            3.574014618648715e-01 -4.117877252656831e-01 -1.296325789464273e-01 -1.687424899692170e-01 9.318396957497140e-02 2.506899093743349e-02 1.136499661399258e-01 1.730695989473979e-02
            -1.295765165741040e-01 -1.688879326329660e-01 3.575168075645648e-01 -4.117518150888836e-01 1.136636980219988e-01 1.723089376837082e-02 9.308418820652714e-02 2.511789836653474e-02
534632500.0000000000 1.126819282028972e-01 -3.901100702583913e-03 1.086234447962062e-01 9.648290810041637e-03 1.914674822154401e-01 -5.091119692343468e-01 -1.813030944793266e-01 -1.127652302658229e-01
            1.087074070778922e-01 9.645943395726735e-03 1.127065221908742e-01 -3.955010258204304e-03 -1.811621126184362e-01 -1.127478968943832e-01 1.915877642008506e-01 -5.090748024653644e-01
            1.914837663625163e-01 -5.091752245667298e-01 -1.812466262530507e-01 -1.128003145137296e-01 1.013111864015153e-01 5.123389776813429e-03 1.203017293203803e-01 -4.689662470807507e-03
            -1.811824452257141e-01 -1.127592762092044e-01 1.914827061509921e-01 -5.092130259685193e-01 1.201673235048293e-01 -4.759245545335565e-03 1.013360674848834e-01 5.110506811831186e-03
535465000.0000000000 1.028390207084948e-01 -2.615421262617322e-02 1.039613919556553e-01 -1.019240460969974e-02 1.864000997127400e-03 -5.440475662655121e-01 -2.104368941817295e-01 -4.345465174002244e-02
            1.039954170716222e-01 -1.016458654858007e-02 1.028437844630852e-01 -2.608608133443916e-02 -2.105272419817096e-01 -4.342952494181088e-02 1.877332517842411e-03 -5.441217524821623e-01
            1.795756870802902e-03 -5.441433296161646e-01 -2.105269158179784e-01 -4.340693114177196e-02 9.416079311482892e-02 -1.492580525476112e-02 1.108042142712294e-01 -2.639197347654816e-02
            -2.104249777502318e-01 -4.344781205386846e-02 1.824671242353093e-03 -5.441399928049347e-01 1.107524632116331e-01 -2.642069052038654e-02 9.418193643192076e-02 -1.489708439777163e-02
536297500.0000000000 8.095668036686729e-02 -3.672675425462940e-02 8.722347073023484e-02 -2.134849551393533e-02 -1.897180222133463e-01 -5.109537135558684e-01 -2.156781730835279e-01 3.201324486722669e-02
            8.714147111295317e-02 -2.128209028584539e-02 8.091014426266231e-02 -3.673419163290581e-02 -2.156248651764082e-01 3.209408191869623e-02 -1.897098902251761e-01 -5.108207985243528e-01
            -1.896744734161417e-01 -5.108929080335558e-01 -2.156334912435715e-01 3.198286169732165e-02 7.548734513632215e-02 -2.479429514257814e-02 8.892028153726893e-02 -3.734765505308311e-02
            -2.156722109400837e-01 3.206909974697065e-02 -1.897519660792150e-01 -5.109502711407881e-01 8.890070724129470e-02 -3.729853565074053e-02 7.547265412835608e-02 -2.479054776776306e-02
537130000.0000000000 5.720797226698103e-02 -3.032895587795705e-02 6.705562390968893e-02 -1.744621120440490e-02 -3.586807451090681e-01 -4.108757488254089e-01 -1.950929586908178e-01 1.071908626236019e-01
            6.707521378146243e-02 -1.745600006522617e-02 5.736409357687366e-02 -3.030643827659723e-02 -1.951005046885800e-01 1.071991675730419e-01 -3.586142878445826e-01 -4.109357653312272e-01
            -3.586901597932186e-01 -4.110196485895163e-01 -1.951444270114497e-01 1.071538135696715e-01 5.469837879915692e-02 -1.904709704838265e-02 6.449425977868548e-02 -3.134863115341893e-02
            -1.951387570164668e-01 1.071877785345094e-01 -3.585540750000568e-01 -4.109217929769601e-01 6.440457117426106e-02 -3.134755153911301e-02 5.472759148115054e-02 -1.905627581767008e-02
537962500.0000000000 4.402279307520356e-02 -9.856636486903329e-03 5.512103575232402e-02 -1.596901384834671e-04 -4.805755692069744e-01 -2.559513675266374e-01 -1.479467263274520e-01 1.733516400917660e-01
            5.509891918983640e-02 -1.978053634255154e-04 4.400147127547280e-02 -9.867608734374960e-03 -1.479125862674243e-01 1.733090623225392e-01 -4.805239582453340e-01 -2.559774807270420e-01
            -4.804906387311310e-01 -2.559569421688789e-01 -1.478280306432150e-01 1.732351465317265e-01 4.336505101990449e-02 -1.350869925928500e-04 4.971299825352465e-02 -1.054651644950610e-02
            -1.478388670053693e-01 1.732485960510476e-01 -4.805878620453111e-01 -2.559935195899665e-01 4.972952418757674e-02 -1.053638802677170e-02 4.332005173199575e-02 -1.347484435077601e-04
538795000.0000000000 4.773514624042328e-02 1.401339725086202e-02 5.854812316163130e-02 2.129509931263239e-02 -5.375372536063854e-01 -6.829055901726494e-02 -7.692325465211841e-02 2.192940375687254e-01
            5.851234623236999e-02 2.126076309208043e-02 4.779014927869554e-02 1.407013940214703e-02 -7.694739575775895e-02 2.192770856764624e-01 -5.374080982526983e-01 -6.822769974257376e-02
            -5.374430895993197e-01 -6.817794999949034e-02 -7.691015546273441e-02 2.192432518562912e-01 4.813666784580099e-02 2.207988844104759e-02 5.230049807420332e-02 1.475143049184735e-02
            -7.687056872552664e-02 2.191980488642024e-01 -5.374445262121120e-01 -6.817508205391414e-02 5.224496227034217e-02 1.476304845649255e-02 4.813720712505835e-02 2.201767440239039e-02
539627500.0000000000 6.645101963015586e-02 2.865299589480690e-02 7.600149526115231e-02 3.502638360317354e-02 -5.232352553621878e-01 1.249760638255340e-01 8.099958210142803e-03 2.352072192905872e-01
            7.605974613517584e-02 3.512795260347420e-02 6.649269368170341e-02 2.873673593386605e-02 8.095870072709873e-03 2.351531009227121e-01 -5.232527573636007e-01 1.249942298912281e-01
            -5.232440823123339e-01 1.249506820676969e-01 8.092788561515612e-03 2.351649489998790e-01 6.690127793666786e-02 3.531721465313372e-02 7.066373119643113e-02 3.172285458217944e-02
            8.136384178701864e-03 2.351317055539851e-01 -5.232338733661998e-01 1.249891713289036e-01 7.055069069973954e-02 3.179421776411671e-02 6.692134430645515e-02 3.535188805257055e-02
540460000.0000000000 8.956639369909586e-02 2.693090013056216e-02 9.857032240257549e-02 3.381870103244059e-02 -4.434241325125400e-01 2.980833003491373e-01 9.301769134200068e-02 2.175484461885349e-01
            9.858794687214643e-02 3.372844504939439e-02 8.956817807543138e-02 2.684192081119133e-02 9.301456439244928e-02 2.174895521907672e-01 -4.434257297372363e-01 2.981386812595528e-01
            -4.434018513586281e-01 2.981283435020817e-01 9.295744425131766e-02 2.174927970455542e-01 8.996789368842296e-02 3.284681533625563e-02 9.483789301811034e-02 3.247490989639079e-02
            9.296949809897688e-02 2.175323013898051e-01 -4.434089633584228e-01 2.981410682275453e-01 9.483886949273786e-02 3.250883940015491e-02 8.991078327853112e-02 3.283635212889884e-02
541292500.0000000000 1.053249941314093e-01 1.029238976765687e-02 1.150152063698968e-01 1.810737079245783e-02 -3.105697019462518e-01 4.317929105000315e-01 1.644844758370124e-01 1.706506035774545e-01
            1.149118423005356e-01 1.818075242433677e-02 1.052851312020212e-01 1.022277507720834e-02 1.644311052728213e-01 1.706843892043517e-01 -3.106133305421789e-01 4.318086865895511e-01
            -3.105719603544062e-01 4.317700734851536e-01 1.644567029658280e-01 1.707163328590700e-01 1.054838433217993e-01 1.603113062772895e-02 1.132672622374601e-01 1.767897401317625e-02
            1.644512748203032e-01 1.705791323744095e-01 -3.106576233950071e-01 4.317448408561517e-01 1.133400531808146e-01 1.766237849586042e-02 1.055438495165879e-01 1.605425854475780e-02
542125000.0000000000 1.057339614300425e-01 -1.271663843796898e-02 1.174908772003904e-01 -4.425821368831170e-03 -1.409346928573446e-01 5.121311042366391e-01 2.143133390338645e-01 1.028759075310380e-01
            1.174833034271907e-01 -4.420936708660184e-03 1.058741823281789e-01 -1.268323359312852e-02 2.142839130948877e-01 1.028433767302127e-01 -1.408589750092857e-01 5.120420420460676e-01
            -1.408700218638418e-01 5.121473190300714e-01 2.143018644380923e-01 1.028149475982889e-01 1.065434601315633e-01 -6.649281184326846e-03 1.175694325657739e-01 -5.112785522928914e-03
            2.143346993144672e-01 1.028348858795851e-01 -1.409205259040889e-01 5.120846186463661e-01 1.175567449296912e-01 -5.113485982154289e-03 1.064900607443039e-01 -6.693437568250240e-03
542957500.0000000000 9.074341057008126e-02 -3.067400270110943e-02 1.048527956428005e-01 -2.331806186027726e-02 4.716322335937690e-02 5.295483963779756e-01 2.384832223752451e-01 2.298958840201468e-02
            1.048393112698535e-01 -2.330880050389645e-02 9.073310293048921e-02 -3.077349871701199e-02 2.384669127610650e-01 2.293069918174863e-02 4.712438362166371e-02 5.296397475460338e-01
            4.713667504841117e-02 5.296027058861105e-01 2.386054122305845e-01 2.294972865688980e-02 9.251875381185502e-02 -2.446660418603051e-02 1.060108882611774e-01 -2.473996361358302e-02
            2.384965691343901e-01 2.296874430837723e-02 4.716450232832869e-02 5.296850559299031e-01 1.059928396716451e-01 -2.480566486965132e-02 9.252685277709510e-02 -2.441113644119649e-02
543790000.0000000000 6.680648949416650e-02 -3.445115587742789e-02 8.282618124563175e-02 -2.933679501316576e-02 2.311918743453108e-01 4.797018768161633e-01 2.353694742141566e-01 -6.159028635746622e-02
            8.279284325807020e-02 -2.926937766481336e-02 6.684747134530029e-02 -3.436311360466567e-02 2.353938704626423e-01 -6.160127806187014e-02 2.311417404302639e-01 4.797033813905904e-01
            2.312401421310140e-01 4.797062095472485e-01 2.354391201587912e-01 -6.164251031990645e-02 7.027220140938976e-02 -2.847806065879170e-02 8.448649215997292e-02 -3.188056039427547e-02
            2.354347471692227e-01 -6.159842664334428e-02 2.312293079042380e-01 4.797237193467468e-01 8.452892670057156e-02 -3.185506833253247e-02 7.025004411573217e-02 -2.844201933669126e-02
544622500.0000000000 4.568024454560723e-02 -2.099252239997776e-02 6.215666539191204e-02 -1.903371434413868e-02 3.864668006010316e-01 3.662389285638384e-01 2.030650301823979e-01 -1.427239909095455e-01
            6.218087082864727e-02 -1.906082793348696e-02 4.563142772468613e-02 -2.097777606374209e-02 2.030989637250641e-01 -1.427653771600355e-01 3.863108646456294e-01 3.663330172774186e-01
            3.864274370578424e-01 3.662590600575899e-01 2.030705720096568e-01 -1.427863448206907e-01 5.092167618862744e-02 -1.612963399317273e-02 6.396462298258358e-02 -2.257623326581861e-02
            2.030083060370075e-01 -1.427628152435973e-01 3.864055952174642e-01 3.662277724329256e-01 6.394434235338672e-02 -2.252654815496253e-02 5.100393309501260e-02 -1.619860467442053e-02
545455000.0000000000 3.832720371239647e-02 3.697034627391837e-03 5.394373285395899e-02 2.592688058573903e-03 4.897902115244172e-01 2.039345218407631e-01 1.417212336758296e-01 -2.099340030570663e-01
            5.399589530607324e-02 2.566627656374445e-03 3.831182185401938e-02 3.636717751389971e-03 1.416967616156473e-01 -2.099670843543536e-01 4.897415221512046e-01 2.039803694545224e-01
            4.897953298076653e-01 2.038690601692409e-01 1.417965824409767e-01 -2.100093041460817e-01 4.515983870451983e-02 6.199116593259742e-03 5.551016992705975e-02 -1.815504130553905e-03
            1.418289579888557e-01 -2.099356353315585e-01 4.899639962719996e-01 2.039001201066187e-01 5.551842601425436e-02 -1.822817251058297e-03 4.525661529031740e-02 6.350903396078359e-03
546287500.0000000000 4.908108514987154e-02 2.714733310515032e-02 6.259145710732547e-02 2.417435313755446e-02 5.268414471695350e-01 1.689094940440478e-02 5.726111506273116e-02 -2.508591459788566e-01
            6.254487205093237e-02 2.416644149351442e-02 4.897592458868165e-02 2.712077111305587e-02 5.722201650094504e-02 -2.508576004499662e-01 5.268539200411445e-01 1.692739659318719e-02
            5.268325299032240e-01 1.683004746338512e-02 5.728200208789119e-02 -2.508680140195353e-01 5.670461261683891e-02 2.669659868605589e-02 6.355019655897816e-02 1.881977794421087e-02
            5.725389728204775e-02 -2.509009200725512e-01 5.268799618701006e-01 1.685612523181980e-02 6.348408281430715e-02 1.884486588181189e-02 5.665098431879778e-02 2.674762590767460e-02
547120000.0000000000 7.204782605362250e-02 3.776623144888535e-02 8.330733746225466e-02 3.433825574746521e-02 4.952598128724133e-01 -1.681975633713591e-01 -3.769957157971952e-02 -2.567848307596821e-01
            8.326873378672056e-02 3.429347210418082e-02 7.217648293865182e-02 3.772218795308274e-02 -3.777010451271225e-02 -2.567747505342425e-01 4.952885838226961e-01 -1.682382123829933e-01
            4.953316942918254e-01 -1.681356928629456e-01 -3.769229381294621e-02 -2.567540957355818e-01 7.915685979207884e-02 3.414170439929495e-02 8.342184066105757e-02 2.822463629413190e-02
            -3.766887060179378e-02 -2.567561625114352e-01 4.952716834641574e-01 -1.681506605674160e-01 8.343573446244996e-02 2.823250395421158e-02 7.914272452881960e-02 3.415779204021125e-02
547952500.0000000000 9.575679930616118e-02 3.097183306686229e-02 1.054411577836845e-01 2.835875995192576e-02 4.029275701800855e-01 -3.281615154354679e-01 -1.276133568677856e-01 -2.268554717257960e-01
            1.053895497838765e-01 2.829418649005616e-02 9.579593096462061e-02 3.100484011916075e-02 -1.275258351312759e-01 -2.268208284243072e-01 4.029105039998876e-01 -3.281720873776900e-01
            4.029260885613989e-01 -3.281828508299383e-01 -1.276060180201934e-01 -2.268575358321748e-01 1.011364814852089e-01 2.447678979510517e-02 1.042303086757858e-01 2.173735267314962e-02
            -1.275441897321621e-01 -2.268852200810881e-01 4.028836037985846e-01 -3.281583127126313e-01 1.042672661644640e-01 2.166786161269434e-02 1.011344698043687e-01 2.448874152489364e-02
548785000.0000000000 1.089115586571845e-01 1.129991961679534e-02 1.181794882167920e-01 9.712194677966291e-03 2.628717232013646e-01 -4.461339368712091e-01 -1.994710434673953e-01 -1.675517676739857e-01
            1.181287785486411e-01 9.669356536865733e-03 1.089129744078367e-01 1.132244426525837e-02 -1.995185270299655e-01 -1.675023437175712e-01 2.628516898016439e-01 -4.461409745002793e-01
            2.628979544500510e-01 -4.461016051019240e-01 -1.994734865624752e-01 -1.674736354867763e-01 1.115073743676429e-01 2.653967901159426e-03 1.155677056420014e-01 2.882741385850945e-03
            -1.995057075138427e-01 -1.674746420489660e-01 2.628102924083209e-01 -4.461059832953355e-01 1.154186384954144e-01 2.831288258643341e-03 1.114950606810384e-01 2.682318020152332e-03
549617500.0000000000 1.060479548826319e-01 -1.154518282545268e-02 1.159284311986311e-01 -1.272565879277979e-02 9.104562640223902e-02 -5.095042547061527e-01 -2.460815895663258e-01 -8.828613254397648e-02
            1.159811551656994e-01 -1.275244504531267e-02 1.060125515377122e-01 -1.152774320836626e-02 -2.461410177605877e-01 -8.828607984384665e-02 9.110912679234780e-02 -5.095846604439027e-01
            9.105084118010906e-02 -5.095331121075913e-01 -2.461802499194744e-01 -8.819000567572427e-02 1.054090307954298e-01 -2.113257910948706e-02 1.115886783822328e-01 -1.883327081991099e-02
            -2.461036702674267e-01 -8.825120689768080e-02 9.102903466711024e-02 -5.095166463828551e-01 1.115773641640346e-01 -1.889261667433436e-02 1.053591196589309e-01 -2.105228337539334e-02
550450000.0000000000 8.897794424900488e-02 -2.645640853641723e-02 9.996330537955508e-02 -2.825640348702320e-02 -9.350349669387814e-02 -5.098535279139360e-01 -2.640132586078027e-01 1.819604404708266e-03
            9.987636179203611e-02 -2.832059062059880e-02 8.897969423553442e-02 -2.652090576614830e-02 -2.639583337419770e-01 1.875016530561724e-03 -9.350341531318472e-02 -5.097932867128951e-01
            -9.347360534039742e-02 -5.098379674433086e-01 -2.639866796721699e-01 1.840683195012099e-03 8.498351287641268e-02 -3.560705927367281e-02 9.404351731914921e-02 -3.305006934574856e-02
            -2.639527479867201e-01 1.862033522554622e-03 -9.350899114043321e-02 -5.098996329908519e-01 9.416845421373760e-02 -3.308792023415873e-02 8.501569352855168e-02 -3.564351212315937e-02
551282500.0000000000 6.633976655356914e-02 -2.599473062940373e-02 7.767390425215691e-02 -2.939502925241593e-02 -2.681532464342284e-01 -4.442366837679483e-01 -2.508863907098264e-01 9.455129885126920e-02
            7.771320220742292e-02 -2.939418922114327e-02 6.638647878037710e-02 -2.593239710390327e-02 -2.509119920903840e-01 9.451474020788347e-02 -2.682291582602324e-01 -4.442290116849938e-01
            -2.681333029637816e-01 -4.442434529414606e-01 -2.508529880309665e-01 9.456854888682767e-02 5.961493763631400e-02 -3.334105952222474e-02 7.108408042071959e-02 -3.235176016190813e-02
            -2.508482828530887e-01 9.459817541958050e-02 -2.681712224645141e-01 -4.442450190202882e-01 7.111074882832490e-02 -3.230356674631756e-02 5.969222366204378e-02 -3.329385230534363e-02
552115000.0000000000 5.002491915272842e-02 -9.888326537107301e-03 6.052513604335837e-02 -1.540877330958300e-02 -4.080090387458724e-01 -3.191988990774385e-01 -2.054847839549131e-01 1.800590233557432e-01
            6.056562367021803e-02 -1.547519333264861e-02 4.996916298194354e-02 -9.965559010766772e-03 -2.054251562943739e-01 1.800942470741542e-01 -4.080121897704579e-01 -3.192176073943354e-01
            -4.080760814546335e-01 -3.191960094769758e-01 -2.054001646250143e-01 1.799811740093827e-01 4.175623295095503e-02 -1.485769374924735e-02 5.421780835544900e-02 -1.616327716378268e-02
            -2.055393765024177e-01 1.800460376592308e-01 -4.080289237751870e-01 -3.192122222849766e-01 5.419909483589949e-02 -1.615901850721400e-02 4.185140732266803e-02 -1.481719939859361e-02
552947500.0000000000 4.908677199857643e-02 1.330690345637738e-02 5.764076990103682e-02 6.193578735176037e-03 -4.924594829607526e-01 -1.522537544557221e-01 -1.298100116595163e-01 2.457814196849522e-01
            5.756481676356578e-02 6.137038163313843e-03 4.912668680410919e-02 1.330501599154570e-02 -1.297280557932449e-01 2.457869489465440e-01 -4.924604592707308e-01 -1.522467218469758e-01
            -4.925107189705234e-01 -1.523449930595270e-01 -1.298144215729795e-01 2.458258500213253e-01 4.069417960182722e-02 1.090452411729338e-02 5.258768522616929e-02 7.108358797313414e-03
            -1.298474335289838e-01 2.457390565838473e-01 -4.925360635875363e-01 -1.523001053996261e-01 5.263897602957261e-02 7.108234515540550e-03 4.067368964005125e-02 1.093121465875412e-02
553780000.0000000000 6.436768200078469e-02 3.111818807836421e-02 7.007301500649746e-02 2.371330386685933e-02 -5.106350561775440e-01 3.161656230247308e-02 -3.269745211415417e-02 2.793670785722489e-01
            7.006004663222075e-02 2.371356423478169e-02 6.444659461634845e-02 3.111005285435818e-02 -3.272217729849434e-02 2.792911953242048e-01 -5.106556352332861e-01 3.155147713966722e-02
            -5.106705967276376e-01 3.159078820295202e-02 -3.275125846890235e-02 2.793369088987074e-01 5.684076023251355e-02 3.050259502004010e-02 6.711083493816822e-02 2.521993044071133e-02
            -3.280719917201477e-02 2.793288944522392e-01 -5.106653607815245e-01 3.164729032230077e-02 6.708260347643451e-02 2.520305330777201e-02 5.684443491776540e-02 3.053969563420867e-02
554612500.0000000000 8.770943220765970e-02 3.404072217054990e-02 9.078090227884496e-02 2.787738525031357e-02 -4.635060822091630e-01 2.068072746232693e-01 7.035952671008401e-02 2.738731215502517e-01
            9.074144531565120e-02 2.788932034477760e-02 8.772397236146272e-02 3.411236703358793e-02 7.036638066610251e-02 2.739567294596466e-01 -4.634828599344947e-01 2.069136189011863e-01
            -4.635373689513412e-01 2.068625491951394e-01 7.035660097041811e-02 2.739541949996939e-01 8.147331138448168e-02 3.441186647560019e-02 8.965199280068140e-02 2.873170101249612e-02
            7.031673722746963e-02 2.738852378315147e-01 -4.635696330047437e-01 2.068889105006673e-01 8.970707286409071e-02 2.875537012849372e-02 8.147441447023046e-02 3.434917844240302e-02
555445000.0000000000 1.071941643292817e-01 2.114275196046210e-02 1.087267002537858e-01 1.736970227365471e-02 -3.605063376359126e-01 3.531992580992062e-01 1.634298172272293e-01 2.312903842502825e-01
            1.087720190927557e-01 1.730570550036795e-02 1.071626017507559e-01 2.109256129425889e-02 1.633590044614962e-01 2.314041219243296e-01 -3.604538214724815e-01 3.531727690363198e-01
            -3.604745317726212e-01 3.532492901893582e-01 1.633889613680531e-01 2.313501026266925e-01 1.019349243240104e-01 2.127320281654442e-02 1.086057544563662e-01 1.638823388114576e-02
            1.633930261764429e-01 2.313189191699635e-01 -3.604819598129495e-01 3.531895317838991e-01 1.085516343200272e-01 1.640161970982762e-02 1.019273345400905e-01 2.136109515782836e-02
556277500.0000000000 1.135193842733784e-01 -1.193537613719056e-03 1.150578774212108e-01 -2.362794881965374e-03 -2.147790300990378e-01 4.553260687173715e-01 2.343526459496309e-01 1.597995330097520e-01
            1.150803940211330e-01 -2.378691774165803e-03 1.135556037271258e-01 -1.319910468103241e-03 2.343767099758604e-01 1.597049452793870e-01 -2.146621032347656e-01 4.553499498392413e-01
            -2.146830259586053e-01 4.553306202226857e-01 2.343611394998667e-01 1.596829634017063e-01 1.086534754024958e-01 -1.577520244450445e-03 1.146742763295131e-01 -5.344604791284487e-03
            2.343960889976340e-01 1.597116954394943e-01 -2.145584838186870e-01 4.553801056283875e-01 1.146191857907661e-01 -5.328111278374785e-03 1.088071167973399e-01 -1.520157438707947e-03
557110000.0000000000 1.038927422057368e-01 -2.223286337363121e-02 1.068922306908343e-01 -2.140558464080235e-02 -4.224793128629944e-02 5.017002407186714e-01 2.766031178718047e-01 6.918571961592218e-02
            1.069150649839609e-01 -2.145322924069869e-02 1.039024963692493e-01 -2.230022128770894e-02 2.765360737547897e-01 6.917413851687733e-02 -4.225056156136552e-02 5.017236709237239e-01
            -4.220379975979844e-02 5.016840497186761e-01 2.764627569830581e-01 6.912891585969788e-02 9.871518124361414e-02 -2.301691049907952e-02 1.048872488053934e-01 -2.592893515565181e-02
            2.766306502791382e-01 6.912710827807933e-02 -4.220592013340507e-02 5.016593070144856e-01 1.048765241510537e-01 -2.601673562653638e-02 9.879436342951980e-02 -2.312061150039384e-02
557942500.0000000000 8.289796185212724e-02 -3.201813507335454e-02 8.799869450406193e-02 -3.038825253083656e-02 1.372456052581005e-01 4.850616300225427e-01 2.865298654568735e-01 -3.089274563366629e-02
            8.795347285258222e-02 -3.038708174004465e-02 8.290667978917585e-02 -3.205403351597468e-02 2.865428185509818e-01 -3.090331531092110e-02 1.373051457122252e-01 4.850100527139419e-01
            1.372713761347847e-01 4.851324423326094e-01 2.865397932511877e-01 -3.090198948781436e-02 7.698502590602034e-02 -3.275582149876462e-02 8.353459992079640e-02 -3.545011539918207e-02
            2.865879726386699e-01 -3.085707051187852e-02 1.373017417842420e-01 4.851093606539459e-01 8.359513632436417e-02 -3.542378718684245e-02 7.699302985437541e-02 -3.266448191799662e-02
558775000.0000000000 6.064007841800268e-02 -2.538282679845922e-02 6.780714499383249e-02 -2.428537679862916e-02 3.004903825119576e-01 4.046497666483542e-01 2.620186535554812e-01 -1.308029958500614e-01
            6.776507032601622e-02 -2.420706030841886e-02 6.064554469277793e-02 -2.542629638708588e-02 2.619379600408905e-01 -1.308293856078683e-01 3.005502763350686e-01 4.046650760912046e-01
            3.004421469492239e-01 4.046307053052995e-01 2.619619663685500e-01 -1.308222718634747e-01 5.414606259120521e-02 -2.499172739408333e-02 6.087669332141393e-02 -2.838844719688090e-02
            2.619598944670201e-01 -1.308350878914741e-01 3.005006475698903e-01 4.046773742714213e-01 6.085376916695206e-02 -2.848341546480151e-02 5.407785159165655e-02 -2.497394666893783e-02
559607500.0000000000 4.878346116608652e-02 -5.445291120940478e-03 5.708450880091753e-02 -5.830021744522519e-03 4.235701580325368e-01 2.700816350348942e-01 2.020933593643668e-01 -2.186495554915784e-01
            5.703251682424402e-02 -5.802288382357107e-03 4.874074500261031e-02 -5.482846091017167e-03 2.021348847006668e-01 -2.186954697694862e-01 4.235156752444331e-01 2.701203389035429e-01
            4.235691846153228e-01 2.701412969438005e-01 2.021692679747827e-01 -2.187235398466219e-01 4.213510045097107e-02 -3.535965375254313e-03 4.821905818643755e-02 -7.917827267649728e-03
            2.020686832106064e-01 -2.187082269048596e-01 4.235053191459466e-01 2.701111767766642e-01 4.817360394879650e-02 -7.853093229298551e-03 4.213695778474984e-02 -3.521146561118942e-03
560440000.0000000000 5.349885593706043e-02 1.711261523721602e-02 6.208373292194325e-02 1.499491135915518e-02 4.885878372896647e-01 1.013162782247291e-01 1.117968670188216e-01 -2.803964149859842e-01
            6.213864273284131e-02 1.506655655845758e-02 5.358657194850509e-02 1.713906913736915e-02 1.117821302275226e-01 -2.804303770896766e-01 4.885683656751240e-01 1.012500875549075e-01
            4.885644375493314e-01 1.013190795675515e-01 1.117779633529786e-01 -2.804077359338726e-01 4.795737589117981e-02 2.067707648846657e-02 5.256034326367469e-02 1.579240690865684e-02
            1.118920352674259e-01 -2.803551867280908e-01 4.885238894914660e-01 1.013278205464888e-01 5.254650971663874e-02 1.571665592076925e-02 4.793531549149108e-02 2.070517508755351e-02
561272500.0000000000 7.223253548400023e-02 3.028287920391609e-02 8.018496728634840e-02 2.682499512578613e-02 4.886785390389261e-01 -7.672373985404322e-02 3.327166263256512e-03 -3.042998608934423e-01
            8.016801683028418e-02 2.680384351379044e-02 7.222494945724327e-02 3.024938843729368e-02 3.407786348574077e-03 -3.042612618902767e-01 4.887341103137091e-01 -7.672435354837212e-02
            4.887759111861936e-01 -7.671907633857843e-02 3.360035348736212e-03 -3.042732733637644e-01 6.872909737832283e-02 3.473710353431265e-02 7.105372375916920e-02 3.021547620070011e-02
            3.414977712251014e-03 -3.042713755584696e-01 4.887262290593447e-01 -7.669230806021272e-02 7.103901363411773e-02 3.019622562339232e-02 6.874260394823994e-02 3.473254186043232e-02
562105000.0000000000 9.457323189640283e-02 2.746429446654551e-02 1.015437761600209e-01 2.326982499200088e-02 4.279576767402130e-01 -2.407211720945181e-01 -1.059917044592256e-01 -2.860823215369706e-01
            1.016338930782217e-01 2.323606090348752e-02 9.463650881239298e-02 2.751396156703212e-02 -1.059576205861594e-01 -2.861808697866073e-01 4.279554320062809e-01 -2.406708153885727e-01
            4.278835001779565e-01 -2.406485006085966e-01 -1.060064152699958e-01 -2.860315390734923e-01 9.361343081973722e-02 3.170886609391319e-02 9.380768540245711e-02 2.878054702477895e-02
            -1.060430662051595e-01 -2.861354599026456e-01 4.278751070120734e-01 -2.406415200022048e-01 9.382752635157286e-02 2.884012574831233e-02 9.363197727550154e-02 3.170489103996701e-02
562937500.0000000000 1.092523111494556e-01 1.076200219569189e-02 1.155256663091729e-01 5.920661955247390e-03 3.160760057677686e-01 -3.725101419022884e-01 -2.003003220910368e-01 -2.304191559267586e-01
            1.155563165486283e-01 6.103407340120860e-03 1.092950520990257e-01 1.072234665851699e-02 -2.002425119986040e-01 -2.303836913829500e-01 3.160874094958144e-01 -3.724783099074828e-01
            3.161201366855363e-01 -3.724143794562807e-01 -2.003151546134335e-01 -2.303422682270523e-01 1.104266252798316e-01 1.342600227145904e-02 1.096059702644652e-01 1.322957183303074e-02
            -2.003025733362905e-01 -2.303977879873462e-01 3.161105678417094e-01 -3.724416046174197e-01 1.096464611863299e-01 1.317838349544779e-02 1.105277945046459e-01 1.347902818931148e-02
563770000.0000000000 1.093768981487172e-01 -1.160340230820102e-02 1.149938068598600e-01 -1.656711070384578e-02 1.665854509088840e-01 -4.584660637237786e-01 -2.684318986305227e-01 -1.465534068776755e-01
            1.150081788140298e-01 -1.656252683389989e-02 1.094416504412043e-01 -1.153887410456070e-02 -2.685196128945582e-01 -1.465503948318106e-01 1.666367966730392e-01 -4.584467052459447e-01
            1.665910991011598e-01 -4.584135736526973e-01 -2.684423027645289e-01 -1.465401897988274e-01 1.118631532997146e-01 -1.125341894608343e-02 1.112669337519673e-01 -8.376411620640976e-03
            -2.684769794461640e-01 -1.465571250831691e-01 1.665735597801370e-01 -4.584246284169505e-01 1.112023954291923e-01 -8.312778062001555e-03 1.119562834880166e-01 -1.128261466546035e-02
564602500.0000000000 9.474062155203099e-02 -2.866026828695260e-02 9.980411388527290e-02 -3.407996110800552e-02 -4.535429451214351e-03 -4.882474159939769e-01 -3.045203764011967e-01 -4.512218240891021e-02
            9.980754936341245e-02 -3.408339321944826e-02 9.470630514554544e-02 -2.867197916544822e-02 -3.045199045158946e-01 -4.510561638303370e-02 -4.435793447179779e-03 -4.882510933586915e-01
            -4.474312374077313e-03 -4.881909176014854e-01 -3.045194435102011e-01 -4.509986660053173e-02 9.737670526402302e-02 -3.103062318530552e-02 9.834003708130606e-02 -2.554532625887788e-02
            -3.045183649509716e-01 -4.512901973369402e-02 -4.395027679605481e-03 -4.881175061380463e-01 9.827029923246666e-02 -2.552700564629732e-02 9.742823068681299e-02 -3.100629325915167e-02
565435000.0000000000 7.208072175952790e-02 -3.203672187808342e-02 7.622140488349212e-02 -3.811878228421885e-02 -1.767778285951734e-01 -4.554649543452433e-01 -3.048712971823917e-01 6.377437559453579e-02
            7.625207399236079e-02 -3.814194945092997e-02 7.210633875012429e-02 -3.199868205213480e-02 -3.048250736800519e-01 6.374882549699491e-02 -1.767992314787481e-01 -4.555041732958138e-01
            -1.768110339423898e-01 -4.555388484247725e-01 -3.048170986033839e-01 6.367251321823297e-02 7.389464315806778e-02 -3.667545920002691e-02 7.731488235100219e-02 -2.958378304390702e-02
            -3.047970915034001e-01 6.369555808056077e-02 -1.767642272465019e-01 -4.554179179578816e-01 7.727969384523023e-02 -2.960880632994753e-02 7.386604547134604e-02 -3.675203270583682e-02
566267500.0000000000 5.253682199036672e-02 -1.933674903459414e-02 5.540080644125753e-02 -2.602063429829407e-02 -3.269706015217516e-01 -3.623632059883033e-01 -2.672835337580687e-01 1.689160163693299e-01
            5.538272974829730e-02 -2.605210261202892e-02 5.242038329016480e-02 -1.933155832016110e-02 -2.672713914119926e-01 1.688920816049145e-01 -3.269124221734924e-01 -3.623909581674915e-01
            -3.268404464283478e-01 -3.622986570173151e-01 -2.672180003024234e-01 1.689024842153033e-01 5.286572012373610e-02 -2.578399442693304e-02 5.892060387462288e-02 -1.846738302487691e-02
            -2.672937704145844e-01 1.688186044894721e-01 -3.268832343156307e-01 -3.622994938980703e-01 5.889938199221756e-02 -1.846103575904904e-02 5.292059837733214e-02 -2.576932929762555e-02
567100000.0000000000 4.634056507970222e-02 3.483571047804875e-03 4.731669587508711e-02 -3.335675364148573e-03 -4.325109806530271e-01 -2.209861921633532e-01 -1.927314722861396e-01 2.564895963189867e-01
            4.730133244540424e-02 -3.334531842387990e-03 4.632512144194181e-02 3.417253637646681e-03 -1.928036544772257e-01 2.565084770877633e-01 -4.324335089804297e-01 -2.210776836870833e-01
            -4.324639596165926e-01 -2.210397685750136e-01 -1.927240552921707e-01 2.564919567817614e-01 4.513135017572925e-02 -4.219269845257521e-03 5.329817119176268e-02 2.347921639116094e-03
            -1.927200788089517e-01 2.565342752929014e-01 -4.324948213199514e-01 -2.210289485131262e-01 5.329958880588993e-02 2.294972795061069e-03 4.513124122418424e-02 -4.136869540471912e-03
567932500.0000000000 5.699552762214577e-02 2.433085344536573e-02 5.578476731723560e-02 1.849893566691779e-02 -4.790348864976119e-01 -5.287021042240975e-02 -8.898605325697941e-02 3.119773735613921e-01
            5.579166037279908e-02 1.849984083883190e-02 5.694248897708992e-02 2.439437687727322e-02 -8.897912458347788e-02 3.120038894152432e-01 -4.790492177798523e-01 -5.289482501333114e-02
            -4.790315468366539e-01 -5.288355568409905e-02 -8.900776473794055e-02 3.119484483666068e-01 5.411471646525211e-02 1.612806662379785e-02 6.355012816144809e-02 2.117447819054591e-02
            -8.905668896935873e-02 3.119634148270133e-01 -4.790133970208915e-01 -5.290022588198359e-02 6.354949145095563e-02 2.112059350820044e-02 5.401472435910920e-02 1.616796296752203e-02
568765000.0000000000 7.837411266225418e-02 3.290094311777468e-02 7.555796769881287e-02 2.889408554567825e-02 -4.630284158293138e-01 1.178404815927474e-01 2.888859444176436e-02 3.250846611602385e-01
            7.557049601923407e-02 2.888390982262129e-02 7.838969173488972e-02 3.294788293646691e-02 2.890497139740359e-02 3.250653427733757e-01 -4.630968475867804e-01 1.178079355505175e-01
            -4.630628628038377e-01 1.177845928383602e-01 2.889428854710771e-02 3.250490645895343e-01 7.396396227218313e-02 2.414142655831170e-02 8.382468868242259e-02 2.756022353058447e-02
            2.889339069593860e-02 3.251041912564811e-01 -4.630379592844264e-01 1.178384650018794e-01 8.380366855966427e-02 2.756223530939938e-02 7.399663590339244e-02 2.404326479963729e-02
569597500.0000000000 9.946897304613959e-02 2.546296728467295e-02 9.620004570910674e-02 2.383571991533895e-02 -3.901909031741975e-01 2.700940962698871e-01 1.428672674079267e-01 2.940983374079675e-01
            9.629362104128539e-02 2.395788428406100e-02 9.950862499841964e-02 2.544578080455077e-02 1.429148883556758e-01 2.940799120556919e-01 -3.901893902391091e-01 2.699680258172126e-01
            -3.901754850956528e-01 2.700386474123667e-01 1.428881751962041e-01 2.941335095589314e-01 9.357878887933321e-02 1.595239061184028e-02 1.029355214969524e-01 1.848628676069744e-02
            1.429141404475944e-01 2.941384017472885e-01 -3.900826064968274e-01 2.700265856952048e-01 1.028849939824817e-01 1.840892297269910e-02 9.355875868075328e-02 1.599736193253916e-02
570430000.0000000000 1.102438644199884e-01 6.583630067165236e-03 1.076956104847226e-01 7.240055235934462e-03 -2.708269571858435e-01 3.873727621401964e-01 2.373431626626139e-01 2.254949702125184e-01
            1.077372302891160e-01 7.238988314619838e-03 1.102091020376278e-01 6.570019785200226e-03 2.373605646220877e-01 2.254522986445667e-01 -2.708155339723270e-01 3.872889223447893e-01
            -2.707864246588775e-01 3.873644641668548e-01 2.373932614161051e-01 2.254371785936136e-01 1.022341591030566e-01 -3.529639342567766e-03 1.110836126448370e-01 -1.339080381600515e-03
            2.373227640165739e-01 2.255090163169545e-01 -2.708118287380578e-01 3.873391214121069e-01 1.110149414088071e-01 -1.474168896565584e-03 1.022109800293935e-01 -3.583733201417898e-03
571262500.0000000000 1.060419227580809e-01 -1.406646852312740e-02 1.052811505009862e-01 -1.203888898164679e-02 -1.185758876038512e-01 4.571058743901952e-01 3.021272426734091e-01 1.294318023665487e-01
            1.051829122272608e-01 -1.199687057877941e-02 1.060373788186129e-01 -1.407241533427599e-02 3.021414784002399e-01 1.294089916997687e-01 -1.185113071911790e-01 4.570987394959942e-01
            -1.184746927144061e-01 4.570733396257915e-01 3.021206962116553e-01 1.293835333393072e-01 9.526649747374108e-02 -2.455788805315830e-02 1.036343544855202e-01 -2.227079867749995e-02
            3.021042846757707e-01 1.293937615185024e-01 -1.184964701766853e-01 4.570790299906858e-01 1.036960177820775e-01 -2.228174964518540e-02 9.529471525320339e-02 -2.446725027723738e-02
572095000.0000000000 8.947350140554458e-02 -2.639968181028200e-02 9.062067815438470e-02 -2.424347499239179e-02 4.991803199450624e-02 4.695808070959786e-01 3.309649689363636e-01 1.684504888469111e-02
            9.059231402368649e-02 -2.427730441767205e-02 8.949624121901265e-02 -2.634342880599664e-02 3.309538382071978e-01 1.688896418055185e-02 5.000029684249999e-02 4.696261886718627e-01
            4.994503200718308e-02 4.696544605839054e-01 3.310010805213731e-01 1.690340578500283e-02 7.534353183720305e-02 -3.616430980418714e-02 8.375486924348154e-02 -3.348654402185319e-02
            3.309743941706065e-01 1.687608364983565e-02 4.994723375706886e-02 4.696156804090079e-01 8.376594597635169e-02 -3.348674531429160e-02 7.536912562271128e-02 -3.617413567896848e-02
572927500.0000000000 6.930891684137300e-02 -2.419285855489089e-02 7.165100550769006e-02 -2.311536764555647e-02 2.130652360557593e-01 4.210036665872440e-01 3.199506714177622e-01 -1.007091163392389e-01
            7.161442386572522e-02 -2.313211131476196e-02 6.920077987364513e-02 -2.415512851917249e-02 3.199975155160907e-01 -1.007548251815405e-01 2.130906978622084e-01 4.210298982129563e-01
            2.130951381881025e-01 4.210480010936938e-01 3.199311388528964e-01 -1.007750183240427e-01 5.153274695292273e-02 -3.169971181725355e-02 6.027477956749205e-02 -2.885662938301234e-02
            3.200009255953036e-01 -1.007238590588000e-01 2.130717391580869e-01 4.211007455159080e-01 6.030298222930737e-02 -2.890259082926122e-02 5.156835708576497e-02 -3.181730211265230e-02
573760000.0000000000 5.630009073793085e-02 -8.618220478129948e-03 5.873219680341091e-02 -9.158099011542867e-03 3.478865188599521e-01 3.162909781703481e-01 2.674459475759907e-01 -2.099651207277818e-01
            5.874521282740110e-02 -9.227346823867905e-03 5.623854105995028e-02 -8.589352901455106e-03 2.674664907190236e-01 -2.099931046647562e-01 3.478436701451679e-01 3.162745740607220e-01
            3.478819911773809e-01 3.162871804057552e-01 2.674329700536286e-01 -2.099880574472499e-01 3.585246546636135e-02 -1.241016153212921e-02 4.509026793539857e-02 -9.428567975571131e-03
            2.673989110639179e-01 -2.100629230477436e-01 3.477899580821877e-01 3.162657419379992e-01 4.509726300788869e-02 -9.426843313616224e-03 3.587025106095713e-02 -1.234178553974310e-02
574592500.0000000000 5.791482305918878e-02 1.164992701972914e-02 5.922442479118926e-02 9.988551028869488e-03 4.344488462708268e-01 1.706751293552808e-01 1.770254363722427e-01 -2.948989746288210e-01
            5.917481451491818e-02 9.967886403141295e-03 5.797808941213965e-02 1.170284297978135e-02 1.769079300596096e-01 -2.949263234405785e-01 4.344090267710149e-01 1.707392577822203e-01
            4.343615621931887e-01 1.707030503992677e-01 1.769264164098272e-01 -2.949931173730699e-01 3.659594661120551e-02 1.282538151204168e-02 4.636712652585374e-02 1.556641709075684e-02
            1.769892480425046e-01 -2.948930841562173e-01 4.344453942832634e-01 1.707001306546724e-01 4.637039981952837e-02 1.543506800950713e-02 3.671332863261575e-02 1.274432707656647e-02
575425000.0000000000 7.350094376587715e-02 2.515188081915420e-02 7.276986580106758e-02 2.334311922875718e-02 4.625259362637846e-01 6.369992068231163e-03 5.996481332961423e-02 -3.412044665737622e-01
            7.277135885884366e-02 2.331902339413127e-02 7.356329132661503e-02 2.515168196998575e-02 5.994278910237635e-02 -3.412895318483141e-01 4.625203244386994e-01 6.476774791772587e-03
            4.625593139439485e-01 6.458278002692248e-03 5.997720923227735e-02 -3.410892915688465e-01 5.322005598424896e-02 3.119892545376568e-02 6.342200619722053e-02 3.341085485905972e-02
            5.996220058553535e-02 -3.412262338865691e-01 4.625058531917511e-01 6.473254913904119e-03 6.345575565821031e-02 3.334588194307737e-02 5.322824530456666e-02 3.123019830148743e-02
576257500.0000000000 9.439650515118302e-02 2.435743021258437e-02 9.177485932041830e-02 2.370078098335983e-02 4.319119697206429e-01 -1.543589152109583e-01 -6.593630962908376e-02 -3.410991017717116e-01
            9.165549478485863e-02 2.375347006999942e-02 9.438356315030801e-02 2.444535298290176e-02 -6.588294940348305e-02 -3.410692926313127e-01 4.319044685650811e-01 -1.544145497325948e-01
            4.319033024620966e-01 -1.544013065254636e-01 -6.588262589982521e-02 -3.410972035690580e-01 7.705760923790786e-02 3.426307158084320e-02 8.730964053018289e-02 3.572362497231610e-02
            -6.587112426104291e-02 -3.410582077575711e-01 4.319255221279834e-01 -1.543397664043832e-01 8.738947276927164e-02 3.565719107853093e-02 7.715075993154751e-02 3.421035989703659e-02
577090000.0000000000 1.096621167597218e-01 9.438197827174867e-03 1.059175857059325e-01 1.125159400426097e-02 3.491125407455523e-01 -2.933606856235011e-01 -1.822027947823916e-01 -2.960503166532699e-01
            1.059249857061576e-01 1.122604830396080e-02 1.095750464277978e-01 9.480645442917397e-03 -1.821556398741949e-01 -2.960530023299268e-01 3.491979387330779e-01 -2.932497014626158e-01
            3.491961992766908e-01 -2.932023293126550e-01 -1.822066332854084e-01 -2.961146097237841e-01 9.618704232405566e-02 2.146654296419216e-02 1.064561731583761e-01 2.237415310428959e-02
            -1.821598967936511e-01 -2.960839029332292e-01 3.492053495159189e-01 -2.932053066146103e-01 1.064321512191497e-01 2.229290905025514e-02 9.615711943678314e-02 2.157290123555951e-02
577922500.0000000000 1.113802646104719e-01 -1.226841572857485e-02 1.079984786542710e-01 -7.858473590165092e-03 2.247167311109938e-01 -3.954715519020638e-01 -2.745083217726121e-01 -2.142341962240214e-01
            1.079074069650247e-01 -7.888388612234660e-03 1.113128192138135e-01 -1.215851756138509e-02 -2.745407969480293e-01 -2.141920951947061e-01 2.247161759185774e-01 -3.954656945426631e-01
            2.247204204403190e-01 -3.954424167755941e-01 -2.745137968660347e-01 -2.142218774723814e-01 1.019406035181240e-01 1.562539057050724e-04 1.118286082100209e-01 3.981784071737482e-04
            -2.745212697800796e-01 -2.142547459332359e-01 2.247411948952729e-01 -3.954023943354801e-01 1.117399141616936e-01 3.724444690856424e-04 1.018762548607820e-01 1.535193384531039e-04
578755000.0000000000 9.845258423899748e-02 -3.017394989412691e-02 9.658387203696905e-02 -2.391885660185836e-02 7.193766518024887e-02 -4.490349248690498e-01 -3.334979496912875e-01 -1.063312018481812e-01
            9.661857137376112e-02 -2.386255246205703e-02 9.852720243442027e-02 -3.027767179152644e-02 -3.334768126160920e-01 -1.062411549920742e-01 7.192866638409683e-02 -4.489093011281607e-01
            7.199097727968076e-02 -4.490209567513844e-01 -3.335460270798155e-01 -1.063270825323186e-01 9.225282858902120e-02 -1.884107180116965e-02 1.015038652196084e-01 -1.932824797038099e-02
            -3.334828406039497e-01 -1.063400933346524e-01 7.197094007932635e-02 -4.489889940481486e-01 1.015062879244868e-01 -1.929819253506730e-02 9.226329147721660e-02 -1.877502178238577e-02
579587500.0000000000 7.642142147564164e-02 -3.575040095059015e-02 7.668214042322577e-02 -2.838656936268810e-02 -9.131134984823028e-02 -4.453526613763779e-01 -3.529531770132220e-01 1.628767488821193e-02
            7.667809744830996e-02 -2.840440808633696e-02 7.642583314080567e-02 -3.572418299226643e-02 -3.530357785303889e-01 1.629966585609856e-02 -9.134451438409985e-02 -4.452914700349455e-01
            -9.134990359875640e-02 -4.452951604303400e-01 -3.530101242880071e-01 1.630531570172221e-02 7.227697428744953e-02 -2.616816721469937e-02 8.059971974850531e-02 -2.716574822794551e-02
            -3.530485112242347e-01 1.622602095560123e-02 -9.139014904175118e-02 -4.453331482072277e-01 8.056863114701943e-02 -2.709828330093909e-02 7.221116917895823e-02 -2.610180770784979e-02
580420000.0000000000 5.599605365151029e-02 -2.548759719145183e-02 5.814521495120007e-02 -1.802009940844705e-02 -2.433625090961332e-01 -3.826563999012871e-01 -3.289532978747725e-01 1.406496853617856e-01
            5.813415059210188e-02 -1.800248458080293e-02 5.609051686082980e-02 -2.540775542029628e-02 -3.289313221017707e-01 1.406731292818819e-01 -2.432757742370954e-01 -3.827577935308313e-01
            -2.433745594398866e-01 -3.827272579867313e-01 -3.289367281904061e-01 1.407742868803344e-01 5.256580590398072e-02 -1.768564515563655e-02 5.966548127938639e-02 -1.863889102128804e-02
            -3.289514021438320e-01 1.407051186273815e-01 -2.434106110302697e-01 -3.827305999370393e-01 5.961990930202699e-02 -1.871476280855050e-02 5.253744141023656e-02 -1.765464189028179e-02
581252500.0000000000 4.753118576550652e-02 -4.116359581795619e-03 5.101622254068897e-02 2.777759911815540e-03 -3.615797453476348e-01 -2.692185200752804e-01 -2.607677154246379e-01 2.512572791237827e-01
            5.108332577676736e-02 2.688522923140527e-03 4.754059411777156e-02 -4.092104195086717e-03 -2.607811905315608e-01 2.513304908510547e-01 -3.615592788253637e-01 -2.691958395679557e-01
            -3.615567431614548e-01 -2.692468815138523e-01 -2.607861949385236e-01 2.512566970108684e-01 4.412070427300109e-02 2.533377112892216e-03 4.963977278949104e-02 2.002565935366304e-03
            -2.607747445354518e-01 2.513261385494545e-01 -3.616054459139417e-01 -2.691992846140941e-01 4.970341860575297e-02 1.998481588598927e-03 4.422698459475236e-02 2.596220387707251e-03
582085000.0000000000 5.558156640616530e-02 1.712713552743826e-02 5.977746591393027e-02 2.327285842583331e-02 -4.297149511288905e-01 -1.224161817146345e-01 -1.549981894134587e-01 3.307539650048740e-01
            5.975817721556667e-02 2.325030633020225e-02 5.562908773085452e-02 1.708477644371550e-02 -1.550361064873794e-01 3.307232153937793e-01 -4.297435096719675e-01 -1.224117383569863e-01
            -4.296616481845421e-01 -1.223107928102165e-01 -1.551270791559161e-01 3.307696290481198e-01 5.221731091737329e-02 2.333074847394334e-02 5.623257940702307e-02 2.399627121760982e-02
            -1.550776336033448e-01 3.307780817742196e-01 -4.297203533656193e-01 -1.224095851822417e-01 5.630333731495183e-02 2.413346496349202e-02 5.220281729599221e-02 2.335039073733047e-02
582917500.0000000000 7.535535250841367e-02 2.692613594015979e-02 7.995445640735402e-02 3.305479456674034e-02 -4.409548911431696e-01 3.593136419881868e-02 -2.655287905961277e-02 3.658504287286765e-01
            7.993970149027051e-02 3.315788411676011e-02 7.539192999033363e-02 2.701810977642279e-02 -2.661281657465931e-02 3.658408180463603e-01 -4.409141597944535e-01 3.590242665027205e-02
            -4.409591335234653e-01 3.591158993907644e-02 -2.650946677515169e-02 3.657862044392934e-01 7.255626334855243e-02 3.321153258389308e-02 7.545750312734979e-02 3.611060217253385e-02
            -2.656315053282260e-02 3.658174211198333e-01 -4.409444554678392e-01 3.601384282358129e-02 7.551987268786435e-02 3.606607213783355e-02 7.256528223538795e-02 3.317966309607694e-02
583750000.0000000000 9.607625828486129e-02 2.100399680119364e-02 1.014604072044702e-01 2.744086772764264e-02 -3.975747277062337e-01 1.856878828929313e-01 1.051295507635651e-01 3.517190873920034e-01
            1.015240630326528e-01 2.744003569584965e-02 9.607436320968864e-02 2.107502084302829e-02 1.051456577842783e-01 3.517303112566119e-01 -3.975885715622585e-01 1.856853852541208e-01
            -3.975385773048810e-01 1.857502310309615e-01 1.050474535434348e-01 3.517328410313076e-01 9.460106523066705e-02 2.688388299794306e-02 9.737579227408133e-02 3.267621932731220e-02
            1.051554849925896e-01 3.517524263359404e-01 -3.976115960049530e-01 1.857563173398877e-01 9.732430801579013e-02 3.261170605965018e-02 9.456281903662457e-02 2.690565259330793e-02
584582500.0000000000 1.072147315387559e-01 2.862704691787621e-03 1.142449996878963e-01 9.505727909257482e-03 -3.069423810909661e-01 3.108179105565016e-01 2.219358785007723e-01 2.924533620549785e-01
            1.142759294295497e-01 9.498201544745491e-03 1.072046906283281e-01 2.820677712064415e-03 2.218600906326246e-01 2.924546962716656e-01 -3.068757164829841e-01 3.107405876691336e-01
            -3.069315476205642e-01 3.107519083288804e-01 2.219587527736941e-01 2.924879972958678e-01 1.072300001704459e-01 7.550459025063079e-03 1.110591886855120e-01 1.619282507731266e-02
            2.219514142811693e-01 2.924655090872814e-01 -3.069401494259282e-01 3.107679179642756e-01 1.110812065144440e-01 1.615346450285936e-02 1.071618270626969e-01 7.567075799794848e-03
585415000.0000000000 1.032370351330723e-01 -1.813675240620657e-02 1.126585127270222e-01 -1.220245460539189e-02 -1.791121985811134e-01 3.976824430901649e-01 3.104555912399902e-01 1.974868416823375e-01
            1.125946292844928e-01 -1.231293576390814e-02 1.033276374790429e-01 -1.819062243732050e-02 3.103671549295925e-01 1.975137948082773e-01 -1.789557220196295e-01 3.976902252672249e-01
            -1.790725949638109e-01 3.976801888778798e-01 3.105502123013674e-01 1.975845037915679e-01 1.043185735144828e-01 -1.565679419114693e-02 1.106157943575333e-01 -4.528736003887080e-03
            3.104448734834107e-01 1.975945235434166e-01 -1.790619813216986e-01 3.976885901983078e-01 1.106431230730892e-01 -4.610080345134418e-03 1.043725628559970e-01 -1.569914195780502e-02
586247500.0000000000 8.593535681977543e-02 -3.151811275795265e-02 9.745631656042515e-02 -2.774969899653615e-02 -2.775038495244180e-02 4.353209237851337e-01 3.620206181297769e-01 7.824834195797652e-02
            9.751812329050595e-02 -2.771974039739990e-02 8.593270908890094e-02 -3.152096163485609e-02 3.620278246932203e-01 7.823424605255415e-02 -2.776453226760417e-02 4.351785893062540e-01
            -2.784612236327984e-02 4.353486271157598e-01 3.620274955523059e-01 7.827502563618363e-02 8.700974982272819e-02 -3.197635155251392e-02 9.663590113116206e-02 -1.933295314871360e-02
            3.619937512133733e-01 7.821433673324230e-02 -2.781671455605973e-02 4.352827409186255e-01 9.652567125751874e-02 -1.931231048907136e-02 8.704089958456783e-02 -3.201037779825439e-02
587080000.0000000000 6.334508420310085e-02 -2.976880125876047e-02 7.603727947530962e-02 -2.955084908406167e-02 1.283478201701627e-01 4.165111361476210e-01 3.702729404164370e-01 -5.324348796205590e-02
            7.605770356657858e-02 -2.956274761336441e-02 6.340888260981836e-02 -2.963212088736809e-02 3.703386106611493e-01 -5.329950729950721e-02 1.284282465793073e-01 4.164371384236645e-01
            1.283577995662829e-01 4.164579837510775e-01 3.704265891516584e-01 -5.324352766255727e-02 6.287089748692030e-02 -3.329475889615736e-02 7.612179068806341e-02 -2.036921506133132e-02
            3.702532395567669e-01 -5.330150248783307e-02 1.283719824036376e-01 4.164375730449292e-01 7.618242297579719e-02 -2.039134852481522e-02 6.287550349795350e-02 -3.322482319370378e-02
587912500.0000000000 4.738686604896375e-02 -1.263742873594109e-02 5.905479681214244e-02 -1.680016637561326e-02 2.674793008633209e-01 3.417204380012470e-01 3.318166863518569e-01 -1.824113595854844e-01
            5.896907232613519e-02 -1.679507984356445e-02 4.728960009828956e-02 -1.266005574343235e-02 3.318481132246643e-01 -1.823784616336440e-01 2.674200664996626e-01 3.417749862950639e-01
            2.673784441140755e-01 3.417776182616837e-01 3.318344241530048e-01 -1.823690966124753e-01 4.358193735859877e-02 -1.826136582018607e-02 6.041543121104275e-02 -6.718961764241303e-03
            3.318476124399402e-01 -1.823589072856651e-01 2.674166688128667e-01 3.417691110461755e-01 6.039717633716086e-02 -6.647524802460605e-03 4.360551602170905e-02 -1.829499318720404e-02
588745000.0000000000 4.683047821106674e-02 1.160669664976699e-02 5.522336127513010e-02 3.641039552358297e-03 3.686977679930517e-01 2.222336456666850e-01 2.478023410742471e-01 -2.914889434062283e-01
            5.527753420932702e-02 3.667948348287603e-03 4.671765731921205e-02 1.157557160640515e-02 2.477296598015570e-01 -2.915102598760764e-01 3.686698649332342e-01 2.222965589265201e-01
            3.686187359154681e-01 2.222774151924362e-01 2.476580706216442e-01 -2.914711843361888e-01 3.892577844922360e-02 5.295409902833538e-03 5.857246574669597e-02 1.470306256467811e-02
            2.476929775651993e-01 -2.914753437709509e-01 3.687178619188168e-01 2.223130983978306e-01 5.861668890320930e-02 1.480871032474834e-02 3.892738900369055e-02 5.353063702597161e-03
589577500.0000000000 6.285149595369875e-02 3.025635763423438e-02 6.613515069027875e-02 2.075683624797294e-02 4.190741845879303e-01 7.683292527066821e-02 1.279225007012871e-01 -3.630235720458032e-01
            6.618213559056661e-02 2.068747984793835e-02 6.279553030983728e-02 3.027277859057857e-02 1.278475850626015e-01 -3.631559473708449e-01 4.190439149237893e-01 7.685357581523949e-02
            4.190516799209253e-01 7.683244988992914e-02 1.279470430759528e-01 -3.630891217204498e-01 5.095692773531002e-02 2.558312453647227e-02 7.243770721128942e-02 3.209846748597479e-02
            1.279035811946543e-01 -3.631812822742828e-01 4.191240565220122e-01 7.683831123019542e-02 7.243105015011474e-02 3.209253776728448e-02 5.084968405656500e-02 2.553454036004350e-02
590410000.0000000000 8.737914783719618e-02 3.377253255077631e-02 8.510484367245154e-02 2.547034934197776e-02 4.152990287918908e-01 -7.384607818947042e-02 -9.987976937902255e-03 -3.856650462349491e-01
            8.519713391832209e-02 2.540006432304479e-02 8.733460554085808e-02 3.378746120910241e-02 -1.005102604808631e-02 -3.856710676169245e-01 4.152818205984141e-01 -7.375559707101004e-02
            4.153283262762475e-01 -7.378551841666227e-02 -1.009147900911609e-02 -3.856734834007399e-01 7.240482309765088e-02 3.238893891505172e-02 9.483257017391904e-02 3.607424617876092e-02
            -1.000017925616622e-02 -3.856565855810518e-01 4.152802138611522e-01 -7.375595759867612e-02 9.480939140907747e-02 3.605262335376137e-02 7.244296263262794e-02 3.249023469933741e-02
591242500.0000000000 1.082438028193310e-01 2.060078961064612e-02 1.017757411531724e-01 1.618164553990694e-02 3.611050373153148e-01 -2.119991861448784e-01 -1.455725742931984e-01 -3.572116937042786e-01
            1.016982928480034e-01 1.616401335135327e-02 1.082231511469423e-01 2.051550200799942e-02 -1.455801531346694e-01 -3.571747077378071e-01 3.611206603780953e-01 -2.118826469393622e-01
            3.611009375737573e-01 -2.119379416151577e-01 -1.455718082746175e-01 -3.571832307018743e-01 9.211891164765754e-02 2.338760888820346e-02 1.145778203792824e-01 2.439796958518479e-02
            -1.455405409805941e-01 -3.571918547090110e-01 3.611481898344086e-01 -2.118881026740457e-01 1.146581715975796e-01 2.435574146624194e-02 9.209664063658912e-02 2.334174021035769e-02
592075000.0000000000 1.157474866622943e-01 -3.061902436419751e-03 1.076225924125166e-01 -1.660968778231040e-03 2.641263134695139e-01 -3.229682697365778e-01 -2.613744045083594e-01 -2.838950971734298e-01
            1.075752359143833e-01 -1.649949519306441e-03 1.157955644679183e-01 -3.004033956955948e-03 -2.613877367778916e-01 -2.839315293737589e-01 2.640487720955051e-01 -3.229748066273213e-01
            2.641643236788184e-01 -3.229873873052435e-01 -2.613736958387597e-01 -2.839135803874281e-01 1.002924117130306e-01 4.155482534057705e-03 1.224800225813162e-01 2.741645464881995e-03
            -2.613353999991094e-01 -2.839010055961967e-01 2.640523005026299e-01 -3.229884622186325e-01 1.224544626422900e-01 2.717034464631499e-03 1.003374018569953e-01 4.176563629789604e-03
592907500.0000000000 1.064337073803371e-01 -2.597008583370312e-02 9.975006390977569e-02 -1.895165458336522e-02 1.344062011243185e-01 -3.946605514687125e-01 -3.448134786574362e-01 -1.762772278392285e-01
            9.982696235713515e-02 -1.887365275559342e-02 1.064491281000488e-01 -2.595741765980835e-02 -3.448127474836662e-01 -1.762425348762582e-01 1.343819679490700e-01 -3.946470250468929e-01
            1.344335686582463e-01 -3.947023607761900e-01 -3.448083672324695e-01 -1.762243200641963e-01 9.340565986756580e-02 -1.539646171093705e-02 1.149274478328515e-01 -1.895698547550873e-02
            -3.447821603569345e-01 -1.762104476662909e-01 1.344649721637498e-01 -3.947209749150665e-01 1.149444544408434e-01 -1.896976236005864e-02 9.332942144838019e-02 -1.540119526662353e-02
593740000.0000000000 8.446755032976240e-02 -3.763711789470636e-02 8.192078779096371e-02 -2.657178518810687e-02 -1.366653710273411e-02 -4.165719887571232e-01 -3.874578941827340e-01 -4.604065980525082e-02
            8.189418703000552e-02 -2.656388375394517e-02 8.431545755041155e-02 -3.751026682597315e-02 -3.873810722617666e-01 -4.595884773106146e-02 -1.356926955014395e-02 -4.166068203599485e-01
            -1.358804811057664e-02 -4.166244066850351e-01 -3.874261265360978e-01 -4.591539858866706e-02 7.477221255441743e-02 -2.506297993923045e-02 9.547459947865150e-02 -3.067681464066350e-02
            -3.874583491965031e-01 -4.597559010070023e-02 -1.362630590888279e-02 -4.166077022667988e-01 9.543609014753651e-02 -3.077864645477122e-02 7.470758983233272e-02 -2.506467335650410e-02
594572500.0000000000 6.006949554402622e-02 -3.193865430566621e-02 6.275631299793312e-02 -1.991615774013675e-02 -1.607222976087024e-01 -3.835345904275180e-01 -3.830516503870532e-01 9.340140334115395e-02
            6.288665485975263e-02 -1.988485254430345e-02 6.001903978409116e-02 -3.202330239759319e-02 -3.830864024608359e-01 9.340245306559716e-02 -1.608147811282580e-01 -3.835231602135649e-01
            -1.608178226178003e-01 -3.834327640987190e-01 -3.831824710368947e-01 9.344349802084377e-02 5.397550425379258e-02 -1.933966316283481e-02 7.330342470786788e-02 -2.681980816661469e-02
            -3.830820734956126e-01 9.339675245110605e-02 -1.607930849213112e-01 -3.834523716465461e-01 7.330918713712205e-02 -2.678221888274759e-02 5.396185115376324e-02 -1.931940023091175e-02
595405000.0000000000 4.555834180207397e-02 -1.168062220426456e-02 5.297323989283129e-02 -1.411567747544286e-03 -2.853561579316723e-01 -2.988496004147541e-01 -3.288210728482132e-01 2.252834129805602e-01
            5.300357352919395e-02 -1.491082108061075e-03 4.550144812599442e-02 -1.175997083507951e-02 -3.288390355944090e-01 2.252257973207511e-01 -2.853516413211583e-01 -2.989239492507412e-01
            -2.853744300223532e-01 -2.989319613481287e-01 -3.287484059443068e-01 2.252793206250790e-01 4.217035566204415e-02 -7.378446765449663e-05 5.981829449787113e-02 -9.379690748116313e-03
            -3.288122888240305e-01 2.252519469882495e-01 -2.853526639513158e-01 -2.989082853999999e-01 5.985606329169838e-02 -9.309989436403723e-03 4.214160373211929e-02 -1.456037529595345e-04
596237500.0000000000 4.828516512286150e-02 1.279032715708004e-02 5.831591479736651e-02 1.930843478268704e-02 -3.693508786774618e-01 -1.761987736158141e-01 -2.286767989802280e-01 3.304449048554646e-01
            5.836035786329526e-02 1.924671015290392e-02 4.826663446513345e-02 1.278573895831412e-02 -2.287288221047943e-01 3.304759144179122e-01 -3.692511082073591e-01 -1.761300549301208e-01
            -3.692735786828522e-01 -1.761509102134604e-01 -2.286604021865880e-01 3.304229891605469e-01 4.652806318308870e-02 2.254843792124729e-02 6.192080688490814e-02 1.218223634124788e-02
            -2.287408661572567e-01 3.305009071181793e-01 -3.693552583122894e-01 -1.761483176196978e-01 6.195437114289467e-02 1.220645790672815e-02 4.661128788267711e-02 2.249785242611438e-02
597070000.0000000000 6.618713302955634e-02 2.891123995205710e-02 7.636217639259060e-02 3.129171353116072e-02 -4.030665065697655e-01 -3.448487088835638e-02 -9.585418329313897e-02 3.918190138231546e-01
            7.643004875100291e-02 3.125666204927676e-02 6.622146980589753e-02 2.878962610987926e-02 -9.590422309231442e-02 3.919044835352981e-01 -4.029923635508018e-01 -3.457159012262846e-02
            -4.030282618985745e-01 -3.453390745322686e-02 -9.592441456471421e-02 3.918855273917699e-01 6.521236498543662e-02 3.669649250498905e-02 7.809783893375810e-02 2.602120490266120e-02
            -9.584961213857628e-02 3.918678277394987e-01 -4.030700701031835e-01 -3.453055005807604e-02 7.804328789511009e-02 2.598819368624384e-02 6.515664898001226e-02 3.656736226144953e-02
597902500.0000000000 8.968027807163595e-02 2.877694303295006e-02 9.779836942983845e-02 2.830283188110564e-02 -3.860096697488055e-01 1.069490430311101e-01 4.955735240596656e-02 4.004932102869396e-01
            9.782505761382793e-02 2.821700188604693e-02 8.966912383240973e-02 2.885967988371922e-02 4.957729981340197e-02 4.005200949163377e-01 -3.859977839922982e-01 1.069409622025525e-01
            -3.860851640338931e-01 1.069953249755248e-01 4.953023948051864e-02 4.004866126993541e-01 8.841845234138164e-02 3.515885727208554e-02 9.908889770665896e-02 2.506487030584545e-02
            4.956370371585789e-02 4.005530389271198e-01 -3.859132084296046e-01 1.069272164848745e-01 9.899174452024552e-02 2.509586046327682e-02 8.838776490005479e-02 3.518519514092192e-02
598735000.0000000000 1.068242823441247e-01 1.356305920376066e-02 1.119634192035710e-01 1.220855644467332e-02 -3.230656269709870e-01 2.326430378053711e-01 1.870577374714679e-01 3.573035900813847e-01
            1.119538009085188e-01 1.221148777331616e-02 1.069212608446717e-01 1.343651710125426e-02 1.870509359077223e-01 3.573831924984278e-01 -3.229633537141752e-01 2.326739153964946e-01
            -3.229914329645873e-01 2.327417716696409e-01 1.870720608248168e-01 3.573104050288876e-01 1.048558177586093e-01 1.913329205539748e-02 1.138775827167547e-01 1.038259981353938e-02
            1.871108116126896e-01 3.573861469297877e-01 -3.229204482461502e-01 2.327706559204185e-01 1.139524430179572e-01 1.031240260599379e-02 1.050141388284029e-01 1.916806869899606e-02
599567500.0000000000 1.097546036407541e-01 -8.999886502798256e-03 1.123118232654516e-01 -9.103624968000231e-03 -2.212658235304018e-01 3.297562070532407e-01 3.002164023454433e-01 2.700782458703823e-01
            1.123591522543961e-01 -9.162690086904787e-03 1.096678033013176e-01 -8.996523025198952e-03 3.001564682322182e-01 2.701147515189558e-01 -2.212528674531994e-01 3.297802402174113e-01
            -2.213364012594009e-01 3.297807150332474e-01 3.001628006938891e-01 2.701511563193021e-01 1.072149128761173e-01 -3.522877426225447e-03 1.154063019504727e-01 -1.076111772438193e-02
            3.001450264243488e-01 2.701144734905414e-01 -2.213037894208252e-01 3.297720115450394e-01 1.154027507531999e-01 -1.077888145254914e-02 1.071846679194303e-01 -3.488010990653242e-03
600400000.0000000000 9.696764717634930e-02 -2.770792534724970e-02 9.874936027847490e-02 -2.560475744170084e-02 -9.151451041227124e-02 3.863613547546971e-01 3.768984544576047e-01 1.499970845803926e-01
            9.877892391226367e-02 -2.559408436118283e-02 9.696170916748874e-02 -2.782653242907096e-02 3.768933368284506e-01 1.500029464175608e-01 -9.143514057360759e-02 3.864099220198106e-01
            -9.143788071618987e-02 3.863937385943010e-01 3.769959981771394e-01 1.499955541683961e-01 9.422802799197809e-02 -2.193397754542092e-02 1.024985873329310e-01 -2.790243254671082e-02
            3.769425752486237e-01 1.499600789045720e-01 -9.135163705547918e-02 3.863507604872293e-01 1.025522282770954e-01 -2.786553994384109e-02 9.428675609014034e-02 -2.195910112309187e-02
601232500.0000000000 7.483596633634422e-02 -3.337491842209650e-02 7.741947001996931e-02 -2.905035276120557e-02 5.152289091617625e-02 3.933721689729548e-01 4.089977156495671e-01 9.463649797199249e-03
            7.742316368604690e-02 -2.901174868677548e-02 7.485244834690891e-02 -3.337346155471031e-02 4.089803351906065e-01 9.537805369600937e-03 5.164426817284044e-02 3.932393018807389e-01
            5.163677716488200e-02 3.933460811896637e-01 4.089767380438258e-01 9.560654765474502e-03 7.236600164731878e-02 -2.725875870426702e-02 8.111270451499188e-02 -3.252833252681608e-02
            4.089885349431620e-01 9.582673088591207e-03 5.152928064627148e-02 3.932501962662016e-01 8.115565143991885e-02 -3.253986150224288e-02 7.227616183189475e-02 -2.723168052789048e-02
602065000.0000000000 5.443350445472682e-02 -2.267103382546671e-02 5.912408835446865e-02 -1.736800514725526e-02 1.879516937393927e-01 3.473457511855673e-01 3.902148644025073e-01 -1.360714228732898e-01
            5.903271840668527e-02 -1.735523315166049e-02 5.441398403020247e-02 -2.268478446583865e-02 3.902732715818586e-01 -1.361811176396773e-01 1.879088986567369e-01 3.474040003887987e-01
            1.878956854518918e-01 3.473829660451911e-01 3.902332123832445e-01 -1.361307461631663e-01 5.243322111826184e-02 -1.638657760836859e-02 6.187362620535918e-02 -2.160506864641623e-02
            3.903144489730268e-01 -1.361337260857832e-01 1.879183080690693e-01 3.474467684735551e-01 6.191268911041729e-02 -2.161632090488217e-02 5.242737286420641e-02 -1.626081880482270e-02
602897500.0000000000 4.659602379806917e-02 -7.286423868760184e-04 5.337354267307930e-02 3.845670854998940e-03 2.970354497664441e-01 2.551866836706270e-01 3.195208329326192e-01 -2.682093369759562e-01
            5.333929881374649e-02 3.868368341665342e-03 4.651068506668911e-02 -7.938864565214114e-04 3.195241077787629e-01 -2.682457258392006e-01 2.970568275440250e-01 2.552264992828322e-01
            2.970992087415779e-01 2.552127592889297e-01 3.194831569866946e-01 -2.682331643765359e-01 4.503574912508125e-02 5.395924873796670e-03 5.489379907949036e-02 -5.192831106393182e-04
            3.195373414646108e-01 -2.682741132777916e-01 2.971130870774377e-01 2.552246822108551e-01 5.486652073376865e-02 -5.111572572974435e-04 4.513950252809820e-02 5.338480593161369e-03
603730000.0000000000 5.557690532584701e-02 2.069035284180160e-02 6.356257246328567e-02 2.332843354183559e-02 3.639290827905737e-01 1.318165442461056e-01 2.038571640402154e-01 -3.667787280408372e-01
            6.357056048995513e-02 2.344325160663751e-02 5.552336114747504e-02 2.074164538935664e-02 2.039494422429048e-01 -3.668396887219645e-01 3.639001201649880e-01 1.317972848600468e-01
            3.639114746573368e-01 1.317969100822482e-01 2.038977282835496e-01 -3.668392773336618e-01 5.452122800761258e-02 2.637948856440309e-02 6.398825606751239e-02 1.971958210100898e-02
            2.039337560282618e-01 -3.668194923256772e-01 3.640359638072895e-01 1.318412816759361e-01 6.403136458787685e-02 1.974201376071549e-02 5.449561848079493e-02 2.642190207176487e-02
604562500.0000000000 7.646100262681692e-02 3.042208961533579e-02 8.409078489053692e-02 3.081219077694310e-02 3.824982323958452e-01 -4.010609832344652e-03 5.982151168875226e-02 -4.161767688037268e-01
            8.406623672298849e-02 3.084141099784543e-02 7.647545046986354e-02 3.037237059351753e-02 5.986072342767602e-02 -4.162123574857881e-01 3.825057520456543e-01 -3.946124567345478e-03
            3.825134926715587e-01 -3.922881737100108e-03 5.979752836185709e-02 -4.161833862111044e-01 7.556734642431287e-02 3.553636106365015e-02 8.410043717341510e-02 2.834854052274978e-02
            5.990014618093766e-02 -4.161772055680355e-01 3.824952828941864e-01 -3.973893682492724e-03 8.407484892854705e-02 2.835170296383030e-02 7.554023234657667e-02 3.549687926026563e-02
605395000.0000000000 9.828983709650119e-02 2.376850489711452e-02 1.042472964034328e-01 2.270665969496838e-02 3.540448136689388e-01 -1.352914503639482e-01 -9.112761637089145e-02 -4.102180135717858e-01
            1.042507259847440e-01 2.275948254732467e-02 9.829128828035805e-02 2.379118982938020e-02 -9.112883397217957e-02 -4.102226483009255e-01 3.541468744576787e-01 -1.353795185783508e-01
            3.540939501969084e-01 -1.352647037637755e-01 -9.111695998331876e-02 -4.102076620744520e-01 9.725228255644285e-02 2.856912517009301e-02 1.046801082536427e-01 2.150950676171881e-02
            -9.114762959438641e-02 -4.102631234102060e-01 3.540354268151926e-01 -1.353389607630325e-01 1.046112396400204e-01 2.151871753995078e-02 9.721189833592142e-02 2.855340164427117e-02
606227500.0000000000 1.103711071075017e-01 4.658127155860386e-03 1.140112505036943e-01 3.522284753439270e-03 2.837851477916341e-01 -2.484044253577819e-01 -2.288191421623930e-01 -3.521167223278642e-01
            1.140449249265117e-01 3.514028620980250e-03 1.103933072015028e-01 4.669880482105964e-03 -2.288037103727265e-01 -3.521381026784057e-01 2.837639109203198e-01 -2.484399875925203e-01
            2.838189514840869e-01 -2.484424874128826e-01 -2.287871354453295e-01 -3.521827489502115e-01 1.090382242728575e-01 9.315738760808020e-03 1.155091141394576e-01 2.853348124951461e-03
            -2.288233783633829e-01 -3.521092296845248e-01 2.837331411909281e-01 -2.484122308981969e-01 1.155917776565860e-01 2.885110494859201e-03 1.091007563843797e-01 9.368372300846061e-03
607060000.0000000000 1.071049218821330e-01 -1.781513391145288e-02 1.090203483552597e-01 -1.754893129663717e-02 1.790672636506851e-01 -3.313418660427710e-01 -3.375777597143568e-01 -2.511743327122096e-01
            1.090386249924419e-01 -1.755516959067292e-02 1.070860484686068e-01 -1.780361013440057e-02 -3.375529708456383e-01 -2.512225374597106e-01 1.790545504958078e-01 -3.312981076254552e-01
            1.790771680593224e-01 -3.313045343493375e-01 -3.375687673009969e-01 -2.512443246946538e-01 1.056570518120829e-01 -1.284394075021521e-02 1.118753976061467e-01 -1.838671005165706e-02
            -3.375510929333617e-01 -2.512240025791490e-01 1.790303014755069e-01 -3.313045255303470e-01 1.118070983297009e-01 -1.835223047995853e-02 1.056195274805040e-01 -1.283227669791550e-02
607892500.0000000000 8.985420367732101e-02 -3.280831340550146e-02 9.137249884470011e-02 -3.039928267397345e-02 5.067392539668319e-02 -3.730067302492528e-01 -4.060394115883152e-01 -1.191077894179120e-01
            9.138517090111314e-02 -3.041603915737752e-02 8.980242583480887e-02 -3.283817422589191e-02 -4.061036924668012e-01 -1.192157511235869e-01 5.061300493931438e-02 -3.729797657207654e-01
            5.069956766971449e-02 -3.730718185387832e-01 -4.060701260392571e-01 -1.191450849363656e-01 8.858955809422657e-02 -2.741437655675362e-02 9.493072645925751e-02 -3.226647924314954e-02
            -4.060445182147376e-01 -1.191831170181521e-01 5.068557189208760e-02 -3.729806323519083e-01 9.501331386112832e-02 -3.221942388488982e-02 8.865199836568077e-02 -2.742129776229089e-02
608725000.0000000000 6.682960249124881e-02 -3.286682733675930e-02 6.929777966125178e-02 -2.859999804919521e-02 -8.535682151848528e-02 -3.657834574422445e-01 -4.257685377761929e-01 3.028151321521286e-02
            6.927248497380462e-02 -2.849872367752208e-02 6.670600919774336e-02 -3.287856172307955e-02 -4.257869142537139e-01 3.024796396104508e-02 -8.530833466857389e-02 -3.658212880899059e-01
            -8.537273936478851e-02 -3.658305958987423e-01 -4.257968296731635e-01 3.028755311397121e-02 6.622695715068333e-02 -2.713491435033247e-02 7.314795024555805e-02 -3.176561599931513e-02
            -4.257961719223526e-01 3.025172509530292e-02 -8.529452894024811e-02 -3.658022887626277e-01 7.306265108445635e-02 -3.174327511615883e-02 6.630695283323378e-02 -2.719373058592689e-02
609557500.0000000000 4.930852758883378e-02 -1.767268223782514e-02 5.376134798255279e-02 -1.242096843788424e-02 -2.094100835089281e-01 -3.090753452436338e-01 -3.915750735828957e-01 1.800921649097689e-01
            5.380101877464807e-02 -1.238065495089341e-02 4.932993055325013e-02 -1.774486249631887e-02 -3.915949070302487e-01 1.801294144110684e-01 -2.094538549660322e-01 -3.090359278359394e-01
            -2.093867643098306e-01 -3.091458801187783e-01 -3.916095005660472e-01 1.801002388699482e-01 4.973635818084111e-02 -1.206467170458941e-02 5.701994921467461e-02 -1.696825625975908e-02
            -3.915896516385092e-01 1.801426876671968e-01 -2.094311280944772e-01 -3.091081731415032e-01 5.705363053239977e-02 -1.694461153455036e-02 4.974018995251590e-02 -1.198800277727818e-02
610390000.0000000000 4.648479753923833e-02 5.022464742576752e-03 5.304992251058951e-02 9.863390760394960e-03 -3.027628372553691e-01 -2.118198076495814e-01 -3.044570871512211e-01 3.099679026824583e-01
            5.301242689740225e-02 9.794000210539571e-03 4.643753689654918e-02 5.099463994238299e-03 -3.043633663411490e-01 3.099220479609135e-01 -3.027369322141645e-01 -2.118433748428007e-01
            -3.027110394926893e-01 -2.118936814275079e-01 -3.042702919947194e-01 3.099130210050119e-01 4.791719225176183e-02 1.022080933729376e-02 5.518533009911261e-02 4.543885450876124e-03
            -3.042559070732294e-01 3.098709327856093e-01 -3.027820326151562e-01 -2.118625378128184e-01 5.519233858635687e-02 4.482271270243142e-03 4.796574023870119e-02 1.027546821510480e-02
611222500.0000000000 5.929558080191173e-02 2.335965181747408e-02 6.721457441571141e-02 2.660281699673466e-02 -3.536417804640988e-01 -9.003368530200706e-02 -1.745658680002098e-01 3.997910873497512e-01
            6.727201034797882e-02 2.654380754899246e-02 5.936326177272709e-02 2.333828689893223e-02 -1.745778837427180e-01 3.997800631308076e-01 -3.535967459901376e-01 -9.002523601827002e-02
            -3.536324608871986e-01 -9.009938605478876e-02 -1.746026149862707e-01 3.997379146883960e-01 6.150689777453099e-02 2.762833873593677e-02 6.799996050573007e-02 2.103418396283396e-02
            -1.744840317924879e-01 3.998593134021194e-01 -3.535918652748232e-01 -9.013886345010907e-02 6.805161736644494e-02 2.103397508138952e-02 6.155657719064402e-02 2.754887422500814e-02
612055000.0000000000 8.034328165116265e-02 2.802813096512256e-02 8.846675544009396e-02 2.928311932033369e-02 -3.587188206703829e-01 3.873677279796606e-02 -2.116725395706403e-02 4.361198724468175e-01
            8.845963913299357e-02 2.930895767786552e-02 8.039636924725178e-02 2.804970859909166e-02 -2.110546027701820e-02 4.361685034107058e-01 -3.586515321941457e-01 3.866107764177188e-02
            -3.586329229109773e-01 3.871701107227973e-02 -2.114398573566829e-02 4.360219472052904e-01 8.284850856939729e-02 3.113904908493809e-02 8.796423516436644e-02 2.415711180479427e-02
            -2.120822457411212e-02 4.361378286145503e-01 -3.585651807751300e-01 3.872510895012404e-02 8.802536598477748e-02 2.422585607875440e-02 8.294906592428568e-02 3.110735332095643e-02
612887500.0000000000 9.841633077971948e-02 1.771435637855271e-02 1.055338835919106e-01 1.739002698418175e-02 -3.202010739513883e-01 1.594792449970443e-01 1.337107592213833e-01 4.154764336353686e-01
            1.054892390925748e-01 1.743576410884033e-02 9.845750196696741e-02 1.767828539468388e-02 1.336568936168939e-01 4.154506545299285e-01 -3.202016836302595e-01 1.595468520414210e-01
            -3.202350921083847e-01 1.595637255352317e-01 1.336605827206032e-01 4.153899646888380e-01 1.007793474095741e-01 1.949473139600174e-02 1.045314042918552e-01 1.319150141131861e-02
            1.337658451184318e-01 4.154188083262241e-01 -3.202354255563117e-01 1.594897814814231e-01 1.044456537664793e-01 1.315507807017121e-02 1.007749194192101e-01 1.961611181617522e-02
613720000.0000000000 1.046486940396019e-01 -1.681448599961113e-03 1.101400810553265e-01 -2.567951707213206e-03 -2.437214282258678e-01 2.598989914344026e-01 2.706311360081539e-01 3.427431631778925e-01
            1.101498777512367e-01 -2.656829607171917e-03 1.046683624824238e-01 -1.669194882723648e-03 2.706703173728386e-01 3.427570082068443e-01 -2.436886915136081e-01 2.598981343899496e-01
            -2.436909236728933e-01 2.598412361638185e-01 2.705356566130923e-01 3.427315042557352e-01 1.062930203529526e-01 -5.477671200330995e-04 1.090441473450252e-01 -5.858256785195536e-03
            2.706292739596942e-01 3.427978288147989e-01 -2.437043996411060e-01 2.598411247423603e-01 1.091193502455811e-01 -5.916721996077642e-03 1.063732223832355e-01 -5.522010410661185e-04
614552500.0000000000 9.609194354976194e-02 -2.003888494113264e-02 1.001482709261115e-01 -2.049916687142453e-02 -1.367146433518902e-01 3.283657373015432e-01 3.742500245656342e-01 2.281761709514022e-01
            1.001987033032425e-01 -2.061465194457244e-02 9.610989977734277e-02 -2.017271120973417e-02 3.741980286049867e-01 2.281448503656551e-01 -1.367257048700413e-01 3.283128593960274e-01
            -1.367793132220742e-01 3.282812513413548e-01 3.742281804558407e-01 2.281034419491152e-01 9.718283221691663e-02 -1.940781698009201e-02 9.938488004552500e-02 -2.316869133951387e-02
            3.741335576921884e-01 2.280684930106235e-01 -1.367300795420534e-01 3.283050797297631e-01 9.943144451961501e-02 -2.315639237156304e-02 9.718135383679266e-02 -1.932954276495064e-02
615385000.0000000000 7.687694433228306e-02 -2.793187430851794e-02 8.030546359297970e-02 -2.726956561895277e-02 -1.129572784272827e-02 3.546827745420270e-01 4.331080762570572e-01 8.391824366468258e-02
            8.027606592588762e-02 -2.719107914675785e-02 7.692424928460027e-02 -2.797750553512187e-02 4.331430484732283e-01 8.395065044078588e-02 -1.132353394270250e-02 3.547289416622732e-01
            -1.126388303125324e-02 3.546367677131226e-01 4.331949595628541e-01 8.397644612779880e-02 7.760693648433716e-02 -2.714353661212787e-02 8.017547074814643e-02 -2.958174306137657e-02
            4.331922369936514e-01 8.393867790583910e-02 -1.133024220909053e-02 3.547076302851220e-01 8.016673426183349e-02 -2.955328209287117e-02 7.768087231603486e-02 -2.718121595053581e-02
616217500.0000000000 5.681750311590473e-02 -2.025626168602370e-02 6.053917349943300e-02 -1.857217355383120e-02 1.155748710396882e-01 3.334401817399436e-01 4.387681509301681e-01 -7.427414422964915e-02
            6.050768313958473e-02 -1.862866231980452e-02 5.687360095391566e-02 -2.036235312097676e-02 4.387116805348447e-01 -7.423070592728555e-02 1.156184958280716e-01 3.334844165487996e-01
            1.156861075978765e-01 3.334010760710958e-01 4.387791361637728e-01 -7.423142878070726e-02 5.766133608631241e-02 -1.947920976385563e-02 6.112032624944617e-02 -2.104907916210562e-02
            4.388360066998593e-01 -7.420301441960001e-02 1.156753229637656e-01 3.334644873418374e-01 6.107194459277419e-02 -2.102541024331591e-02 5.776294009481116e-02 -1.949058236521613e-02
617050000.0000000000 4.695537549144862e-02 -4.159583711235580e-04 5.142413307783573e-02 1.790043394149100e-03 2.250798389145597e-01 2.674427197349400e-01 3.870055169062763e-01 -2.268098606535649e-01
            5.141294520069745e-02 1.699002303497763e-03 4.693238017676104e-02 -3.986572394030071e-04 3.869632955408287e-01 -2.267817412655637e-01 2.250713932350277e-01 2.673788044389089e-01
            2.250050130584774e-01 2.673801441915622e-01 3.870547709041777e-01 -2.267872813582275e-01 4.839589367165069e-02 1.374930720404336e-04 5.268487517522698e-02 -1.301813640401760e-03
            3.870429470659811e-01 -2.267315635994880e-01 2.250391520186968e-01 2.673985768817562e-01 5.272616421301263e-02 -1.281347738448713e-03 4.832226011064928e-02 8.954233989264223e-05
617882500.0000000000 5.295115709389537e-02 2.152277137232567e-02 5.830607744924841e-02 2.346365120017328e-02 3.012081145969717e-01 1.678126168754606e-01 2.820628467125855e-01 -3.515311521619411e-01
            5.843744128081153e-02 2.343906560007786e-02 5.305759785878897e-02 2.148322190930780e-02 2.821148207198830e-01 -3.515686460895168e-01 3.011399043092367e-01 1.679169415131004e-01
            3.012587562216062e-01 1.678784767581520e-01 2.820711157817496e-01 -3.515255942820352e-01 5.501578813760878e-02 2.114122330387259e-02 5.995344507181662e-02 1.934229315113154e-02
            2.820948529371548e-01 -3.515351428374550e-01 3.012511969381551e-01 1.679117401069760e-01 5.993281079443905e-02 1.934792276825229e-02 5.505210478285286e-02 2.121652510509986e-02
618715000.0000000000 7.230331237177311e-02 3.399136477883980e-02 7.803614684375954e-02 3.511417335473692e-02 3.362331424041798e-01 5.091386293361082e-02 1.386266505728694e-01 -4.294853847638146e-01
            7.804887393830437e-02 3.512822320757358e-02 7.232393984421726e-02 3.409942444618434e-02 1.385052775258219e-01 -4.294501343337472e-01 3.362335473947913e-01 5.100219834135657e-02
            3.362161625716159e-01 5.091235572187337e-02 1.386433007654762e-01 -4.294066153082629e-01 7.456013275582769e-02 3.214472963483843e-02 7.947322598868872e-02 2.963922416230992e-02
            1.385521403432270e-01 -4.295201334964072e-01 3.361657047440579e-01 5.097003808462253e-02 7.945170659065073e-02 2.973140990404198e-02 7.442916159372111e-02 3.220415558417906e-02
619547500.0000000000 9.499855016077938e-02 3.122169359125555e-02 1.003585884506465e-01 3.132448227132510e-02 3.293721662168977e-01 -6.796040680444987e-02 -2.221477301709378e-02 -4.501542711334715e-01
            1.003125890386123e-01 3.130960429994369e-02 9.501533635518883e-02 3.103441371406143e-02 -2.221253949614029e-02 -4.501345736560948e-01 3.294158644662483e-01 -6.807713270876155e-02
            3.294637509908332e-01 -6.803851706004742e-02 -2.223482835427331e-02 -4.502404272507907e-01 9.638474376586501e-02 2.738349182759860e-02 1.009326543939458e-01 2.445845555037894e-02
            -2.220761142203683e-02 -4.501679031574950e-01 3.294169932886086e-01 -6.807984703632382e-02 1.009495793786408e-01 2.449733564499802e-02 9.649106074094323e-02 2.742115768063936e-02
620380000.0000000000 1.103348279791738e-01 1.459104782341474e-02 1.148437113590462e-01 1.432807042199476e-02 2.836941167943079e-01 -1.766687532991423e-01 -1.781960109400298e-01 -4.133939115746809e-01
            1.148271819959193e-01 1.436193302687003e-02 1.103413042129794e-01 1.462825042435009e-02 -1.782318464270185e-01 -4.133539463036176e-01 2.836722575599365e-01 -1.765835511295381e-01
            2.837512840469701e-01 -1.766161280583931e-01 -1.781958473104694e-01 -4.133162285701267e-01 1.101777916575165e-01 9.289904131150802e-03 1.138418500435601e-01 6.399753131936942e-03
            -1.781539921149808e-01 -4.133805971397934e-01 2.837622001414201e-01 -1.766891813725819e-01 1.137900922912580e-01 6.373309406497669e-03 1.101678387931380e-01 9.195679253234206e-03
621212500.0000000000 1.116678504308446e-01 -7.422679767592964e-03 1.149844547138082e-01 -7.522942608093818e-03 2.040315295235727e-01 -2.637565203051812e-01 -3.110697113196427e-01 -3.258746997300777e-01
            1.149986350958238e-01 -7.495673437620345e-03 1.116739474913489e-01 -7.466992754259159e-03 -3.110422882122302e-01 -3.259251369728979e-01 2.039845189164372e-01 -2.637601188114429e-01
            2.040465646156837e-01 -2.637846796395694e-01 -3.111042773100247e-01 -3.259000952593815e-01 1.088696685383383e-01 -1.383909973443858e-02 1.118599129301891e-01 -1.591675342190850e-02
            -3.110797475935299e-01 -3.258941588540150e-01 2.039539544233303e-01 -2.636721971240663e-01 1.119194076159862e-01 -1.598566647140913e-02 1.089304045994598e-01 -1.379807060106130e-02
622045000.0000000000 9.866038978700163e-02 -2.483926200011849e-02 1.011435341550345e-01 -2.398081779672581e-02 9.794252953146305e-02 -3.184295335294031e-01 -4.066288093478906e-01 -1.985448381594969e-01
            1.012469252802683e-01 -2.401516430632896e-02 9.867564623775878e-02 -2.489566917831025e-02 -4.066382230761811e-01 -1.986101907509661e-01 9.793195055064433e-02 -3.185144282124047e-01
            9.790126375771754e-02 -3.184931539294325e-01 -4.066593198739430e-01 -1.985459286617152e-01 9.296517862893629e-02 -3.089798818656151e-02 9.582449763951235e-02 -3.218789203694585e-02
            -4.065852281316962e-01 -1.985265615224901e-01 9.793929493851275e-02 -3.184790538104637e-01 9.577611794438248e-02 -3.221998022206535e-02 9.290591624350789e-02 -3.084679209415362e-02
622877500.0000000000 7.775742906525772e-02 -2.941051412161538e-02 8.018876917106134e-02 -2.733519365133871e-02 -2.208346030526998e-02 -3.317089741380616e-01 -4.536871031937378e-01 -4.467617769801037e-02
            8.021135161853005e-02 -2.737369608833167e-02 7.772556956006832e-02 -2.927461770619396e-02 -4.536774343473460e-01 -4.459120715099362e-02 -2.209185160956299e-02 -3.316786346175329e-01
            -2.212577919066610e-02 -3.316628814639017e-01 -4.537076579058615e-01 -4.467410556388901e-02 6.950215177408067e-02 -3.369307565403540e-02 7.258089644847601e-02 -3.417974059445222e-02
            -4.536429771152439e-01 -4.459789781579350e-02 -2.213725711780385e-02 -3.317386664815442e-01 7.246304807991191e-02 -3.425704035228679e-02 6.943510661741223e-02 -3.370958866606263e-02
623710000.0000000000 5.951273621200483e-02 -1.877355433043707e-02 6.244996107295805e-02 -1.578397930049485e-02 -1.387403753420403e-01 -2.996695483703000e-01 -4.441825860594252e-01 1.189881289956680e-01
            6.248073242251608e-02 -1.582481062736227e-02 5.956186540802768e-02 -1.877767054632687e-02 -4.441710228579357e-01 1.188572816983325e-01 -1.388230965401166e-01 -2.996579583027028e-01
            -1.387271958239853e-01 -2.997202827312508e-01 -4.441415821817823e-01 1.188664198455097e-01 4.968787507907286e-02 -2.027583455102405e-02 5.318688918505857e-02 -2.033091344016203e-02
            -4.441534951346358e-01 1.189130382422871e-01 -1.388426707043823e-01 -2.997011748209970e-01 5.326727806991364e-02 -2.045341693253889e-02 4.978783650799970e-02 -2.023145962999983e-02
624542500.0000000000 5.365642297000156e-02 1.176149731688913e-03 5.739762642480573e-02 4.620076279382383e-03 -2.341849242037269e-01 -2.273999303894256e-01 -3.756340637121897e-01 2.707087357914757e-01
            5.749735372710767e-02 4.609283953726800e-03 5.374507792235425e-02 1.159367448682195e-03 -3.756877585020298e-01 2.706737476660479e-01 -2.340889528130823e-01 -2.274759475391043e-01
            -2.341539134900518e-01 -2.274073065868147e-01 -3.757109778450769e-01 2.706900810805960e-01 4.386772944212131e-02 2.821944025647725e-03 4.769419963698322e-02 2.684788958230333e-03
            -3.756627088886692e-01 2.707415980070680e-01 -2.341086981224759e-01 -2.274463141889559e-01 4.781026275655480e-02 2.768074755595938e-03 4.392516117924073e-02 2.829589886706604e-03
625375000.0000000000 6.318919309839482e-02 1.923977687118394e-02 6.766364408222343e-02 2.280924278667547e-02 -2.951359204729677e-01 -1.278795512340422e-01 -2.555700034300653e-01 3.883593733946400e-01
            6.765260218052740e-02 2.278172328001617e-02 6.310896425238037e-02 1.922975986510010e-02 -2.554584497033942e-01 3.882334657220631e-01 -2.951582658149609e-01 -1.278273381245341e-01
            -2.951444504305278e-01 -1.279164429299488e-01 -2.554739327462446e-01 3.882920504442242e-01 5.497714042902903e-02 2.359629548454854e-02 5.872531312923963e-02 2.334643195610018e-02
            -2.555786686081443e-01 3.882668378890776e-01 -2.951616603734683e-01 -1.278797328488803e-01 5.875217595862303e-02 2.333122960143014e-02 5.501126410519610e-02 2.349935561759901e-02
626207500.0000000000 8.236206837353006e-02 2.566562681281298e-02 8.723949067763291e-02 2.896006944575856e-02 -3.167119078733547e-01 -1.641832882210176e-02 -1.009332233176707e-01 4.539611206058007e-01
            8.723557912252028e-02 2.902314506790320e-02 8.232542776167411e-02 2.565529049543960e-02 -1.009754665619913e-01 4.539702174613349e-01 -3.167535594835930e-01 -1.638775126127399e-02
            -3.167099893644778e-01 -1.635926462952736e-02 -1.009169335597269e-01 4.539843117376528e-01 7.658072703478841e-02 3.135122517991830e-02 7.988489907063860e-02 3.121850381885578e-02
            -1.009985665314451e-01 4.539494862486763e-01 -3.168003411373629e-01 -1.635636948633208e-02 7.992920397891468e-02 3.114749129063248e-02 7.660953825350389e-02 3.141901079314798e-02
627040000.0000000000 1.005372975161933e-01 1.728457230678936e-02 1.057625218088795e-01 2.057523935645447e-02 -2.996924754170454e-01 9.351186562900742e-02 6.549093432352891e-02 4.598084526491620e-01
            1.056960674900337e-01 2.058424948566551e-02 1.006373347536951e-01 1.727721150195394e-02 6.543450729770407e-02 4.598780597389688e-01 -2.996799750532836e-01 9.345114302677024e-02
            -2.996505264909329e-01 9.358074784430882e-02 6.546682860237071e-02 4.598270321731043e-01 9.745235981915688e-02 2.276655801617955e-02 1.000660624196550e-01 2.331097634164593e-02
            6.545597394207521e-02 4.598799724447296e-01 -2.996439983765981e-01 9.356011797217570e-02 1.000825571710894e-01 2.335058686342601e-02 9.748250679456864e-02 2.290747029251297e-02
627872500.0000000000 1.085495751285503e-01 -1.383962303966439e-03 1.138642924627055e-01 2.323277854233912e-03 -2.471522241931988e-01 1.905876427289155e-01 2.219969424837234e-01 4.078064180206317e-01
            1.139387765994159e-01 2.273881994126432e-03 1.085891007340879e-01 -1.355250901154168e-03 2.219456007230268e-01 4.077799057041559e-01 -2.471809030693471e-01 1.905374211231559e-01
            -2.471442416249579e-01 1.905905586594654e-01 2.219196854951767e-01 4.078302804654603e-01 1.073222511785774e-01 2.906154557251495e-03 1.096078220619704e-01 4.779815951043940e-03
            2.219859456254628e-01 4.078465285792415e-01 -2.471426998148330e-01 1.906247095539861e-01 1.096136458975779e-01 4.788158727420107e-03 1.073226341221666e-01 2.931358250144582e-03
628705000.0000000000 1.020059892813807e-01 -2.096807521967411e-02 1.079331628434387e-01 -1.678055460605235e-02 -1.642990262318673e-01 2.643647015857276e-01 3.507883869860629e-01 3.058126016274646e-01
            1.079189369019023e-01 -1.674845845130402e-02 1.020046331693682e-01 -2.108219526126912e-02 3.507798838068036e-01 3.058538286506003e-01 -1.643566683510659e-01 2.645078256427909e-01
            -1.643853544920954e-01 2.644605680561183e-01 3.506816413612441e-01 3.057812705850926e-01 1.015241055692846e-01 -1.852322272671458e-02 1.043253100599181e-01 -1.498224182833417e-02
            3.507373531818846e-01 3.057921017292994e-01 -1.643785506205642e-01 2.644018390224589e-01 1.043131519674311e-01 -1.497022756432094e-02 1.015042148184050e-01 -1.851475926089603e-02
629537500.0000000000 8.356341958276453e-02 -3.185468536285332e-02 9.081343347285555e-02 -2.705480301829970e-02 -5.972100779484288e-02 3.049326298650431e-01 4.376313369341726e-01 1.654565823903179e-01
            9.077229303676551e-02 -2.706497036046386e-02 8.353213859345200e-02 -3.184682349094288e-02 4.375959387835948e-01 1.654768718967759e-01 -5.972725753373473e-02 3.049214662914575e-01
            -5.972580429357283e-02 3.048596874691378e-01 4.376882069584145e-01 1.654875409678777e-01 8.282641418880118e-02 -3.094937457467705e-02 8.704122039898568e-02 -2.579669234550071e-02
            4.375965935984433e-01 1.655146267035027e-01 -5.973915510639012e-02 3.048894799299766e-01 8.716499209669691e-02 -2.584154885603712e-02 8.275821525499179e-02 -3.088594022311639e-02
630370000.0000000000 6.199310499193116e-02 -2.761619574288909e-02 7.105900363763115e-02 -2.301891854358751e-02 5.319776419219144e-02 3.043321597964116e-01 4.713884036382971e-01 1.564674759859263e-03
            7.107913737054396e-02 -2.297106465383858e-02 6.199146310010297e-02 -2.764849817938110e-02 4.713741763733213e-01 1.609384510739032e-03 5.317151171946567e-02 3.044155526933454e-01
            5.328574165409691e-02 3.043530707874879e-01 4.713203616084866e-01 1.586921744167310e-03 6.018158391330471e-02 -2.786981271087235e-02 6.674625641238707e-02 -2.194417485337934e-02
            4.713464505710188e-01 1.576616019370718e-03 5.324272512959319e-02 3.044224710340388e-01 6.673956583029440e-02 -2.194460590011188e-02 6.006556105429755e-02 -2.780206420325532e-02
631202500.0000000000 4.818947620232808e-02 -9.763376499692141e-03 5.920387633940203e-02 -6.294134036120126e-03 1.574206439337900e-01 2.622221192671079e-01 4.446386266381753e-01 -1.664815504335149e-01
            5.927699790580949e-02 -6.269738276222497e-03 4.817873262274652e-02 -9.773089100780459e-03 4.447311251268342e-01 -1.664139301016223e-01 1.574367639511999e-01 2.621872241067481e-01
            1.574372329338457e-01 2.621910617668257e-01 4.446199421188576e-01 -1.664293332396814e-01 4.518490736598845e-02 -9.894948942842425e-03 5.447088962726880e-02 -4.711467772637452e-03
            4.447553611839575e-01 -1.664871711179664e-01 1.573867729020917e-01 2.621569251615427e-01 5.447495527724596e-02 -4.654536152030338e-03 4.513409360044034e-02 -9.967342796149841e-03
632035000.0000000000 4.968212816236817e-02 1.294207344105958e-02 6.227448252195910e-02 1.420029919528462e-02 2.369711891373352e-01 1.859935019767208e-01 3.579781328367546e-01 -3.152997568650978e-01
            6.230473612716901e-02 1.422380866668300e-02 4.962656004725305e-02 1.293453178011923e-02 3.580780022402147e-01 -3.154074494075451e-01 2.369532077663080e-01 1.861086826023168e-01
            2.369958976672415e-01 1.859470981630840e-01 3.579175320407427e-01 -3.152734900430986e-01 4.602925952837333e-02 1.350616993141363e-02 5.742406054102640e-02 1.673298697821463e-02
            3.580465008301687e-01 -3.153154910820012e-01 2.369357683542416e-01 1.859834966881478e-01 5.745422189146234e-02 1.677749279960988e-02 4.594974226623888e-02 1.346374242776067e-02
632867500.0000000000 6.569021620362897e-02 2.902206872206936e-02 7.878259147421497e-02 2.725980960744915e-02 2.825025088652461e-01 8.933617044144343e-02 2.225785937111615e-01 -4.227412380247280e-01
            7.872829401130695e-02 2.728349926257106e-02 6.578867016813790e-02 2.889611423424489e-02 2.225883664563568e-01 -4.226862998454275e-01 2.825983518486375e-01 8.932990833742367e-02
            2.825188030634950e-01 8.933130852790340e-02 2.225804526481694e-01 -4.227327072216367e-01 6.207348025957587e-02 3.032321696574372e-02 7.445712754651079e-02 3.076297848581293e-02
            2.225750299337962e-01 -4.227467903331593e-01 2.825200002026840e-01 8.930014181066949e-02 7.439428384809386e-02 3.073573146615632e-02 6.215213069866301e-02 3.033687856794045e-02
633700000.0000000000 8.782134321547964e-02 3.032377479447066e-02 1.000907648802808e-01 2.589507938225066e-02 2.918299585383450e-01 -1.412523622311506e-02 5.851732118057341e-02 -4.735323167000433e-01
            9.999072598458925e-02 2.585339160212152e-02 8.784484693539038e-02 3.036058710512074e-02 5.853770828058857e-02 -4.735818544092984e-01 2.919534949440450e-01 -1.413725866572784e-02
            2.919053675120002e-01 -1.407874477441536e-02 5.857977043984409e-02 -4.735203188180650e-01 8.497346168507972e-02 3.232123690257224e-02 9.677885258378277e-02 2.968291285734236e-02
            5.849957641404142e-02 -4.735080591799270e-01 2.919644885722465e-01 -1.413224747206738e-02 9.669503641071356e-02 2.966579212736301e-02 8.499398149202464e-02 3.230756343614729e-02
634532500.0000000000 1.050642902275639e-01 1.746678232187401e-02 1.153802129240951e-01 1.053786178493956e-02 2.666629312184516e-01 -1.130718482455954e-01 -1.111158232345243e-01 -4.631601510296348e-01
            1.154068349389251e-01 1.054796784802241e-02 1.050947715718663e-01 1.741133666035318e-02 -1.111045871822347e-01 -4.631944120677109e-01 2.666857548510057e-01 -1.130558442042188e-01
            2.666393584344909e-01 -1.130770893539914e-01 -1.110844604490574e-01 -4.631886732449257e-01 1.032850911898048e-01 1.923358236617449e-02 1.128359565557477e-01 1.418011451758873e-02
            -1.111177973862612e-01 -4.631486547923033e-01 2.667208596612099e-01 -1.130502862447321e-01 1.127949794711050e-01 1.413322290913622e-02 1.032263448412380e-01 1.922178083659552e-02
635365000.0000000000 1.095242563885329e-01 -3.177949121121112e-03 1.172510994888372e-01 -1.126589910720130e-02 2.099821519024342e-01 -1.979139635920825e-01 -2.654090270317012e-01 -3.955539852771108e-01
            1.172587071619045e-01 -1.128556862172108e-02 1.095452350575302e-01 -3.202341984935766e-03 -2.654248819411265e-01 -3.955155805003710e-01 2.099300880143242e-01 -1.978549707747242e-01
            2.100042100358205e-01 -1.979002315674974e-01 -2.654671055383318e-01 -3.954564557572761e-01 1.086155455160300e-01 -2.201924048948025e-03 1.149971336660500e-01 -8.181857144852820e-03
            -2.654456187523758e-01 -3.954428500154599e-01 2.100267065233914e-01 -1.978916175860493e-01 1.150052513097352e-01 -8.253215966931725e-03 1.086166348659024e-01 -2.127265476259531e-03
636197500.0000000000 9.941302735593253e-02 -2.122183264711570e-02 1.046442666323506e-01 -2.962505746776791e-02 1.267262628050694e-01 -2.587525086792842e-01 -3.875156930601528e-01 -2.794689196641094e-01
            1.046533941923885e-01 -2.960574256427093e-02 9.936754183060514e-02 -2.126439738769614e-02 -3.875069045454169e-01 -2.794652540011124e-01 1.266725779847136e-01 -2.587289693565219e-01
            1.266652797158200e-01 -2.587408039301484e-01 -3.875091833745126e-01 -2.796000738648582e-01 9.888477052710934e-02 -2.156911158081219e-02 1.021327475644317e-01 -2.696676319641809e-02
            -3.875217314338752e-01 -2.796034578392708e-01 1.267234525054829e-01 -2.586846068585194e-01 1.021935139106067e-01 -2.701626864642722e-02 9.891977018889259e-02 -2.165951305981374e-02
637030000.0000000000 7.971836044335055e-02 -2.793302616694873e-02 8.300718742480033e-02 -3.574044552674315e-02 2.586796310990227e-02 -2.861021979943792e-01 -4.634779125324391e-01 -1.277367312337910e-01
            8.303116922731588e-02 -3.578056651505273e-02 7.975951045167234e-02 -2.798701766302058e-02 -4.635083086357600e-01 -1.277041248183991e-01 2.591857633212626e-02 -2.861741413975853e-01
            2.583782909298653e-02 -2.861641859651777e-01 -4.635494827130759e-01 -1.277741190298896e-01 7.901057123881965e-02 -2.984869673679933e-02 7.986149106255030e-02 -3.290948378169697e-02
            -4.634851671586288e-01 -1.276576193025735e-01 2.595467726718792e-02 -2.861305669587203e-01 7.981785269814483e-02 -3.300105296863523e-02 7.898852409025157e-02 -2.984901866301335e-02
637862500.0000000000 6.049789050761006e-02 -1.939770616279170e-02 6.249558810824528e-02 -2.648368353903760e-02 -7.823875466961046e-02 -2.741817874729180e-01 -4.824373580059893e-01 4.368528689927094e-02
            6.249337812905159e-02 -2.653342397825510e-02 6.045669649313362e-02 -1.938508515851291e-02 -4.824079991708309e-01 4.363551992031996e-02 -7.829783052325856e-02 -2.741676302029039e-01
            -7.823574675489993e-02 -2.742126948639616e-01 -4.824564242934313e-01 4.368691181271482e-02 5.890878155566275e-02 -2.259730139605558e-02 5.864631889198522e-02 -2.267547147266342e-02
            -4.824198669119961e-01 4.380248876925395e-02 -7.821600825594723e-02 -2.742218336060109e-01 5.867324382492200e-02 -2.274810429044550e-02 5.894344106786138e-02 -2.260198918775308e-02
638695000.0000000000 5.228224405502929e-02 3.616345327707333e-04 5.315176536844071e-02 -6.257150202710941e-03 -1.693409512368889e-01 -2.247885942114801e-01 -4.383413710838932e-01 2.132313109766343e-01
            5.318915948571536e-02 -6.233704472287396e-03 5.225356407735136e-02 4.368978723426804e-04 -4.384311747054374e-01 2.132399735456326e-01 -1.694113876075307e-01 -2.247592881691158e-01
            -1.694210478395510e-01 -2.247705894720948e-01 -4.383339598025270e-01 2.133046721226080e-01 4.936286913522952e-02 -3.702822659188857e-03 4.955118270102744e-02 -6.844037682054716e-04
            -4.383879615074216e-01 2.131890859316597e-01 -1.694276297879320e-01 -2.247688797092176e-01 4.948644328914348e-02 -7.230403254192450e-04 4.934794426487472e-02 -3.821700685043044e-03
639527500.0000000000 5.986704084877509e-02 2.089735751319106e-02 5.977248254396967e-02 1.444265564305674e-02 -2.341891016317849e-01 -1.472555784865430e-01 -3.348394464419493e-01 3.565307031220913e-01
            5.969955091731517e-02 1.445648396235477e-02 5.974731907566491e-02 2.093406786382617e-02 -3.348553544270425e-01 3.565830995760544e-01 -2.341143657048308e-01 -1.472149876125299e-01
            -2.341852253023623e-01 -1.471903301520587e-01 -3.349390360921073e-01 3.565898600658202e-01 5.551566179030725e-02 1.620723279977097e-02 5.735048901646483e-02 2.162651007145255e-02
            -3.349275457447375e-01 3.565578562739935e-01 -2.342094455729320e-01 -1.472245826889021e-01 5.734315053571152e-02 2.165233977329660e-02 5.549438540011931e-02 1.621034963205196e-02
640360000.0000000000 7.937707493898358e-02 3.102276737026544e-02 7.777006240314600e-02 2.496422070009088e-02 -2.662931937705736e-01 -5.490079290833400e-02 -1.863287550538429e-01 4.523991759462749e-01
            7.782569293262404e-02 2.500111656017967e-02 7.939971016001540e-02 3.098248043276263e-02 -1.863486270639746e-01 4.523806388193621e-01 -2.662843171880122e-01 -5.493496748558386e-02
            -2.662704802308247e-01 -5.491069358326883e-02 -1.863328385072381e-01 4.523349957929733e-01 7.349001696529295e-02 2.622177610653566e-02 7.778656236611418e-02 3.299878834109402e-02
            -1.863892092613600e-01 4.523782366305864e-01 -2.662978885029544e-01 -5.496302484220814e-02 7.789784929719111e-02 3.305700548418219e-02 7.346295979799106e-02 2.617557686467492e-02
641192500.0000000000 1.007409719138226e-01 2.576607075070756e-02 9.756748706542787e-02 2.066305855487246e-02 -2.652494134433829e-01 4.022085239078001e-02 -1.478487434901371e-02 4.882481923826914e-01
            9.757232271816947e-02 2.065121741606825e-02 1.007822850712305e-01 2.581800160386031e-02 -1.478130558170187e-02 4.881506265394947e-01 -2.652168085717410e-01 4.013149423692534e-02
            -2.651898065359439e-01 4.008036351827874e-02 -1.476433300519848e-02 4.881748895634451e-01 9.337709731503800e-02 2.116357986301980e-02 1.002543261918384e-01 2.815664380693018e-02
            -1.480073274925785e-02 4.882243625795396e-01 -2.652620045671899e-01 4.011277712333033e-02 1.002013521306382e-01 2.816493408121110e-02 9.338405581235179e-02 2.119469125148588e-02
642025000.0000000000 1.137918252325207e-01 8.075780474742941e-03 1.089261673682243e-01 4.564475431582381e-03 -2.332449785464812e-01 1.283857972077307e-01 1.568239664999091e-01 4.618718243102615e-01
            1.088982472243306e-01 4.602515428290156e-03 1.138106088093055e-01 8.027550964475822e-03 1.567480253826396e-01 4.619659661688516e-01 -2.331967020098158e-01 1.283820153697433e-01
            -2.332276762510309e-01 1.284777346523227e-01 1.567712057963745e-01 4.620044554893234e-01 1.046798054111711e-01 3.853244835753488e-03 1.138672464822555e-01 1.016969682326656e-02
            1.567824352203378e-01 4.619362457324316e-01 -2.332110390406573e-01 1.284143800013396e-01 1.137914345456736e-01 1.020084574091935e-02 1.047107172759602e-01 3.804822025512923e-03
642857500.0000000000 1.123876565862086e-01 -1.380747986276791e-02 1.064920332685931e-01 -1.470521846025334e-02 -1.731116043324271e-01 2.011059188757942e-01 3.080190817489508e-01 3.789542664604056e-01
            1.065411603188926e-01 -1.468479259147820e-02 1.124552189783362e-01 -1.375496469783881e-02 3.079737591115648e-01 3.788569956833763e-01 -1.730720628007222e-01 2.010854060747637e-01
            -1.730474845453945e-01 2.010727387564203e-01 3.080220877168691e-01 3.789159571402942e-01 1.017720454646561e-01 -1.693840706763650e-02 1.123581186033925e-01 -1.184259622513306e-02
            3.079987688880030e-01 3.789611428710260e-01 -1.730563929672256e-01 2.011261494858217e-01 1.123662815982984e-01 -1.195467131043365e-02 1.017064855922844e-01 -1.698105002306495e-02
643690000.0000000000 9.740823366950441e-02 -2.954203827054360e-02 9.165035236069140e-02 -2.750284070686378e-02 -9.037577601272986e-02 2.488359039193713e-01 4.223166065878661e-01 2.490628549879164e-01
            9.168077476894146e-02 -2.753112377552530e-02 9.737922743937040e-02 -2.961334950813407e-02 4.223603220049931e-01 2.490605575507034e-01 -9.035131145659933e-02 2.487660538297399e-01
            -9.035466914529321e-02 2.487524173666995e-01 4.222978438308087e-01 2.490628679487469e-01 8.525538583432068e-02 -3.121786855344341e-02 9.677053816214860e-02 -2.763589264778315e-02
            4.223508756561155e-01 2.490641347835942e-01 -9.028193170093862e-02 2.487306521306832e-01 9.683604091470782e-02 -2.763253846134095e-02 8.531594269021546e-02 -3.123948515412159e-02
644522500.0000000000 7.591345992738700e-02 -3.174274414198629e-02 7.178428140411683e-02 -2.700436848430076e-02 5.059505359723353e-03 2.632117729705988e-01 4.858905528644610e-01 8.615551928466057e-02
            7.179756718816913e-02 -2.702911802951227e-02 7.589806810368854e-02 -3.175451893097551e-02 4.858758590185379e-01 8.613650371524645e-02 5.055379999347562e-03 2.632450849540677e-01
            5.001432475047379e-03 2.631998060420507e-01 4.859638389672928e-01 8.617178125887698e-02 6.269947308693721e-02 -3.127327209092973e-02 7.461794288015650e-02 -2.907060098138452e-02
            4.858475599778136e-01 8.614541208948664e-02 5.046837280510240e-03 2.632039371071545e-01 7.466083874126389e-02 -2.910953897848024e-02 6.282834386880830e-02 -3.127298060434829e-02
645355000.0000000000 5.861418878086423e-02 -1.919662234979422e-02 5.716664424037309e-02 -1.283388792590240e-02 9.858778460451693e-02 2.409977678826864e-01 4.883605432834816e-01 -9.148377357341184e-02
            5.721203934571906e-02 -1.289673863161000e-02 5.859194675127229e-02 -1.912808230748121e-02 4.883444759110482e-01 -9.140969620884937e-02 9.861522816147011e-02 2.409465884353993e-01
            9.862371421862590e-02 2.409993071139110e-01 4.882683799549487e-01 -9.151137759943546e-02 4.533939353397018e-02 -1.616091114728910e-02 5.733832259703608e-02 -1.527541006570469e-02
            4.882786699437978e-01 -9.146994478674242e-02 9.866584119761029e-02 2.410094075293550e-01 5.730657795862060e-02 -1.533117412761981e-02 4.525913237579998e-02 -1.621138351357645e-02
646187500.0000000000 5.451798684003070e-02 1.467822801316794e-03 5.616310760846245e-02 7.866330556717037e-03 1.755951343375191e-01 1.863316096414908e-01 4.260035432991464e-01 -2.601142212645688e-01
            5.608199848367829e-02 7.879231746236236e-03 5.449623810972083e-02 1.429041153622902e-03 4.260127054578087e-01 -2.601638045236661e-01 1.755869379005696e-01 1.863491780431691e-01
            1.756555327450559e-01 1.863984954854407e-01 4.259940664136931e-01 -2.602066212069368e-01 4.197183482081959e-02 7.002765997203963e-03 5.381722905643555e-02 6.704137503153420e-03
            4.260092391708431e-01 -2.602029707141280e-01 1.756635671559282e-01 1.862875231231354e-01 5.385543198996924e-02 6.673344099022929e-03 4.196111274467609e-02 6.980506064904587e-03
647020000.0000000000 6.546048555641046e-02 1.894953161309983e-02 6.960562115724991e-02 2.373903407042507e-02 2.257418834660003e-01 1.101152140434172e-01 3.060286985496423e-01 -3.953344203108277e-01
            6.958062687684359e-02 2.386810273921547e-02 6.542770492172771e-02 1.896775458669541e-02 3.059340236024379e-01 -3.954124194950496e-01 2.257705948932583e-01 1.101127636404797e-01
            2.257947474462310e-01 1.099771515476095e-01 3.060400562502392e-01 -3.953572594861892e-01 5.464576749763324e-02 2.642817953588286e-02 6.615764297854633e-02 2.509508747023932e-02
            3.060643999558502e-01 -3.953938932471512e-01 2.257765991872971e-01 1.099990890487153e-01 6.616134015457481e-02 2.511797635329275e-02 5.465203141669431e-02 2.647945920762313e-02
647852500.0000000000 8.501202391795756e-02 2.409044773768699e-02 9.021266914537975e-02 2.648222684985304e-02 2.456017235588795e-01 2.412691458372783e-02 1.459455224484870e-01 -4.775458072490005e-01
            9.018688817797417e-02 2.649385454285683e-02 8.495940991964396e-02 2.418285140733030e-02 1.459988735682573e-01 -4.777061807889051e-01 2.456309416561588e-01 2.408244171547189e-02
            2.455947825437166e-01 2.412291669941323e-02 1.459849907191568e-01 -4.776072708834629e-01 7.647046199855713e-02 3.265935357936294e-02 8.734858162052810e-02 3.023084956084095e-02
            1.459907919572745e-01 -4.777032217278310e-01 2.457032317951900e-01 2.411433727393712e-02 8.735784915843865e-02 3.034007151538825e-02 7.649599269368637e-02 3.267263049321936e-02
648685000.0000000000 1.026817683134282e-01 1.485742641042228e-02 1.073977682178147e-01 1.467896594405079e-02 2.359951095878983e-01 -6.143770794260688e-02 -3.111892345304934e-02 -4.975576950006391e-01
            1.073789734077804e-01 1.474960788253955e-02 1.027516442910378e-01 1.484939187153141e-02 -3.116230692590175e-02 -4.975268234757402e-01 2.358754759405554e-01 -6.147288967519094e-02
            2.359448885335999e-01 -6.150702288920980e-02 -3.112029378391413e-02 -4.975188233830253e-01 9.640086843925021e-02 2.333940325811268e-02 1.064251893195909e-01 2.022273221981161e-02
            -3.110275316391167e-02 -4.975155986099972e-01 2.358894586441456e-01 -6.146338483942761e-02 1.064952889196965e-01 2.022265540000424e-02 9.636001422888407e-02 2.332764568259683e-02
649517500.0000000000 1.095281876491352e-01 -3.783126459455347e-03 1.126314263630169e-01 -5.541751611723883e-03 1.986419105889920e-01 -1.386206842483148e-01 -2.026696981055483e-01 -4.550665454855695e-01
            1.126022721494655e-01 -5.502022218084993e-03 1.095229875124813e-01 -3.738751290954793e-03 -2.026708016549516e-01 -4.550536779039756e-01 1.986889929163237e-01 -1.385419736752915e-01
            1.986944395897697e-01 -1.385967190538274e-01 -2.026496106587780e-01 -4.550521730750487e-01 1.050182150861054e-01 3.893330844097083e-03 1.140597313068449e-01 1.659977445280409e-04
            -2.026988017986483e-01 -4.550893951220360e-01 1.986644960462874e-01 -1.385971454866999e-01 1.140903015144834e-01 9.478422306917682e-05 1.050653460754130e-01 3.964360731429953e-03
650350000.0000000000 1.023328477184562e-01 -2.244141107840965e-02 1.031781623238068e-01 -2.463332319476534e-02 1.367882832817199e-01 -1.989540559437268e-01 -3.489913119025826e-01 -3.569107167246641e-01
            1.031418685636504e-01 -2.456067064581577e-02 1.023803070335964e-01 -2.237139613623295e-02 -3.491176794623306e-01 -3.568515733815853e-01 1.367707774521262e-01 -1.990308078830562e-01
            1.368183253675638e-01 -1.990031981065776e-01 -3.490137123573697e-01 -3.568905138776678e-01 9.885180825978379e-02 -1.584207817953218e-02 1.067072431984492e-01 -1.984244829583336e-02
            -3.490733266231738e-01 -3.569025154630253e-01 1.367719207666726e-01 -1.989533659662272e-01 1.066989790842235e-01 -1.987619160610048e-02 9.883533814276957e-02 -1.586844372776215e-02
651182500.0000000000 8.420170315874961e-02 -3.177080477434203e-02 8.314157815230235e-02 -3.305973914122778e-02 5.642105782404195e-02 -2.338424567105966e-01 -4.538106211723969e-01 -2.137786552543512e-01
            8.317076909352056e-02 -3.306497079664888e-02 8.416890341259443e-02 -3.171090977495063e-02 -4.539100933039843e-01 -2.138147436652504e-01 5.637288857266384e-02 -2.338787960813540e-01
            5.647178385918611e-02 -2.338074648268124e-01 -4.538768390130788e-01 -2.137646357812495e-01 8.110429916898418e-02 -2.634606176195933e-02 8.785060111577470e-02 -3.021727529024760e-02
            -4.537621887903097e-01 -2.138354676620227e-01 5.643730387682371e-02 -2.338784126303201e-01 8.780991340158938e-02 -3.029386653846050e-02 8.108494338334607e-02 -2.637806548986058e-02
652015000.0000000000 6.408465549624311e-02 -2.651183170157450e-02 6.203791400380479e-02 -2.624078126032594e-02 -3.156042266170878e-02 -2.363760464674873e-01 -5.031568645390633e-01 -4.099893618610864e-02
            6.203985144946663e-02 -2.624419859668706e-02 6.408786170266584e-02 -2.653518719446741e-02 -5.032502100902706e-01 -4.106663949290529e-02 -3.155255822006281e-02 -2.363552103617216e-01
            -3.156837014133018e-02 -2.363890886104195e-01 -5.032047224590593e-01 -4.106334405425054e-02 6.092414535542298e-02 -2.201335851108263e-02 6.671944723406203e-02 -2.539236518342233e-02
            -5.033156479862376e-01 -4.101970371710867e-02 -3.159708972544865e-02 -2.363271398345581e-01 6.675993941096352e-02 -2.543514626370485e-02 6.101409462274321e-02 -2.194473646785047e-02
652847500.0000000000 5.254779658012099e-02 -8.818851174363868e-03 5.058869123980270e-02 -6.912417574239262e-03 -1.131375682524420e-01 -2.057217475406990e-01 -4.879292920128976e-01 1.406241385539965e-01
            5.057958397587707e-02 -6.880677396380253e-03 5.261423372274716e-02 -8.728371950295728e-03 -4.879416792356142e-01 1.405750107541066e-01 -1.131349664446906e-01 -2.057631318750293e-01
            -1.132528511844279e-01 -2.057883570235191e-01 -4.878878793434748e-01 1.405594655474228e-01 4.923928479889232e-02 -4.649424081538752e-03 5.419657461568416e-02 -7.455811958579790e-03
            -4.878858986214265e-01 1.405701053150039e-01 -1.131714188225646e-01 -2.057497722093912e-01 5.432042557860649e-02 -7.485350867834912e-03 4.923845853330338e-02 -4.609188879235721e-03
653680000.0000000000 5.611478527427235e-02 1.232400837063994e-02 5.482586927849226e-02 1.525952006813068e-02 -1.756420576827415e-01 -1.486322810136059e-01 -4.071914306028563e-01 3.058068962196898e-01
            5.476568120009674e-02 1.523162597108669e-02 5.597790667201540e-02 1.226546800075895e-02 -4.071816323677420e-01 3.058052284158764e-01 -1.757044738209180e-01 -1.486012358072238e-01
            -1.757527322190359e-01 -1.485936407204694e-01 -4.071397496463519e-01 3.058472254708224e-01 5.276444188787369e-02 1.618100095104789e-02 5.721595007906267e-02 1.416332088042182e-02
            -4.071624511166627e-01 3.058103508468460e-01 -1.756592998222239e-01 -1.486294557252942e-01 5.719236697646843e-02 1.411833488505793e-02 5.282316726451516e-02 1.609950579164316e-02
654512500.0000000000 7.281382163427336e-02 2.568027642795442e-02 7.247922816298683e-02 2.885401348071814e-02 -2.120980422331228e-01 -7.585662303390478e-02 -2.719768425237412e-01 4.304343163653367e-01
            7.248685406838434e-02 2.887362600019114e-02 7.283354804246320e-02 2.556560257716716e-02 -2.718660275488678e-01 4.304504788993773e-01 -2.120928226591230e-01 -7.579172591758712e-02
            -2.120534963372433e-01 -7.579406349254143e-02 -2.719579946305756e-01 4.305333492897340e-01 6.970598055249118e-02 2.909715134186931e-02 7.386506452767566e-02 2.788766795533759e-02
            -2.718966658870721e-01 4.305394867920845e-01 -2.120486255185142e-01 -7.583350382653309e-02 7.386882680086559e-02 2.789077290868841e-02 6.971852283062864e-02 2.909712201990882e-02
655345000.0000000000 9.409275488853376e-02 2.441227021808003e-02 9.420707571171878e-02 2.738019478991633e-02 -2.213864466218995e-01 2.262558078610750e-03 -1.022586936972076e-01 4.977277733753819e-01
            9.421658495812815e-02 2.739381790447101e-02 9.401947395762091e-02 2.437362766390588e-02 -1.022406338126521e-01 4.977071689356219e-01 -2.213396895551407e-01 2.186467530202096e-03
            -2.213166499255747e-01 2.281614868456338e-03 -1.022349724033731e-01 4.976942822256806e-01 9.110559255749472e-02 2.729262707431400e-02 9.514473980009859e-02 2.694301673057743e-02
            -1.023002785533502e-01 4.977142092543274e-01 -2.212651160712148e-01 2.286418347589559e-03 9.527594006888418e-02 2.703422301043061e-02 9.114411393773350e-02 2.731963394132532e-02
656177500.0000000000 1.091754321660512e-01 9.762404346412830e-03 1.092673593746050e-01 1.232534409148760e-02 -2.047782629290281e-01 7.764993410599937e-02 7.838264772087641e-02 5.010483899946709e-01
            1.092735492817372e-01 1.230209361522537e-02 1.090767457974757e-01 9.664348416417763e-03 7.832390352742524e-02 5.010623015785139e-01 -2.047740011380816e-01 7.757800522925884e-02
            -2.047748643132793e-01 7.763487029796626e-02 7.839190937810886e-02 5.009562620938293e-01 1.060733654731509e-01 1.168895131617939e-02 1.102754727538980e-01 1.222264812714337e-02
            7.823467021335509e-02 5.009692228546355e-01 -2.047704786988158e-01 7.759743240913992e-02 1.103037423282753e-01 1.227150743179939e-02 1.061588601578055e-01 1.177699443782108e-02
657010000.0000000000 1.110492917894747e-01 -1.121456851734614e-02 1.108125607351545e-01 -8.533987313191247e-03 -1.640993373901241e-01 1.433283557583837e-01 2.478859342074329e-01 4.424225607988752e-01
            1.107724828442666e-01 -8.634642101901487e-03 1.110780999413273e-01 -1.113554634883147e-02 2.479600430037723e-01 4.424233311681649e-01 -1.641795244156031e-01 1.433666139450017e-01
            -1.641282626229235e-01 1.433247892415797e-01 2.479433202762722e-01 4.424474407724296e-01 1.075868097775803e-01 -1.001000265385578e-02 1.120493691351840e-01 -8.793146187912583e-03
            2.479112148406547e-01 4.424819641320565e-01 -1.640650198634327e-01 1.433214857722675e-01 1.120331884561670e-01 -8.780179788854868e-03 1.075362148600491e-01 -9.899235706978036e-03
657842500.0000000000 9.899986370589842e-02 -2.833628279028610e-02 9.833761439214184e-02 -2.515667117182288e-02 -1.022845330791781e-01 1.916579054884185e-01 3.875831466347338e-01 3.295765461636681e-01
            9.829695679837103e-02 -2.520308918701908e-02 9.890603707613498e-02 -2.820762541010698e-02 3.875271123405019e-01 3.295196236207243e-01 -1.023241425961285e-01 1.916340488254192e-01
            -1.024038437564148e-01 1.916414894378893e-01 3.874807938230211e-01 3.294490986504832e-01 9.459727399376924e-02 -2.758562702129224e-02 9.950638633288687e-02 -2.577986944318175e-02
            3.875507006888511e-01 3.295174341587384e-01 -1.023064003191431e-01 1.915642116932481e-01 9.951410004331872e-02 -2.583368729211816e-02 9.459994028742685e-02 -2.756379831188266e-02
658675000.0000000000 7.852659359155835e-02 -3.342378948121949e-02 7.783248030334983e-02 -2.936431060509141e-02 -2.630255746869540e-02 2.143338445269383e-01 4.808455186253521e-01 1.742546504889588e-01
            7.784371978329321e-02 -2.932934952206960e-02 7.854093442259584e-02 -3.342911801460997e-02 4.808653342103659e-01 1.742043139431936e-01 -2.627143911713991e-02 2.144267661877307e-01
            -2.621998624794200e-02 2.143529180388852e-01 4.808332238114556e-01 1.742551981616089e-01 7.293501890771203e-02 -3.265857448084458e-02 7.863423420679931e-02 -3.047804220562709e-02
            4.808830451620696e-01 1.741776850796421e-01 -2.631204182920806e-02 2.143753173359472e-01 7.854195645254709e-02 -3.046479549005072e-02 7.305811724467623e-02 -3.263448318606695e-02
659507500.0000000000 5.980872556580238e-02 -2.347969630956225e-02 5.972413340143069e-02 -1.869283528926006e-02 5.279047012633920e-02 2.067212835197898e-01 5.144925687002144e-01 -6.411066987544254e-03
            5.974336782590364e-02 -1.868279632704148e-02 5.983398684865243e-02 -2.349867634647283e-02 5.144856863100244e-01 -6.329346230011459e-03 5.283390847571685e-02 2.068222997955319e-01
            5.278957480259339e-02 2.067815062452184e-01 5.144208997890046e-01 -6.327878968568437e-03 5.340465151961625e-02 -2.213910091842184e-02 5.961660678424913e-02 -1.982771964642461e-02
            5.145528008333839e-01 -6.457761341067985e-03 5.284580774518753e-02 2.067889264969274e-01 5.956794138302862e-02 -1.975118189484408e-02 5.334292999181398e-02 -2.214749559833221e-02
660340000.0000000000 5.261653538057683e-02 -3.573080100554420e-03 5.357300874877366e-02 1.555000703176884e-03 1.217390653434848e-01 1.701336721253849e-01 4.808929101084631e-01 -1.892513223497036e-01
            5.365547362177010e-02 1.498383860253208e-03 5.256884084062183e-02 -3.548978578026959e-03 4.808952781710771e-01 -1.893288693235326e-01 1.216831380583098e-01 1.702803012516031e-01
            1.217420199212152e-01 1.702559233806291e-01 4.809292499635159e-01 -1.893372558753232e-01 4.584718990363406e-02 -1.393221874268546e-03 5.266342297825511e-02 9.178389889605618e-04
            4.808902571739684e-01 -1.893779268695172e-01 1.217668847987930e-01 1.703182390236331e-01 5.264819668153475e-02 9.960084230637056e-04 4.580221845988959e-02 -1.304042928141492e-03
661172500.0000000000 6.067626828592555e-02 1.593120694235881e-02 6.275207591979655e-02 2.044951426004186e-02 1.702800247535863e-01 1.129602121311226e-01 3.827392164440768e-01 -3.485339294977954e-01
            6.273650178578849e-02 2.039761807400921e-02 6.074376319212459e-02 1.589498801733508e-02 3.827229440925480e-01 -3.485326483654113e-01 1.703132532668944e-01 1.129243165596474e-01
            1.703553275676228e-01 1.130080451249046e-01 3.827178088504666e-01 -3.484822800871166e-01 5.429934893900638e-02 1.877303753070416e-02 6.153695853995292e-02 2.095246111221818e-02
            3.826640949526615e-01 -3.484988133322774e-01 1.702427826904531e-01 1.129839441088569e-01 6.151815335873797e-02 2.099334970464051e-02 5.431841026939162e-02 1.877288504579016e-02
662005000.0000000000 7.966800262992622e-02 2.480599148938113e-02 8.213299322428905e-02 2.811272359293263e-02 1.945946191302041e-01 4.526677772275525e-02 2.340609435222502e-01 -4.609962903061485e-01
            8.215185225556293e-02 2.808465144637610e-02 7.975962500399518e-02 2.476419740989774e-02 2.340096597573595e-01 -4.609989827637841e-01 1.946629571197791e-01 4.525043676077464e-02
            1.946530536804517e-01 4.528026940117306e-02 2.341030377791064e-01 -4.609815461795878e-01 7.386162546434243e-02 2.775584152981725e-02 8.141705630348096e-02 2.974903292217568e-02
            2.339864883640821e-01 -4.610123663480293e-01 1.945715726805655e-01 4.527752983534037e-02 8.133210321670650e-02 2.980716561631422e-02 7.385295730872203e-02 2.770152139037569e-02
662837500.0000000000 9.953956228102682e-02 1.895443841958466e-02 1.013967578355327e-01 2.096218079554902e-02 1.949740492816961e-01 -2.425554533034502e-02 5.674072062390671e-02 -5.127194712782951e-01
            1.014410480043295e-01 2.096980906544737e-02 9.955837287941789e-02 1.881455347791987e-02 5.680762830957720e-02 -5.126901160992156e-01 1.949169622289785e-01 -2.424499121074802e-02
            1.949109359657237e-01 -2.423244213485245e-02 5.671435514083157e-02 -5.126082673473533e-01 9.400430998088843e-02 2.115052936853127e-02 1.018054324744455e-01 2.307622644495063e-02
            5.680463683699404e-02 -5.127158994520618e-01 1.948815936540138e-01 -2.425116088231954e-02 1.017792173690250e-01 2.313957903317063e-02 9.395760586410955e-02 2.116361337728513e-02
663670000.0000000000 1.106229213759149e-01 1.627541708086622e-03 1.110340490913391e-01 3.107580109314382e-03 1.728192600659258e-01 -8.925236133517739e-02 -1.257322424405963e-01 -4.994722047556278e-01
            1.109938831052594e-01 3.116684164928555e-03 1.105262968989979e-01 1.547121796245141e-03 -1.257315740769514e-01 -4.994182267588838e-01 1.728051220115691e-01 -8.930473616154880e-02
            1.729001538534327e-01 -8.923797399641598e-02 -1.257038921444302e-01 -4.994637787618402e-01 1.045469716032978e-01 2.945876974203075e-03 1.126709997451243e-01 4.914250293301794e-03
            -1.257003381294280e-01 -4.994407693625200e-01 1.728711560165144e-01 -8.926397580921636e-02 1.126341438073407e-01 4.872069145522686e-03 1.045303235971102e-01 2.882154761157364e-03
664502500.0000000000 1.078154588077137e-01 -1.855482068298420e-02 1.064574566688887e-01 -1.652300103940663e-02 1.299514609113952e-01 -1.435288609618138e-01 -2.920181299701535e-01 -4.249201625373876e-01
            1.065000103177253e-01 -1.662133331562861e-02 1.078506309357906e-01 -1.854406607962678e-02 -2.920339794017759e-01 -4.248877109554126e-01 1.299677286643792e-01 -1.435458290225785e-01
            1.299064687189076e-01 -1.435502748202807e-01 -2.919798652956332e-01 -4.249259601158928e-01 1.003487695905638e-01 -1.791750568368893e-02 1.090343517869937e-01 -1.596605707106685e-02
            -2.920370379032458e-01 -4.249455279350463e-01 1.299022307706893e-01 -1.435753098523712e-01 1.090361513848702e-01 -1.594245120432285e-02 1.003740079783271e-01 -1.786245624910192e-02
665335000.0000000000 9.272704723111758e-02 -3.201783320942152e-02 8.993542629329795e-02 -2.844574765933735e-02 6.962292026859453e-02 -1.797591048186913e-01 -4.234220241712450e-01 -2.975663168666016e-01
            9.001261947058022e-02 -2.842563758278550e-02 9.259971557120145e-02 -3.200277412415168e-02 -4.234093996028400e-01 -2.976025498228352e-01 6.970151501697297e-02 -1.798219915407408e-01
            6.964261553562681e-02 -1.797959330777198e-01 -4.234009412388560e-01 -2.976039010055519e-01 8.319996342537181e-02 -3.121621660004134e-02 9.250955411448648e-02 -2.945001006581902e-02
            -4.233767083064632e-01 -2.976388196152362e-01 6.959422563779778e-02 -1.797383947288773e-01 9.249211667343907e-02 -2.949020503749558e-02 8.320364008356376e-02 -3.118593910428607e-02
666167500.0000000000 7.256794518514396e-02 -3.213049848486418e-02 6.952132966531817e-02 -2.634987071136098e-02 -4.157601130592557e-04 -1.910430003975232e-01 -5.035837427562626e-01 -1.309323599626966e-01
            6.956822955107822e-02 -2.633080809915645e-02 7.260689821651732e-02 -3.206633887389419e-02 -5.036403540388540e-01 -1.308910894319281e-01 -4.368617912333000e-04 -1.909985273022584e-01
            -5.195592516875046e-04 -1.910086069563514e-01 -5.036495838775155e-01 -1.309339643081855e-01 6.089998664022334e-02 -2.985160254196017e-02 7.103377385119852e-02 -2.869252647545448e-02
            -5.036011388364182e-01 -1.309229260747442e-01 -4.636112059861580e-04 -1.910365931951680e-01 7.098324933753052e-02 -2.877059634931894e-02 6.091734562206835e-02 -2.991598000665414e-02
667000000.0000000000 5.783309170808554e-02 -1.889070181790324e-02 5.572790896104381e-02 -1.081705690665091e-02 -6.907792863060970e-02 -1.746886690459148e-01 -5.200493562166779e-01 5.582626842214883e-02
            5.572398121739890e-02 -1.082141728960772e-02 5.774082127177623e-02 -1.888231247902799e-02 -5.201233993343926e-01 5.574841374452764e-02 -6.899397418169836e-02 -1.746767101976773e-01
            -6.901828879252492e-02 -1.746793478235391e-01 -5.200315454244353e-01 5.580724428379265e-02 4.477303061561456e-02 -1.388966818467664e-02 5.533354139076548e-02 -1.381241853320113e-02
            -5.200659388329496e-01 5.575672076876899e-02 -6.910782074976829e-02 -1.746182746226685e-01 5.538122764304422e-02 -1.380862892975164e-02 4.485619636918137e-02 -1.381986811309570e-02
667832500.0000000000 5.607624962186413e-02 7.908679817992805e-04 5.606849632814943e-02 1.007823673982071e-02 -1.245646565383612e-01 -1.345650441949479e-01 -4.677958812830155e-01 2.376333814258840e-01
            5.609527941145694e-02 1.010872164080454e-02 5.611009927425156e-02 7.870649072100587e-04 -4.677395460896547e-01 2.376422187068920e-01 -1.245416444801742e-01 -1.344674352263783e-01
            -1.244911313325502e-01 -1.345756430583524e-01 -4.677447965501346e-01 2.375894105850841e-01 4.324176986304674e-02 9.054024650912096e-03 5.375028167147865e-02 7.751549302831161e-03
            -4.676926948900882e-01 2.376009928912813e-01 -1.245374602825736e-01 -1.346610835652527e-01 5.378416285344221e-02 7.795186466324953e-03 4.326537646107221e-02 9.014897690130424e-03
668665000.0000000000 6.805301520858172e-02 1.575488143953040e-02 7.041764668100664e-02 2.532721980757171e-02 -1.597541954696865e-01 -7.953381904185998e-02 -3.528400471989473e-01 3.883237589074088e-01
            7.057214659763988e-02 2.530222905304407e-02 6.821884661775474e-02 1.575443292255879e-02 -3.528146362411794e-01 3.882874795525754e-01 -1.597993175823586e-01 -7.954021582988491e-02
            -1.597649608845294e-01 -7.948829363968186e-02 -3.528233370767495e-01 3.882596879182592e-01 5.726896556576302e-02 2.702143469262227e-02 6.711999011672393e-02 2.442185300274624e-02
            -3.528364034335765e-01 3.882079261943711e-01 -1.597774730597541e-01 -7.956312567698334e-02 6.709530125123597e-02 2.442106547309880e-02 5.723803217472204e-02 2.712288226394704e-02
669497500.0000000000 8.699407575793247e-02 1.821747662491539e-02 9.141179354228564e-02 2.679718384953749e-02 -1.732848710977722e-01 -1.861080831064128e-02 -1.924761180499278e-01 4.868325797016563e-01
            9.141707998480256e-02 2.682959441325829e-02 8.698361562885881e-02 1.828650758790814e-02 -1.925283383516539e-01 4.869024527198876e-01 -1.732849956227781e-01 -1.860051485715728e-02
            -1.732561659700053e-01 -1.855327352178579e-02 -1.925034114885393e-01 4.869013004401954e-01 7.924672235093225e-02 3.140272435767764e-02 8.783767191716207e-02 2.781972468546102e-02
            -1.924401771029660e-01 4.868775988685616e-01 -1.732567785590498e-01 -1.857916561265321e-02 8.778733871659102e-02 2.781299652856430e-02 7.912664338064504e-02 3.147006758566401e-02
670330000.0000000000 1.025344587064164e-01 7.437343979971085e-03 1.080313593941770e-01 1.410751461656139e-02 -1.664246029863816e-01 4.164442898568153e-02 -9.569096503609122e-03 5.222999218559555e-01
            1.080106854895899e-01 1.413461276387227e-02 1.024432319270026e-01 7.292998463833151e-03 -9.447595979084634e-03 5.222297707499012e-01 -1.663707714533814e-01 4.156830189918902e-02
            -1.663953706215812e-01 4.155643213492731e-02 -9.531218800377685e-03 5.222725726852225e-01 9.820356786386432e-02 2.060045922240063e-02 1.051572972051645e-01 1.662692683328717e-02
            -9.393381368046193e-03 5.222429774677414e-01 -1.663273111471343e-01 4.166236974962848e-02 1.051420907826022e-01 1.663923100951682e-02 9.813073469581435e-02 2.056602932670329e-02
671162500.0000000000 1.067958090669095e-01 -1.125825844905812e-02 1.123035045647428e-01 -6.339206584629883e-03 -1.403440596290173e-01 9.591657031815007e-02 1.730813893156429e-01 4.924623470688732e-01
            1.122914658813746e-01 -6.351912085592027e-03 1.068129561268532e-01 -1.137195245219760e-02 1.730724253413013e-01 4.923789642005355e-01 -1.403261862998084e-01 9.589036143086077e-02
            -1.403183024704029e-01 9.592189360651099e-02 1.730035764111550e-01 4.924067577887307e-01 1.053255806003840e-01 4.617913494339557e-04 1.107073066671531e-01 -3.072096846628475e-03
            1.730612456417369e-01 4.924589065412313e-01 -1.403752837875777e-01 9.607739098071866e-02 1.108134649088233e-01 -3.099688758832081e-03 1.054467752642560e-01 4.631545676410958e-04
671995000.0000000000 9.765973876252433e-02 -2.856911903499441e-02 1.022703489948389e-01 -2.476568190281206e-02 -9.677714857708915e-02 1.388760966590959e-01 3.342703132743170e-01 4.021423715052391e-01
            1.022546478093905e-01 -2.486273365947299e-02 9.763777597188233e-02 -2.866426847343170e-02 3.343811742614369e-01 4.021492326773192e-01 -9.675559197591561e-02 1.387697142947911e-01
            -9.686450545151670e-02 1.388271632047421e-01 3.343270935124545e-01 4.021427721177800e-01 9.778598548889673e-02 -1.933226913791832e-02 1.019599858253001e-01 -2.168152474454165e-02
            3.343216776365476e-01 4.020780273111098e-01 -9.680969679420622e-02 1.388834807042307e-01 1.019200635127696e-01 -2.169478891489668e-02 9.784112823746083e-02 -1.927431392019890e-02
672827500.0000000000 7.898811174712564e-02 -3.585172713504350e-02 8.254515386765592e-02 -3.248328176636680e-02 -3.973106459935629e-02 1.634057537005058e-01 4.557217427334458e-01 2.610714691217912e-01
            8.240211413326287e-02 -3.249897279428257e-02 7.898190789852144e-02 -3.592489644000326e-02 4.557336864765186e-01 2.611163162486995e-01 -3.980354936948707e-02 1.633895653877594e-01
            -3.971230406536452e-02 1.634168328815089e-01 4.557453022045521e-01 2.611152979824286e-01 7.927678268643833e-02 -2.912043708852909e-02 8.282428787540848e-02 -3.018945578025373e-02
            4.556845079660639e-01 2.611523633981170e-01 -3.973265930046181e-02 1.633414604384753e-01 8.278186084423010e-02 -3.013253784589010e-02 7.935040505347032e-02 -2.906772701990996e-02
673660000.0000000000 5.972969034599903e-02 -2.904758238950022e-02 6.242875455728891e-02 -2.540370195141856e-02 2.267921114962078e-02 1.644150939316096e-01 5.212146918912286e-01 8.459440450656286e-02
            6.241481246194379e-02 -2.550506471749250e-02 5.969961118224344e-02 -2.912206920430188e-02 5.212041994880613e-01 8.457785291360920e-02 2.272606778054159e-02 1.644255416480795e-01
            2.274237945513612e-02 1.643187896955812e-01 5.211531649560526e-01 8.467306447153020e-02 5.904766411159789e-02 -2.409066602510334e-02 6.258265796615266e-02 -2.381157393954809e-02
            5.211145243802449e-01 8.459665327666904e-02 2.276517508498819e-02 1.643455992889697e-01 6.271192530841690e-02 -2.393382337117421e-02 5.899268810434496e-02 -2.411043759494047e-02
674492500.0000000000 4.963915570426942e-02 -1.115031426174196e-02 5.213395124776554e-02 -6.995591712722970e-03 7.963072136126260e-02 1.414350981277759e-01 5.194461139754516e-01 -1.058807504832074e-01
            5.210258474462266e-02 -6.984996083533656e-03 4.956048895357019e-02 -1.112421440523916e-02 5.193983746290896e-01 -1.058424293455119e-01 7.965761163336423e-02 1.413705913224687e-01
            7.970177091989149e-02 1.413882997081167e-01 5.194347768334278e-01 -1.059039629955989e-01 4.746348046115006e-02 -6.936400520597082e-03 5.146140919182395e-02 -5.711062675510038e-03
            5.194255743212989e-01 -1.059073891291022e-01 7.964727656978529e-02 1.413891456102889e-01 5.162259087475821e-02 -5.667618218731572e-03 4.739696862981573e-02 -6.986101484761639e-03
675325000.0000000000 5.403879911489261e-02 8.628891941245337e-03 5.671231852774120e-02 1.319461412381118e-02 1.218801481812773e-01 1.001795336794067e-01 4.486542589474425e-01 -2.839817350707938e-01
            5.668082016175726e-02 1.315993739698243e-02 5.405425015119941e-02 8.728154308970329e-03 4.487227868431846e-01 -2.840608587787831e-01 1.218387465459160e-01 1.000418470938531e-01
            1.218425281356121e-01 1.000577659742302e-01 4.487189096226772e-01 -2.839369603213678e-01 5.064251832523894e-02 1.337603078751185e-02 5.533184148219375e-02 1.490996682470377e-02
            4.486745207820748e-01 -2.840229663016143e-01 1.218445650085519e-01 1.000636518703855e-01 5.537060195630730e-02 1.500152297506601e-02 5.057283814687887e-02 1.326913608492958e-02
676157500.0000000000 7.021356248571106e-02 2.024065866147190e-02 7.307441831932945e-02 2.446703037438455e-02 1.450667781051377e-01 4.911533651282669e-02 3.186752393135240e-01 -4.241918216286728e-01
            7.309351571093703e-02 2.445257432389357e-02 7.013617958792932e-02 2.022900433136958e-02 3.185906294976881e-01 -4.241719453680637e-01 1.450503427405998e-01 4.913677478301967e-02
            1.450171792048761e-01 4.905069265530079e-02 3.186211231967833e-01 -4.242551219488966e-01 6.647688490655231e-02 2.560183717425045e-02 7.155970948829120e-02 2.743689952158391e-02
            3.185633921470927e-01 -4.241606051277579e-01 1.450420060532147e-01 4.910588787733142e-02 7.158921021764769e-02 2.743847185321978e-02 6.643245964851999e-02 2.549922095753582e-02
676990000.0000000000 8.921793981416737e-02 1.787090572675214e-02 9.215618921672374e-02 2.158299825129018e-02 1.493486048920700e-01 -4.304081671791263e-03 1.484244857232086e-01 -5.080934003562246e-01
            9.209843461559714e-02 2.158229624510987e-02 8.926384743862691e-02 1.786827059806182e-02 1.484366209435220e-01 -5.081897387855216e-01 1.493146103443445e-01 -4.244756146979714e-03
            1.493880193752388e-01 -4.174942046470749e-03 1.483771518870139e-01 -5.081360490527422e-01 8.580047779368392e-02 2.387726207543226e-02 9.115895294305344e-02 2.589062915638180e-02
            1.484114264854212e-01 -5.081491022535852e-01 1.493223746427761e-01 -4.252501687780253e-03 9.114539704452547e-02 2.586847454270886e-02 8.582298887657568e-02 2.392880165236239e-02
677822500.0000000000 1.013242903082968e-01 3.670076976345786e-03 1.035779249434107e-01 6.962781317440160e-03 1.363702346817424e-01 -5.491466854689470e-02 -3.881057601726208e-02 -5.271823540944048e-01
            1.035980522832423e-01 6.954269861035474e-03 1.013439958504859e-01 3.639756264949360e-03 -3.883664910031725e-02 -5.270854600305450e-01 1.364638969844981e-01 -5.499639017683306e-02
            1.364337389939766e-01 -5.488620029295209e-02 -3.879438478301486e-02 -5.271177773456646e-01 9.860884243170785e-02 9.919024020239493e-03 1.041230307013495e-01 1.204399625360607e-02
            -3.883533097627493e-02 -5.271161943671234e-01 1.364337125235727e-01 -5.491308344308933e-02 1.040857746718914e-01 1.209828871225320e-02 9.863133595312105e-02 9.891308451733445e-03
678655000.0000000000 1.006746728185802e-01 -1.482015064076474e-02 1.018948591880922e-01 -1.148033464968698e-02 1.073056995639012e-01 -9.853924851547051e-02 -2.203653579287505e-01 -4.806974125076471e-01
            1.018218069737423e-01 -1.156529851690348e-02 1.007013621025549e-01 -1.475741190523169e-02 -2.203415182299953e-01 -4.806698165407354e-01 1.073880189501521e-01 -9.854201891883103e-02
            1.073552582366095e-01 -9.848934417422241e-02 -2.203982421339525e-01 -4.806568166740708e-01 9.857259667635609e-02 -9.053077499599839e-03 1.040739899279307e-01 -6.469949871932357e-03
            -2.204097991775890e-01 -4.807356836421723e-01 1.073416037280644e-01 -9.850992773925742e-02 1.041046510821823e-01 -6.437577407030161e-03 9.856820464266047e-02 -8.986892760413904e-03
679487500.0000000000 8.746561754300598e-02 -2.799432874060633e-02 8.781714876598321e-02 -2.401875147368867e-02 6.417995622287323e-02 -1.295047338695873e-01 -3.754104966731295e-01 -3.745966299579989e-01
            8.777059227208756e-02 -2.401525255948769e-02 8.752178844809169e-02 -2.793118667665740e-02 -3.754805804049115e-01 -3.745863459017202e-01 6.412622600148800e-02 -1.295006424798255e-01
            6.415060948164709e-02 -1.295986365191322e-01 -3.754480859520547e-01 -3.744691565530792e-01 8.560685262140011e-02 -2.308291454702111e-02 9.141106676150167e-02 -1.986299790682593e-02
            -3.755069891790450e-01 -3.745333870536467e-01 6.415792209275525e-02 -1.295580859760682e-01 9.137821646759975e-02 -1.989626111704255e-02 8.561646073475021e-02 -2.323589857380816e-02
680320000.0000000000 6.833644909649780e-02 -2.879514396438938e-02 6.825661618963109e-02 -2.342308118331160e-02 1.185782454650422e-02 -1.420870716487425e-01 -4.851211690664587e-01 -2.197583278480056e-01
            6.816351065686986e-02 -2.348925963684347e-02 6.847522182723127e-02 -2.876971327376969e-02 -4.850618398151631e-01 -2.197317642192579e-01 1.189618718715665e-02 -1.420672949841074e-01
            1.191541183526429e-02 -1.421257257457515e-01 -4.851758492789346e-01 -2.197570099835722e-01 6.605100419021924e-02 -2.467364543252537e-02 7.252370382109295e-02 -2.079301397193045e-02
            -4.851290195820979e-01 -2.197186861271159e-01 1.188183314694412e-02 -1.420686667734183e-01 7.245284984868440e-02 -2.081257858007873e-02 6.603808197451252e-02 -2.469434494617849e-02
681152500.0000000000 5.344990789332955e-02 -1.588519237964206e-02 5.364675546074660e-02 -9.136853865567432e-03 -4.069326896054264e-02 -1.333668842047120e-01 -5.336105513504709e-01 -3.416396299586349e-02
            5.361935752460521e-02 -9.186865081902425e-03 5.344002686066032e-02 -1.585037031392385e-02 -5.335073597213553e-01 -3.420378921287506e-02 -4.060893930759858e-02 -1.332914346313144e-01
            -4.059480438224767e-02 -1.333358326788951e-01 -5.334915741976602e-01 -3.416308174323230e-02 5.017420175833262e-02 -1.211769755786172e-02 5.756851055285515e-02 -7.987159851742483e-03
            -5.336001482479386e-01 -3.417548982485379e-02 -4.058889885759792e-02 -1.333749395680679e-01 5.755703194127589e-02 -7.979675696796642e-03 5.026448070685670e-02 -1.207701255210778e-02
681985000.0000000000 5.104724477231776e-02 4.363896103670214e-03 5.236010808313248e-02 1.199353615381334e-02 -8.393439586086150e-02 -1.057221621113069e-01 -5.118408849843761e-01 1.579121629944180e-01
            5.243230953832257e-02 1.191636083185599e-02 5.104531413232367e-02 4.505231681205825e-03 -5.118232139462102e-01 1.578079052496038e-01 -8.390295809700692e-02 -1.056660590618074e-01
            -8.389914361213160e-02 -1.057427294456536e-01 -5.118164270145467e-01 1.578790499967447e-01 4.699542543212936e-02 8.481589440439119e-03 5.535027512928827e-02 1.239398061956379e-02
            -5.119388580775558e-01 1.578836544225581e-01 -8.387707464683775e-02 -1.057253502299065e-01 5.528368547841411e-02 1.249208752561923e-02 4.704761750915493e-02 8.488524170991912e-03
682817500.0000000000 6.314458683553213e-02 2.152721344709643e-02 6.591259073471659e-02 2.893765710103244e-02 -1.119187707079876e-01 -6.621582555203556e-02 -4.221441735515624e-01 3.290126785797003e-01
            6.590335287257669e-02 2.900234530644741e-02 6.314485064563349e-02 2.148116112858649e-02 -4.221205145751707e-01 3.289187599919625e-01 -1.119299108575190e-01 -6.626089558612142e-02
            -1.119626396336059e-01 -6.626400436862309e-02 -4.220570976318683e-01 3.289935002737491e-01 5.891607549117225e-02 2.608513663698894e-02 6.774743526237012e-02 2.954875869172143e-02
            -4.220380584870754e-01 3.289405673259354e-01 -1.120296384685512e-01 -6.626861179072258e-02 6.772960743509175e-02 2.957169110134465e-02 5.885614331075467e-02 2.621618902841019e-02
683650000.0000000000 8.369356739835049e-02 2.636282348916626e-02 8.740076182790914e-02 3.298818032196710e-02 -1.238497106219467e-01 -2.244135145315062e-02 -2.779069842643099e-01 4.555344237069078e-01
            8.734892519995538e-02 3.296292055420858e-02 8.378783716497282e-02 2.643600007344919e-02 -2.778629900999335e-01 4.554985433122190e-01 -1.237937389458145e-01 -2.246348380350236e-02
            -1.238839331183569e-01 -2.244526244792011e-02 -2.778056089732479e-01 4.554650641654709e-01 7.962625925691948e-02 3.162256346992837e-02 8.869939439400309e-02 3.444218864817140e-02
            -2.779053744885258e-01 4.554733355762697e-01 -1.239111243082264e-01 -2.241393081531335e-02 8.874247546392863e-02 3.436784233882771e-02 7.962893176099178e-02 3.156808614715115e-02
684482500.0000000000 1.026172210046212e-01 1.685815817698436e-02 1.062448463317111e-01 2.195732772129419e-02 -1.212746518313428e-01 2.088402232489498e-02 -1.002734207741417e-01 5.223790389257214e-01
            1.062425652965191e-01 2.198234971828185e-02 1.026438593518794e-01 1.687854669493726e-02 -1.002320305144865e-01 5.223819011731536e-01 -1.212947373190594e-01 2.089064595095161e-02
            -1.212139588365236e-01 2.085048109784574e-02 -1.003595906844437e-01 5.223447660749332e-01 9.889750684222398e-02 2.207666491505664e-02 1.078285116644701e-01 2.457465916022903e-02
            -1.002759137232154e-01 5.223600210936797e-01 -1.212772616211285e-01 2.083076462693245e-02 1.078504760151509e-01 2.458444479427869e-02 9.901357842002115e-02 2.210108318078997e-02
685315000.0000000000 1.111059823068113e-01 -2.548154369053953e-03 1.135078004641387e-01 1.670293825631696e-03 -1.053738216572880e-01 6.082587088674628e-02 8.786497364618562e-02 5.238280068131398e-01
            1.135305992328011e-01 1.559437249511792e-03 1.111354214835776e-01 -2.534936478641667e-03 8.786674915240984e-02 5.239264344612200e-01 -1.052493359407170e-01 6.070765790579267e-02
            -1.053229589123529e-01 6.068861313775473e-02 8.787484261271447e-02 5.237970118382231e-01 1.076489892159204e-01 2.410515668155193e-03 1.163400985231989e-01 4.932211239018352e-03
            8.787179766454600e-02 5.238097169927545e-01 -1.052959418914091e-01 6.071047304444177e-02 1.163479963370474e-01 4.966417911925871e-03 1.076110360964186e-01 2.432183403468050e-03
686147500.0000000000 1.053273045369978e-01 -2.281567281443363e-02 1.060305859946950e-01 -1.872738407334653e-02 -7.648458509902809e-02 9.377896730327190e-02 2.649393505072128e-01 4.610612747915910e-01
            1.059919999197759e-01 -1.873044211917979e-02 1.052751114012867e-01 -2.268143734119265e-02 2.648817443516780e-01 4.612031147968035e-01 -7.652225495389407e-02 9.369601830264818e-02
            -7.650833903767225e-02 9.370740587325753e-02 2.649041398622790e-01 4.611061057539064e-01 1.016973003252169e-01 -1.839306423213419e-02 1.105109214431135e-01 -1.547428791076571e-02
            2.649203454980729e-01 4.611423820837919e-01 -7.642494362809178e-02 9.371980343551016e-02 1.105146082710625e-01 -1.538112271721222e-02 1.017403157075637e-01 -1.841584194373728e-02
686980000.0000000000 8.812584819393837e-02 -3.460262319502170e-02 8.705039123065270e-02 -2.926473910291079e-02 -3.656672768228107e-02 1.144720037228737e-01 4.107452769691537e-01 3.409396249773068e-01
            8.701857072151231e-02 -2.924253045360927e-02 8.810837622929936e-02 -3.453929178933227e-02 4.107320276768629e-01 3.408756254231579e-01 -3.659681282576478e-02 1.144285450854179e-01
            -3.659479377335626e-02 1.145026948520147e-01 4.107561672638061e-01 3.409150211427801e-01 8.367155105992102e-02 -3.066948245821927e-02 9.310783257388802e-02 -2.701910830344392e-02
            4.107758977705390e-01 3.408005183591969e-01 -3.648745645856281e-02 1.144874588424715e-01 9.306291303158709e-02 -2.712194700083451e-02 8.371674645904191e-02 -3.062853309469405e-02
687812500.0000000000 6.747025952820888e-02 -3.228530671167808e-02 6.563758554839107e-02 -2.472471171543625e-02 8.946166004883800e-03 1.180841490485241e-01 5.068128568536771e-01 1.755488216511229e-01
            6.560976119677685e-02 -2.480049998096918e-02 6.751243247424328e-02 -3.224956266116139e-02 5.067455868660045e-01 1.756426249303876e-01 9.025925442676318e-03 1.180091266759407e-01
            8.968268243135617e-03 1.182062346010512e-01 5.067683543345517e-01 1.756080998215894e-01 6.192743860826158e-02 -2.801662330635611e-02 7.243570108946240e-02 -2.433806334607414e-02
            5.067176228060326e-01 1.756410563656057e-01 9.004832870150857e-03 1.179724510276056e-01 7.243862457923558e-02 -2.438425963467509e-02 6.195119329779435e-02 -2.802315282850969e-02
688645000.0000000000 5.392765331539365e-02 -1.699348029791279e-02 5.245738964432704e-02 -6.933415171086041e-03 5.142228397473183e-02 1.030245435646860e-01 5.381549755047046e-01 -1.523687852551590e-02
            5.255498644421825e-02 -7.027948779891600e-03 5.389913520791599e-02 -1.703357546961036e-02 5.381824134420683e-01 -1.530531012998406e-02 5.143778602803620e-02 1.030692416942118e-01
            5.148961999333442e-02 1.030654452647313e-01 5.381278167831104e-01 -1.519763275603405e-02 4.738856838330384e-02 -1.175934781409738e-02 5.920000273212140e-02 -8.617745688498225e-03
            5.381576421199310e-01 -1.518865565413732e-02 5.148801209377172e-02 1.029580872275648e-01 5.918619083422699e-02 -8.691426172465143e-03 4.741357463921263e-02 -1.172747831298770e-02
689477500.0000000000 5.426145199820558e-02 2.890681678315924e-03 5.467166926825517e-02 1.505807955446801e-02 8.281099486840249e-02 7.361615359064816e-02 4.983252222440386e-01 -2.057188358961457e-01
            5.466609533289196e-02 1.504418285565848e-02 5.425456179020989e-02 2.941890159108535e-03 4.982487496153132e-01 -2.056840925632092e-01 8.283416672063268e-02 7.368572597606124e-02
            8.278347808578128e-02 7.361791175365899e-02 4.983318895923891e-01 -2.056834721655021e-01 4.747435977706810e-02 9.883375677230959e-03 6.024799452535317e-02 1.165498646630226e-02
            4.982622266959937e-01 -2.056373810570643e-01 8.269521154283486e-02 7.361060073769390e-02 6.021601366285722e-02 1.163918583894091e-02 4.743853125838939e-02 9.899999623590167e-03
690310000.0000000000 6.792808218596744e-02 1.689188252511689e-02 7.073695841175533e-02 2.981913233964450e-02 9.939587709234583e-02 3.727465370438685e-02 3.924616305973738e-01 -3.684679995976249e-01
            7.065708284084565e-02 2.981776597167212e-02 6.796417492345594e-02 1.691000791297202e-02 3.924680828516792e-01 -3.685751411045955e-01 9.936553787157275e-02 3.721766245491633e-02
            9.944173250637453e-02 3.726664198641321e-02 3.923042946949141e-01 -3.685220328229413e-01 6.189288832153568e-02 2.558318456784864e-02 7.473020952755791e-02 2.553531970835932e-02
            3.923901150610946e-01 -3.684696932492805e-01 9.942711811056945e-02 3.719521695755453e-02 7.483853092897967e-02 2.557507625613480e-02 6.189527737380528e-02 2.558003498982326e-02
691142500.0000000000 8.713449793759287e-02 1.765663201444240e-02 9.225961356986767e-02 3.005223028653348e-02 1.022330871632672e-01 1.588727557256017e-04 2.366130159544578e-01 -4.817052861176645e-01
            9.220450867350434e-02 3.005959293073584e-02 8.715407775467725e-02 1.762286117712268e-02 2.365982332033631e-01 -4.817257849829045e-01 1.022043314398693e-01 1.301185707829350e-04
            1.022251227996470e-01 1.122594361763931e-04 2.366183718071346e-01 -4.817728131860368e-01 8.266161829281347e-02 2.757021853677350e-02 9.463963465342459e-02 2.588288468744005e-02
            2.366505974568556e-01 -4.817323923868352e-01 1.023103688027757e-01 1.002877397589623e-04 9.461719534956027e-02 2.588292148531768e-02 8.270976414711835e-02 2.746331270129659e-02
691975000.0000000000 1.016771777550870e-01 5.312280893150538e-03 1.082205143564643e-01 1.642591979331027e-02 9.363024216318350e-02 -3.432464536047296e-02 5.288385573403323e-02 -5.326992752412203e-01
            1.081987319540050e-01 1.641818360952375e-02 1.017218325219374e-01 5.281911197013963e-03 5.295367995425573e-02 -5.327230761078786e-01 9.364684949648104e-02 -3.435372544887542e-02
            9.360609149870340e-02 -3.427870665352568e-02 5.286205566687404e-02 -5.326666118375589e-01 9.934819800705905e-02 1.536234830503173e-02 1.094137766815495e-01 1.282845086479523e-02
            5.289722874328586e-02 -5.327459630350563e-01 9.363063265241925e-02 -3.430603287371622e-02 1.093910012054076e-01 1.283582710466235e-02 9.928148185469264e-02 1.535376457106179e-02
692807500.0000000000 1.043237297558483e-01 -1.386713868909753e-02 1.111378402021807e-01 -3.976769280029901e-03 7.461947288993370e-02 -6.417411828878097e-02 -1.360264380681183e-01 -5.174896178745513e-01
            1.111038240539133e-01 -4.049833355120399e-03 1.044059991789510e-01 -1.375258733982867e-02 -1.360240147246837e-01 -5.174065440503161e-01 7.466907779478915e-02 -6.416699589566709e-02
            7.469129208641208e-02 -6.416322836224279e-02 -1.360473218237764e-01 -5.174805387444006e-01 1.037227613082415e-01 -4.568380407938653e-03 1.118935833942869e-01 -6.617479127586946e-03
            -1.359865718069606e-01 -5.174077465121132e-01 7.462185644081046e-02 -6.424728050028550e-02 1.118421195466748e-01 -6.709333872278900e-03 1.037329432276807e-01 -4.607792939956522e-03
693640000.0000000000 9.369131448299914e-02 -3.019429185974338e-02 9.981524746614003e-02 -2.106822698021135e-02 4.590997200711792e-02 -8.627942843389913e-02 -3.084434473597447e-01 -4.383979563115267e-01
            9.989927301821352e-02 -2.114815640512067e-02 9.376320962559061e-02 -3.015042108748792e-02 -3.084420901020582e-01 -4.384297797375018e-01 4.587112625035961e-02 -8.621222442369669e-02
            4.588612914184922e-02 -8.626351953670855e-02 -3.085042426507956e-01 -4.383940054061967e-01 9.399992020404539e-02 -2.266975572757196e-02 1.007561691916843e-01 -2.289910425285331e-02
            -3.085217157731115e-01 -4.384468069603931e-01 4.575951227607226e-02 -8.622454442514893e-02 1.007679619995210e-01 -2.296488418021327e-02 9.396398997563175e-02 -2.259142484838065e-02
694472500.0000000000 7.457591214599477e-02 -3.583072695405363e-02 7.999848383894428e-02 -2.626884054162767e-02 1.005025801179775e-02 -9.608397842965885e-02 -4.443052240880171e-01 -3.036942616275616e-01
            7.998475242285508e-02 -2.624335851674490e-02 7.452828866117209e-02 -3.579204653355923e-02 -4.442088410076436e-01 -3.036758550314002e-01 1.001102918938337e-02 -9.610072640173291e-02
            1.000900283888532e-02 -9.605628070842472e-02 -4.442344931142118e-01 -3.037308658601650e-01 7.468753131516442e-02 -2.984140293410955e-02 8.136286947753954e-02 -2.780757968009747e-02
            -4.442001883303429e-01 -3.037620530407243e-01 9.978196798731359e-03 -9.618037432615989e-02 8.142171053310594e-02 -2.778329822501405e-02 7.472169278172018e-02 -2.991041803207883e-02
695305000.0000000000 5.589891606272905e-02 -2.745371121701723e-02 6.158336824646850e-02 -1.651880729539794e-02 -2.714219564937117e-02 -9.042067002037640e-02 -5.249411186284905e-01 -1.279713741045691e-01
            6.155764578345490e-02 -1.644625571503797e-02 5.603502136629010e-02 -2.736462009752921e-02 -5.249466263985746e-01 -1.280501357757608e-01 -2.717922725857028e-02 -9.048600134913412e-02
            -2.714133640392000e-02 -9.045731356094755e-02 -5.249179008253351e-01 -1.280555833308305e-01 5.530307225942269e-02 -2.248150696164293e-02 6.357967186218487e-02 -1.828876718142153e-02
            -5.248671332151793e-01 -1.280126719293742e-01 -2.717511450779847e-02 -9.051916010583416e-02 6.348103358856796e-02 -1.824344013797667e-02 5.528601707423682e-02 -2.250999609809605e-02
696137500.0000000000 4.760962937542889e-02 -8.770163246323100e-03 5.470774600888254e-02 3.673439899346567e-03 -5.758198620298898e-02 -7.040325218458940e-02 -5.373451156851192e-01 6.666827669852363e-02
            5.466478709294662e-02 3.726425689435118e-03 4.760428846913613e-02 -8.762794540974984e-03 -5.374458039792035e-01 6.661295222165570e-02 -5.762759710635293e-02 -7.040552906797300e-02
            -5.768459555817027e-02 -7.043504726423225e-02 -5.373582916054416e-01 6.669176762623280e-02 4.583528084187396e-02 -4.097843794678565e-03 5.685122968346144e-02 1.199731319923478e-03
            -5.374401176603187e-01 6.667987461724086e-02 -5.761844781306688e-02 -7.036742132634306e-02 5.692257319946293e-02 1.207354300759775e-03 4.584665857220718e-02 -4.167984049484858e-03
696970000.0000000000 5.357175681905334e-02 1.036115883654788e-02 6.349889304925978e-02 2.350302355436044e-02 -7.605662666217111e-02 -4.138823185217912e-02 -4.785522639610365e-01 2.530362873255759e-01
            6.348174055149443e-02 2.343359773912992e-02 5.351990965754086e-02 1.039261710258659e-02 -4.785227663402283e-01 2.530567038978175e-01 -7.603888461831473e-02 -4.143306722505966e-02
            -7.599319798628341e-02 -4.152746697118676e-02 -4.785541480514446e-01 2.530699360066866e-01 5.116427670828744e-02 1.546576771254343e-02 6.552161103308562e-02 2.028508502076087e-02
            -4.784738736529055e-01 2.530350798203562e-01 -7.604490463219118e-02 -4.147706685617174e-02 6.544810989532007e-02 2.027732893454812e-02 5.113855879246635e-02 1.550088567025997e-02
697802500.0000000000 7.019866933634065e-02 2.036805531876059e-02 8.340637096697237e-02 3.235117883399650e-02 -8.157310903036015e-02 -1.056174678759138e-02 -3.570387194562108e-01 4.048405068403244e-01
            8.344725961357313e-02 3.249823658636294e-02 7.023499803257610e-02 2.029921670354444e-02 -3.570593701575397e-01 4.048282133085293e-01 -8.155832073096098e-02 -1.062935114655499e-02
            -8.161365148100343e-02 -1.058733783592257e-02 -3.570723332411950e-01 4.048339408734542e-01 6.785159086829742e-02 2.617044437924587e-02 8.489131513040231e-02 2.859203794031485e-02
            -3.570555967829619e-01 4.048473560743747e-01 -8.161816870289786e-02 -1.062245911635409e-02 8.496264720949413e-02 2.864833569164303e-02 6.782867901660186e-02 2.605466526485541e-02
698635000.0000000000 8.858598394232799e-02 1.670265724402850e-02 1.045924429844171e-01 2.595541848836092e-02 -7.686468434398687e-02 1.795918646245398e-02 -1.914339879448338e-01 5.028756514370659e-01
            1.046537945707599e-01 2.597254699903091e-02 8.858957235824269e-02 1.663097989876182e-02 -1.915079346495684e-01 5.028124870042752e-01 -7.683801334777422e-02 1.786232096391139e-02
            -7.686064983835331e-02 1.793859112910584e-02 -1.914456737309825e-01 5.028272370884130e-01 8.675397424809701e-02 2.293466673786466e-02 1.053353888532117e-01 2.173071654670509e-02
            -1.914191365710979e-01 5.028363410077842e-01 -7.688919191623979e-02 1.788955595419984e-02 1.053521996037421e-01 2.173397954625691e-02 8.672995237869757e-02 2.288188725794140e-02
699467500.0000000000 9.943428913764200e-02 2.147860074028979e-03 1.166494348109099e-01 7.304946422214433e-03 -6.418309168498953e-02 4.248801549313131e-02 -3.944285165932033e-03 5.369153339805082e-01
            1.167283388910977e-01 7.345340254022212e-03 9.939697659999687e-02 2.165692479681680e-03 -3.954399876020591e-03 5.368185870215272e-01 -6.414445079723606e-02 4.243623780387511e-02
            -6.417496813904527e-02 4.253457912629452e-02 -3.831391182131980e-03 5.369008424653938e-01 9.836614890519617e-02 8.127417795742843e-03 1.164591984540894e-01 3.072113108807340e-03
            -3.874519056573793e-03 5.368184097345052e-01 -6.418126758959845e-02 4.250847003850602e-02 1.165241088139336e-01 2.973042002333389e-03 9.831155876481348e-02 8.262810354468107e-03
700300000.0000000000 9.776807462453248e-02 -1.551794445069509e-02 1.141106676271817e-01 -1.479544028936040e-02 -4.420451097513323e-02 6.200518722634576e-02 1.834207471390899e-01 5.047154194963830e-01
            1.141698599533413e-01 -1.480679326749612e-02 9.775227129501507e-02 -1.552499209887888e-02 1.833993480098412e-01 5.047452540621761e-01 -4.425475040104093e-02 6.196218637003840e-02
            -4.418870446682752e-02 6.191741989646662e-02 1.834303867049366e-01 5.047824116154418e-01 9.720715731371672e-02 -1.044121689231862e-02 1.132082813366839e-01 -1.881993754879601e-02
            1.833821344237011e-01 5.047467149816101e-01 -4.427873427966401e-02 6.196831459307339e-02 1.130979741604122e-01 -1.877795607774733e-02 9.714336653154966e-02 -1.044713689478276e-02
701132500.0000000000 8.437561177732497e-02 -2.751321055438893e-02 9.817255202495655e-02 -3.025598299641693e-02 -1.769611069855487e-02 7.353198421277592e-02 3.489379380148885e-01 4.101407520850804e-01
            9.817121119430111e-02 -3.024135559296207e-02 8.442644944729534e-02 -2.747036266119426e-02 3.489066850082684e-01 4.101182227143341e-01 -1.765712327269171e-02 7.357183226091368e-02
            -1.764605617898932e-02 7.354286040674006e-02 3.489062138130649e-01 4.100783074155180e-01 8.372845573299889e-02 -2.340646263456735e-02 9.645832577655515e-02 -3.378675147373237e-02
            3.488933886979570e-01 4.100288837538792e-01 -1.765726750459277e-02 7.352769953836187e-02 9.649545278018730e-02 -3.376857352438545e-02 8.371030259310223e-02 -2.349602424910897e-02
701965000.0000000000 6.618493492908253e-02 -2.726210009256852e-02 7.606918578535705e-02 -3.187129493932815e-02 1.221368992822672e-02 7.369966378026517e-02 4.726169232855135e-01 2.625424185005419e-01
            7.613698351886011e-02 -3.185060188603116e-02 6.634547136002893e-02 -2.733151196695011e-02 4.725684617905512e-01 2.624179418058356e-01 1.230915096400044e-02 7.376329440629192e-02
            1.229165480046250e-02 7.373074152764654e-02 4.726100309309876e-01 2.624591489260842e-01 6.468451406854638e-02 -2.404437040221492e-02 7.402604283147414e-02 -3.477730377693532e-02
            4.726191900647846e-01 2.624576530581433e-01 1.233825571242673e-02 7.369268303298815e-02 7.403369640200855e-02 -3.474789654237314e-02 6.458353546347874e-02 -2.410732664440534e-02
702797500.0000000000 5.277599605172319e-02 -1.439383265471909e-02 5.855514552039210e-02 -1.880769005455094e-02 3.969081845494742e-02 6.095430678308909e-02 5.365858109369137e-01 7.871182938810556e-02
            5.853238637635355e-02 -1.890834817021768e-02 5.268816989496480e-02 -1.443819616190685e-02 5.366291108624590e-01 7.871811286222215e-02 3.962837552205848e-02 6.097410668396593e-02
            3.961067334950264e-02 6.092621739236079e-02 5.366204739731759e-01 7.866528902859311e-02 4.998940606006248e-02 -1.134813221245987e-02 5.646246815535044e-02 -2.101299917000282e-02
            5.366227706147090e-01 7.863972315698037e-02 3.973174754117692e-02 6.095539169714632e-02 5.637196527591889e-02 -2.113925167669560e-02 4.992073268698352e-02 -1.140973569800786e-02
703630000.0000000000 5.144816577424150e-02 4.616844193239069e-03 5.416805943542038e-02 1.920971229362367e-03 5.803534534111539e-02 3.821693487572887e-02 5.302031441544774e-01 -1.171141747188193e-01
            5.413457339870528e-02 2.001252621566355e-03 5.142496674949140e-02 4.602619560383963e-03 5.302320210742361e-01 -1.170363735789960e-01 5.800734809097211e-02 3.833385004763448e-02
            5.804972846411348e-02 3.822118875185870e-02 5.302965801870489e-01 -1.170848684508256e-01 4.770844357106583e-02 8.305068771945557e-03 5.219751367947462e-02 1.866252453422024e-04
            5.301765850423663e-01 -1.170347257372570e-01 5.806736743695867e-02 3.826808124761025e-02 5.224697948259376e-02 1.278491837500491e-04 4.769516657009322e-02 8.306241291162355e-03
704462500.0000000000 6.358751134013758e-02 1.971932652076715e-02 6.456429121962762e-02 1.954019195662968e-02 6.445476999842503e-02 1.195509009020220e-02 4.535098952405311e-01 -2.971437710136982e-01
            6.456107107412125e-02 1.953931195485944e-02 6.350014416148089e-02 1.963409602166737e-02 4.535459054078980e-01 -2.971236738534770e-01 6.451527197885476e-02 1.202246427027123e-02
            6.459130510737970e-02 1.199176904265994e-02 4.535956837551360e-01 -2.970933253845013e-01 5.954890885075163e-02 2.442145675499881e-02 6.291996298302345e-02 1.789897802940994e-02
            4.535415484095487e-01 -2.970530942134145e-01 6.447230040639193e-02 1.193610488214813e-02 6.288229554033578e-02 1.797065358247592e-02 5.948989814647135e-02 2.444150762037783e-02
705295000.0000000000 8.263760850854718e-02 2.286678356217352e-02 8.336677876533866e-02 2.517631707632077e-02 6.069923552232616e-02 -1.225048535674446e-02 3.185935528561581e-01 -4.367085365124280e-01
            8.325887761216105e-02 2.529189717840057e-02 8.255976050502853e-02 2.287507130195031e-02 3.185315206036568e-01 -4.366378964553481e-01 6.062833923558447e-02 -1.225324697623462e-02
            6.074478163127303e-02 -1.219916020915498e-02 3.185825023531905e-01 -4.366708647158072e-01 7.907491269768072e-02 2.827165751035570e-02 8.192870059488942e-02 2.338298363304758e-02
            3.186364562078528e-01 -4.366874130633002e-01 6.063879558738793e-02 -1.218937205845923e-02 8.193521925993295e-02 2.342660531072128e-02 7.909458363669526e-02 2.831054915905766e-02
706127500.0000000000 9.893418458866121e-02 1.287271653618883e-02 1.002804056861459e-01 1.684969502722480e-02 4.989690273056855e-02 -3.170279094076133e-02 1.448951214565730e-01 -5.191063361484958e-01
            1.003155079868668e-01 1.692421339314125e-02 9.895286026415424e-02 1.282724833859795e-02 1.448700697652414e-01 -5.191552540738532e-01 4.994463420523612e-02 -3.183771790345197e-02
            4.988008274369933e-02 -3.188633322962638e-02 1.448666440081349e-01 -5.191397300936005e-01 9.640389285822182e-02 1.837048787347571e-02 9.888784823783205e-02 1.470463520275312e-02
            1.449249072125563e-01 -5.191175252304912e-01 4.991550392304529e-02 -3.178192829588536e-02 9.886930811522925e-02 1.461308998188848e-02 9.625843956421862e-02 1.844963772414606e-02
706960000.0000000000 1.047378566794434e-01 -5.265951279844950e-03 1.068760965027978e-01 -2.857158247559324e-04 3.425394361669262e-02 -4.654775329778628e-02 -4.538703983225336e-02 -5.363304404257683e-01
            1.069541826324046e-01 -2.523516638558251e-04 1.047715013155181e-01 -5.301157880551808e-03 -4.539357112653536e-02 -5.363691085885045e-01 3.428476687719066e-02 -4.656395785344426e-02
            3.429502154391179e-02 -4.646957830571800e-02 -4.527746200101624e-02 -5.363412379587772e-01 1.027112454268993e-01 -4.982011770794845e-04 1.049826442048525e-01 -3.138014492999944e-03
            -4.535614338781330e-02 -5.363198513785987e-01 3.425563449671760e-02 -4.652313944337669e-02 1.049906112685326e-01 -3.150729896506039e-03 1.027240205318436e-01 -4.914001684414413e-04
707792500.0000000000 9.744989431237720e-02 -2.264081476907116e-02 1.001007707911736e-01 -1.727455450388599e-02 1.435470761264778e-02 -5.549900161106096e-02 -2.298575725734900e-01 -4.873596837221988e-01
            1.001910911542626e-01 -1.719422924804569e-02 9.743715341593612e-02 -2.264398946588523e-02 -2.298096532908524e-01 -4.874034431233641e-01 1.434242292156191e-02 -5.551486794436056e-02
            1.428789211506867e-02 -5.554895534241065e-02 -2.299036928931791e-01 -4.874168825902402e-01 9.527107567052109e-02 -1.907068272694287e-02 9.712207669197069e-02 -2.049920154750506e-02
            -2.297867190088323e-01 -4.873239467472120e-01 1.426819716061264e-02 -5.559378234674866e-02 9.727325255739898e-02 -2.051273712933498e-02 9.521182533797796e-02 -1.906215908170446e-02
708625000.0000000000 8.053824548715206e-02 -3.101280022102198e-02 8.353766347414812e-02 -2.523880613877161e-02 -8.730281655675359e-03 -5.665812989306294e-02 -3.871461691391193e-01 -3.770529000370932e-01
            8.348999235734979e-02 -2.520756419980315e-02 8.056802151481461e-02 -3.103178867015041e-02 -3.870671861966188e-01 -3.771079831485963e-01 -8.732094969571674e-03 -5.661701666302623e-02
            -8.706744701537457e-03 -5.667458660804004e-02 -3.870736422965823e-01 -3.770812904099333e-01 7.715499094227146e-02 -2.843270042883711e-02 7.901751345224083e-02 -2.828908385372369e-02
            -3.871750754644559e-01 -3.772135496024367e-01 -8.752388037799746e-03 -5.656712645621385e-02 7.914476138371999e-02 -2.837590971991775e-02 7.712408619369451e-02 -2.842632090060279e-02
709457500.0000000000 6.249641265145604e-02 -2.599750231446617e-02 6.555835805719891e-02 -1.963086348762178e-02 -3.104790112888416e-02 -4.761298069195678e-02 -4.968435493022314e-01 -2.171032783154226e-01
            6.555886534871808e-02 -1.964956508157494e-02 6.248158578152418e-02 -2.593877834493201e-02 -4.967539923503372e-01 -2.171813563976042e-01 -3.109018068137372e-02 -4.754070764107749e-02
            -3.104507235332530e-02 -4.757379221962024e-02 -4.968799440759080e-01 -2.171447462214700e-01 5.709774322799219e-02 -2.352261718128023e-02 5.969614445367995e-02 -2.176818357366066e-02
            -4.967741684308209e-01 -2.171987862784406e-01 -3.109541222141096e-02 -4.754226556281718e-02 5.974403793627051e-02 -2.174469578778361e-02 5.711497492953339e-02 -2.356194191180225e-02
710290000.0000000000 5.255526584392235e-02 -1.020456443236842e-02 5.595301788826868e-02 -2.976990625584365e-03 -4.711607718417239e-02 -2.918823420921847e-02 -5.425265994006181e-01 -2.693277343939560e-02
            5.600144585968544e-02 -3.025576818897082e-03 5.254006755453073e-02 -1.015841551348717e-02 -5.425804890323416e-01 -2.697184075597853e-02 -4.696651518335013e-02 -2.917552959893056e-02
            -4.706060754286141e-02 -2.910336613444755e-02 -5.426038262236484e-01 -2.699808067851939e-02 4.529911450875334e-02 -6.388704512292008e-03 4.910856900112748e-02 -3.460401744568123e-03
            -5.425169202298599e-01 -2.701540320207760e-02 -4.710411445571071e-02 -2.911435261623481e-02 4.925383860427221e-02 -3.404174798610193e-03 4.531809495289581e-02 -6.517372780878851e-03
711122500.0000000000 5.607506818271629e-02 7.929920156242991e-03 6.036322877579467e-02 1.598518320434149e-02 -5.258440312259367e-02 -6.233895334345041e-03 -5.164224355898392e-01 1.672250074347102e-01
            6.033842780938811e-02 1.603785613396913e-02 5.610289242916967e-02 7.893684922290835e-03 -5.164399338497070e-01 1.671557999238808e-01 -5.253607930209689e-02 -6.183153209313739e-03
            -5.259838060351692e-02 -6.259135961562651e-03 -5.165307118579878e-01 1.672028621999820e-01 4.777526997502835e-02 1.411791478063843e-02 5.344193045454858e-02 1.766413094993338e-02
            -5.163483859608430e-01 1.671597601435868e-01 -5.258300319582537e-02 -6.137917295029221e-03 5.338348317145730e-02 1.766472800435288e-02 4.779107184936411e-02 1.402159298094127e-02
711955000.0000000000 7.093111934802243e-02 1.864334545854483e-02 7.646959720435914e-02 2.703642272607013e-02 -4.766211580200394e-02 1.501402930078046e-02 -4.226676445273941e-01 3.381963173266301e-01
            7.645663231060489e-02 2.694812924287400e-02 7.081189987291980e-02 1.860924631927648e-02 -4.226426487195964e-01 3.382153923330857e-01 -4.770812986912272e-02 1.494356265683841e-02
            -4.760757974681085e-02 1.501558291065476e-02 -4.228132226797076e-01 3.381602996785855e-01 6.306440695604780e-02 2.744551111973990e-02 7.042688462335951e-02 3.076009999490902e-02
            -4.227317898226511e-01 3.382489700536325e-01 -4.763133604681823e-02 1.496434213055118e-02 7.045125944966973e-02 3.068072853071586e-02 6.314457393970804e-02 2.747919777117823e-02
712787500.0000000000 8.873761581243098e-02 1.632430029586925e-02 9.583502581901172e-02 2.429278653014961e-02 -3.595046346443456e-02 3.071277032431683e-02 -2.758216239846144e-01 4.635815761488688e-01
            9.578981413268636e-02 2.438289359622318e-02 8.870967710240024e-02 1.637757791758022e-02 -2.758376677677706e-01 4.635492470218227e-01 -3.602734010714288e-02 3.073411977707239e-02
            -3.599967566261739e-02 3.070229219048135e-02 -2.758139273993194e-01 4.636051286632857e-01 8.285533723621941e-02 2.733862046308484e-02 9.137274159794105e-02 2.952975573729610e-02
            -2.758256579904262e-01 4.635111480756300e-01 -3.600972583520246e-02 3.070011130362277e-02 9.137761426650257e-02 2.946828850811298e-02 8.289206403308137e-02 2.735607389521226e-02
713620000.0000000000 1.003155638567732e-01 2.580640391771104e-03 1.083323273947292e-01 9.568082926731341e-03 -2.105296444851130e-02 4.056600704855766e-02 -9.609027948390199e-02 5.294002371424695e-01
            1.083517519309500e-01 9.588552604423964e-03 1.003197466751172e-01 2.676368415973066e-03 -9.608170151271725e-02 5.293913420216815e-01 -2.106522959980363e-02 4.051029884353612e-02
            -2.099083152304389e-02 4.046083728710247e-02 -9.611706301977546e-02 5.293257984655547e-01 9.714900911024053e-02 1.450505664157811e-02 1.059160496626441e-01 1.517014892115676e-02
            -9.614366706224500e-02 5.294073685754852e-01 -2.103188429176885e-02 4.053172194519780e-02 1.059083119251128e-01 1.525182296933629e-02 9.710520714879053e-02 1.446759821762112e-02
714452500.0000000000 9.979724747066085e-02 -1.540314414902403e-02 1.080623900381651e-01 -9.907264428018240e-03 -4.298073182214602e-03 4.502590861073973e-02 9.440420227316663e-02 5.294611313181833e-01
            1.081459388658887e-01 -9.917897788822336e-03 9.979969206236698e-02 -1.544953689258023e-02 9.438801672213638e-02 5.294885675943101e-01 -4.320310532331000e-03 4.489605978445154e-02
            -4.329031034681814e-03 4.500615816642822e-02 9.434389852226370e-02 5.294302037436445e-01 9.937649518467484e-02 -4.163688207687951e-03 1.075351289919896e-01 -4.667760017418908e-03
            9.444448637984951e-02 5.294721798383045e-01 -4.286972472895380e-03 4.498850103985817e-02 1.074695572802210e-01 -4.695974288359198e-03 9.934173177743459e-02 -4.197304816378617e-03
715285000.0000000000 8.709196786422591e-02 -2.885495476167877e-02 9.483772683399623e-02 -2.453044891197421e-02 1.377119667753180e-02 4.387101272608412e-02 2.739207941763029e-01 4.639891641125727e-01
            9.482630207348097e-02 -2.447654207259536e-02 8.712228938762069e-02 -2.895985791745605e-02 2.739385239686644e-01 4.640733543483208e-01 1.368655101135190e-02 4.388847702856268e-02
            1.376200682733963e-02 4.376078015798718e-02 2.738704347890776e-01 4.639887387018082e-01 8.863051147243756e-02 -1.940714098941280e-02 9.549708778432398e-02 -2.034225131900556e-02
            2.739909793035808e-01 4.640031413856781e-01 1.382683932995093e-02 4.378909354805430e-02 9.547523131452357e-02 -2.037763891003876e-02 8.863227656569324e-02 -1.950361504479178e-02
716117500.0000000000 6.826188265410042e-02 -3.061312916199380e-02 7.486363519598385e-02 -2.678205236878255e-02 3.135400966186026e-02 3.525471487491371e-02 4.207120525562482e-01 3.392289561529797e-01
            7.489054264109159e-02 -2.675811589726444e-02 6.823655305097288e-02 -3.061799601191445e-02 4.207320060427115e-01 3.392014588027381e-01 3.132087712017299e-02 3.514980068805200e-02
            3.140064590278922e-02 3.525884332023609e-02 4.207625213929959e-01 3.392647925078496e-01 7.037561523398334e-02 -2.351328513745841e-02 7.602471603516622e-02 -2.389063085411004e-02
            4.207113730700229e-01 3.392459932941521e-01 3.137457965829445e-02 3.522415571665988e-02 7.600894301959059e-02 -2.386984863857362e-02 7.045871067477279e-02 -2.358442442180884e-02
716950000.0000000000 5.262697171915968e-02 -1.910029410018378e-02 5.812637055955774e-02 -1.481618442875529e-02 4.436318214583059e-02 1.856784499480022e-02 5.148330831290093e-01 1.689030854636418e-01
            5.815314714275971e-02 -1.483730283717595e-02 5.252029609320401e-02 -1.897749909476855e-02 5.147644790880475e-01 1.689023437474229e-01 4.440784352655797e-02 1.864783531784803e-02
            4.444314063356317e-02 1.859316897396767e-02 5.147435826245118e-01 1.689827121837204e-01 5.421059877610829e-02 -1.402697570757295e-02 5.905055973950661e-02 -1.305881250540030e-02
            5.148534300185001e-01 1.688719559215594e-01 4.442836764803555e-02 1.854059837414575e-02 5.912125894906280e-02 -1.306374398767367e-02 5.425678520949242e-02 -1.397574412369198e-02
717782500.0000000000 4.846070302820017e-02 4.980810514660645e-04 5.363897249131238e-02 5.541796950776590e-03 4.836375180221660e-02 -3.072362991964790e-03 5.414237918777031e-01 -2.483282048944254e-02
            5.370553439488904e-02 5.657563815735123e-03 4.852996021326998e-02 5.923436325984872e-04 5.414946058276120e-01 -2.486457352644070e-02 4.828052274289042e-02 -3.016696119117125e-03
            4.825695690470386e-02 -3.018837969318600e-03 5.415244832017764e-01 -2.486212819317125e-02 4.889947423060162e-02 4.349483052705685e-03 5.398958209352966e-02 6.605436865920295e-03
            5.414372456673722e-01 -2.481370757506671e-02 4.833985464767353e-02 -3.054264273138988e-03 5.399497848433799e-02 6.600069098416089e-03 4.893860593858499e-02 4.336443931165758e-03
718615000.0000000000 5.854514289170323e-02 1.803816064204889e-02 6.395435042505265e-02 2.390548457818362e-02 4.142039524091920e-02 -2.362465352099760e-02 4.964062780002043e-01 -2.147907343173936e-01
            6.393344159010667e-02 2.388082997096176e-02 5.850992861950609e-02 1.800054615780260e-02 4.963342065656401e-01 -2.148306372853191e-01 4.145428523969843e-02 -2.364231170661056e-02
            4.146827104729345e-02 -2.368280522477072e-02 4.963683558376456e-01 -2.147088794278289e-01 5.772798065272192e-02 2.131579769714992e-02 6.370252626505453e-02 2.480834596969371e-02
            4.964012188417876e-01 -2.147344249379627e-01 4.150403364619177e-02 -2.374096458203121e-02 6.364889711223533e-02 2.477483284347684e-02 5.767433612766334e-02 2.128695649669924e-02
719447500.0000000000 7.744159014628917e-02 2.453002885281532e-02 8.372204546990465e-02 3.070777524765352e-02 2.666489260302421e-02 -3.794099209822997e-02 3.871077378604935e-01 -3.746110849158292e-01
            8.363227440170506e-02 3.068220202291331e-02 7.750904390901732e-02 2.449663843944203e-02 3.871471264915783e-01 -3.746466043807118e-01 2.673630431711143e-02 -3.796616705619704e-02
            2.667911166499526e-02 -3.804840395632351e-02 3.871073643403590e-01 -3.746039776767141e-01 7.586689698339824e-02 2.784512110762620e-02 8.313004584196856e-02 3.183408699917608e-02
            3.871220683142301e-01 -3.746464994314064e-01 2.670558069981849e-02 -3.793479260829802e-02 8.311828113190554e-02 3.176204295566547e-02 7.588092835294322e-02 2.783437882538621e-02
720280000.0000000000 9.586334891107622e-02 1.725910664954109e-02 1.027597114929277e-01 2.290164908718077e-02 8.978254471287953e-03 -4.425569645101204e-02 2.305682296775319e-01 -4.846127689428878e-01
            1.028946711684271e-01 2.294703578169868e-02 9.587286102299034e-02 1.718239577810019e-02 2.304994312729495e-01 -4.846601846136924e-01 8.974428612448562e-03 -4.430390266340220e-02
            8.899065576724185e-03 -4.425174415431235e-02 2.304882094676918e-01 -4.846948853745223e-01 9.391077932900480e-02 2.043260124349330e-02 1.021617901692072e-01 2.404360708017228e-02
            2.305419981881945e-01 -4.846338066117391e-01 8.989021447291060e-03 -4.424997981150254e-02 1.021887841353781e-01 2.412054603915620e-02 9.393573998676136e-02 2.048173795328769e-02
721112500.0000000000 1.048976776039802e-01 5.293867151601899e-06 1.120847840027328e-01 4.976435261647321e-03 -8.332926602757602e-03 -4.375468878615982e-02 4.699325570051776e-02 -5.335749723499643e-01
            1.120832298837421e-01 4.858578622170027e-03 1.049634091220403e-01 2.990573829956577e-05 4.694354279125620e-02 -5.335219020016804e-01 -8.419918452007831e-03 -4.380988300307104e-02
            -8.456969948158500e-03 -4.385081275839390e-02 4.698353710045108e-02 -5.335352891177372e-01 1.028481983804960e-01 2.864361902113774e-03 1.114600877929094e-01 5.888088667361684e-03
            4.695990213707683e-02 -5.335293776549702e-01 -8.453593105962118e-03 -4.380919014746932e-02 1.116392960066354e-01 5.926274195520833e-03 1.028948967277646e-01 2.869811213770954e-03
721945000.0000000000 1.009429657386731e-01 -1.867592388984433e-02 1.074762410146352e-01 -1.456967407098099e-02 -2.442750340501833e-02 -3.832016796095354e-02 -1.419194621523200e-01 -5.167393071161911e-01
            1.075068162793606e-01 -1.453610881646873e-02 1.009293755814715e-01 -1.864020272911325e-02 -1.419642935612885e-01 -5.166429970477666e-01 -2.444778075152331e-02 -3.832859632815496e-02
            -2.445680670969240e-02 -3.840275766154303e-02 -1.419251640664659e-01 -5.167528400812650e-01 9.818038309566086e-02 -1.671048127358511e-02 1.066901719219901e-01 -1.415035429604212e-02
            -1.419490992591617e-01 -5.166404608624127e-01 -2.444226750062585e-02 -3.829107195820995e-02 1.066548541929415e-01 -1.411755554757999e-02 9.806515540333710e-02 -1.672565714270789e-02
722777500.0000000000 8.598283651106087e-02 -3.008751498848659e-02 9.131577612517630e-02 -2.624947106548448e-02 -3.871935401829668e-02 -2.757621676057051e-02 -3.144596696210876e-01 -4.354372928030478e-01
            9.135975630227676e-02 -2.619800458455471e-02 8.590175691118590e-02 -3.012585625554558e-02 -3.144958645644946e-01 -4.354542137889377e-01 -3.877730893363077e-02 -2.753710676079160e-02
            -3.881346108100543e-02 -2.749001991483064e-02 -3.145559505222438e-01 -4.355122462081358e-01 8.175857836119328e-02 -2.887404557297961e-02 8.974899592656259e-02 -2.616209282300781e-02
            -3.145287274837029e-01 -4.355077106727701e-01 -3.880125708039550e-02 -2.754855478607465e-02 8.976582318796793e-02 -2.614376180709190e-02 8.169831470612759e-02 -2.888950045453156e-02
723610000.0000000000 6.734615265650483e-02 -2.882200292183245e-02 7.155594980947352e-02 -2.408197940678738e-02 -4.932255753679890e-02 -1.066007686691869e-02 -4.490589430939881e-01 -2.976367318128950e-01
            7.152631460406439e-02 -2.412146781071141e-02 6.735102199546347e-02 -2.886375098591197e-02 -4.490335325978636e-01 -2.977299351248452e-01 -4.940862225528189e-02 -1.052217747391401e-02
            -4.927418380292164e-02 -1.067155124067718e-02 -4.490488770503497e-01 -2.977879906543395e-01 6.101333164746443e-02 -2.760608630931629e-02 6.872942215850096e-02 -2.392798254630879e-02
            -4.490338945052550e-01 -2.976735047881420e-01 -4.937485807327480e-02 -1.061852038597649e-02 6.871185303756923e-02 -2.386770449179388e-02 6.103412330208095e-02 -2.756612203991446e-02
724442500.0000000000 5.459310783723224e-02 -1.542850533798735e-02 5.834627443660823e-02 -9.094870600269468e-03 -5.217554943155261e-02 1.134112898071047e-02 -5.263470368595510e-01 -1.196190136333786e-01
            5.833883329625943e-02 -9.144628044050813e-03 5.457617273979219e-02 -1.553212361906451e-02 -5.263941070862609e-01 -1.195617129046473e-01 -5.206199865513222e-02 1.138572145273280e-02
            -5.219485072186904e-02 1.137294936696388e-02 -5.263049028460084e-01 -1.196373624856515e-01 4.616986557187228e-02 -1.304917915593132e-02 5.435106270868594e-02 -8.053923092531612e-03
            -5.263498483484302e-01 -1.195643021158121e-01 -5.216174133669516e-02 1.133572488201362e-02 5.434532957825720e-02 -8.097598974942437e-03 4.610388079862369e-02 -1.314138481800184e-02
725275000.0000000000 5.442679389950777e-02 2.581190544034654e-03 5.890889461548766e-02 1.082011650990321e-02 -4.406040521973974e-02 3.375009774485329e-02 -5.340928113375244e-01 7.509297877964040e-02
            5.892112233588875e-02 1.092283562390517e-02 5.443990640931329e-02 2.663638860322949e-03 -5.341839588644660e-01 7.515431234569815e-02 -4.412554853331410e-02 3.379787546625361e-02
            -4.420004056467433e-02 3.378696315943662e-02 -5.341690861334821e-01 7.509001749528227e-02 4.457272593530699e-02 7.331267748823563e-03 5.410923214145653e-02 1.358489492008618e-02
            -5.341185117759959e-01 7.505902987996220e-02 -4.412655536479249e-02 3.379185698010838e-02 5.419032118576650e-02 1.362319321029947e-02 4.453940110323146e-02 7.407331504349512e-03
726107500.0000000000 6.654046065377900e-02 1.556482613947691e-02 7.293080631922506e-02 2.509217017917516e-02 -2.630471089444765e-02 5.029377857102859e-02 -4.715336141210988e-01 2.586607407559629e-01
            7.292738064273059e-02 2.510375849226267e-02 6.655796100996282e-02 1.566016439208711e-02 -4.715205159871454e-01 2.586427666312321e-01 -2.630331736066467e-02 5.033572537069059e-02
            -2.629451032981097e-02 5.029368526197336e-02 -4.714821535691484e-01 2.586215450880354e-01 5.670359034706903e-02 2.311878057057946e-02 6.839191705443466e-02 2.982262908194360e-02
            -4.714945245421811e-01 2.586658142466526e-01 -2.626867981077537e-02 5.025704711585373e-02 6.842150926796006e-02 2.987899009833986e-02 5.667511022595711e-02 2.314153449414861e-02
726940000.0000000000 8.387190018777398e-02 1.671910182663705e-02 9.288522522711745e-02 2.611704603421361e-02 -3.562580991389894e-03 5.693909239701311e-02 -3.488190670647381e-01 4.063541855525440e-01
            9.286752565986184e-02 2.609947883361132e-02 8.386594468754151e-02 1.673607825212146e-02 -3.488802239328852e-01 4.064028167799406e-01 -3.527657069301683e-03 5.698062201258221e-02
            -3.484149752699432e-03 5.691183436517520e-02 -3.488904519605415e-01 4.063249077625781e-01 7.561147000753558e-02 2.647366808265763e-02 8.960824794083397e-02 3.262208716213084e-02
            -3.489116800763835e-01 4.063971366739583e-01 -3.512060620393422e-03 5.699943785765389e-02 8.957940831634072e-02 3.260436204495555e-02 7.548272928511802e-02 2.644920808127084e-02
727772500.0000000000 9.725520241474123e-02 5.882242760637683e-03 1.083692236877342e-01 1.354273328784827e-02 1.890158621102226e-02 5.388019581631370e-02 -1.840885149355343e-01 5.010749517141024e-01
            1.084161195401992e-01 1.366298914249701e-02 9.733537435464321e-02 5.898785491631694e-03 -1.840496445836799e-01 5.010225500794938e-01 1.891307103358993e-02 5.395764583052533e-02
            1.892109305757628e-02 5.388228621756679e-02 -1.841390447086888e-01 5.010187160961602e-01 9.120443882183840e-02 1.652862050522178e-02 1.070305131256871e-01 2.095513331498245e-02
            -1.840924347573414e-01 5.010410453204825e-01 1.889340472038363e-02 5.391657582032415e-02 1.069854857717068e-01 2.109757105783338e-02 9.118322038842087e-02 1.647801731653578e-02
728605000.0000000000 9.991690650749606e-02 -1.098126876272473e-02 1.118983336485903e-01 -6.086830498826358e-03 3.785668942598668e-02 4.357753987881888e-02 2.125143719210297e-03 5.331187569146514e-01
            1.119029554658323e-01 -6.083474861033562e-03 9.987638887130337e-02 -1.094666586490348e-02 2.169673539491175e-03 5.331655686207185e-01 3.777983791570259e-02 4.357225291728450e-02
            3.776794435623999e-02 4.357404079872046e-02 2.104213819894805e-03 5.331705707904149e-01 9.595937629849510e-02 -1.280734057750278e-03 1.125780530381559e-01 1.139260316329027e-03
            2.134279466640225e-03 5.331131224666554e-01 3.781053805554963e-02 4.360102511387258e-02 1.125256695337723e-01 1.226887603217279e-03 9.590207399222593e-02 -1.168819800724455e-03
729437500.0000000000 9.049775333339552e-02 -2.557456967903696e-02 1.014954341724911e-01 -2.344388673860701e-02 5.245319348651044e-02 2.794323140504292e-02 1.883251590009533e-01 4.994081907286780e-01
            1.015571888312941e-01 -2.344822863215478e-02 9.056502714439452e-02 -2.549827249334071e-02 1.883679322241753e-01 4.994380969498324e-01 5.239077641545371e-02 2.791181396122890e-02
            5.242759900973202e-02 2.792126488415562e-02 1.883258609005499e-01 4.993673893267526e-01 8.736665920259661e-02 -1.748495228587975e-02 1.039294369834122e-01 -1.711956982739748e-02
            1.883193303856521e-01 4.993817595622953e-01 5.241048517068959e-02 2.798533935423269e-02 1.039396087851521e-01 -1.709637476972930e-02 8.740310034739697e-02 -1.758769747035439e-02
730270000.0000000000 7.349094959606889e-02 -3.002705434922316e-02 8.216762935844268e-02 -2.989443892893608e-02 6.197769395909349e-02 7.443801605065625e-03 3.525562071568062e-01 4.025369665229696e-01
            8.202888477177439e-02 -2.986337726284679e-02 7.359448310361380e-02 -3.003255134215837e-02 3.526466347074024e-01 4.024847849252496e-01 6.194793281849295e-02 7.369078732380613e-03
            6.188410515356856e-02 7.443960649027104e-03 3.525507878524904e-01 4.025003830417126e-01 6.969918791471978e-02 -2.415483970149635e-02 8.526384951198245e-02 -2.504075675478432e-02
            3.525324189883792e-01 4.025247555101609e-01 6.191029374768326e-02 7.443869635878494e-03 8.538447061318558e-02 -2.498947796730207e-02 6.966224537797690e-02 -2.408730729034434e-02
731102500.0000000000 5.765796798230992e-02 -2.185154583768807e-02 6.298030700814031e-02 -2.163034717289299e-02 6.375647868006913e-02 -1.742790361701806e-02 4.730554544679926e-01 2.524805163413057e-01
            6.299139254590992e-02 -2.160377645837249e-02 5.770068805531752e-02 -2.185700032301505e-02 4.730242631876010e-01 2.524827751560411e-01 6.375457645949997e-02 -1.742544742390074e-02
            6.380021621350433e-02 -1.746138872068829e-02 4.730688040595038e-01 2.525744625775928e-01 5.158430048772125e-02 -1.698094933212299e-02 6.633115540179188e-02 -1.837620793898057e-02
            4.730360914969916e-01 2.526122642526782e-01 6.377798917145107e-02 -1.744573147659514e-02 6.627063344429888e-02 -1.835442777602346e-02 5.152993187714982e-02 -1.694284923763677e-02
731935000.0000000000 5.147803005124985e-02 -4.754801358134677e-03 5.414224480608733e-02 -2.625345119734277e-03 5.482085315715481e-02 -4.330044216026078e-02 5.321125582478066e-01 6.833977244055853e-02
            5.414994730088921e-02 -2.626248902802424e-03 5.152141130048360e-02 -4.729245649119974e-03 5.320376869241531e-01 6.824709441876492e-02 5.477037484246087e-02 -4.324438895659596e-02
            5.475909622919464e-02 -4.327872671195139e-02 5.320793643430979e-01 6.829765080200008e-02 4.257368275473279e-02 8.437775315282259e-04 5.703079743256625e-02 -4.772852151154132e-04
            5.320476616939077e-01 6.826304559206048e-02 5.476906505755089e-02 -4.319667591849824e-02 5.699193822322456e-02 -4.435032962315791e-04 4.265383438621586e-02 8.577580128043210e-04
732767500.0000000000 5.855547316278573e-02 1.218078242422803e-02 6.026847783789462e-02 1.746030667568900e-02 3.437782088226712e-02 -6.413527081065704e-02 5.204537245352971e-01 -1.246502778538539e-01
            6.027549794240734e-02 1.742109492916476e-02 5.864887211106025e-02 1.217795731080046e-02 5.204590818282434e-01 -1.247346375756152e-01 3.435515067568398e-02 -6.404550492934080e-02
            3.431247529408769e-02 -6.411384165748645e-02 5.204548419012293e-01 -1.246429269719010e-01 4.781201785841216e-02 2.019329577374481e-02 6.245556436252554e-02 1.909464411044043e-02
            5.203627254210041e-01 -1.246838265828570e-01 3.426342245446013e-02 -6.407264562745883e-02 6.241853926661476e-02 1.910788412333311e-02 4.781251141036467e-02 2.025148298472509e-02
733600000.0000000000 7.538621612675639e-02 1.979147547544611e-02 7.813774910868619e-02 2.829286991292294e-02 6.127393084379679e-03 -7.413188415753637e-02 4.410718469391210e-01 -2.991567386075497e-01
            7.809564293706928e-02 2.822504819962506e-02 7.548089942106752e-02 1.973919163236683e-02 4.410641867407066e-01 -2.991203604339788e-01 6.160946847360606e-03 -7.417823861611128e-02
            6.132942479753089e-03 -7.418791260221418e-02 4.410826647582775e-01 -2.991846185327350e-01 6.446996955159964e-02 3.117545913439964e-02 7.998516909779860e-02 2.963063452851252e-02
            4.410306845457772e-01 -2.991688426873235e-01 6.133203422732734e-03 -7.410125797592736e-02 7.985292594606118e-02 2.966241722349469e-02 6.446086542557655e-02 3.123658262364603e-02
734432500.0000000000 9.296428722027036e-02 1.424969144359190e-02 9.848784786035587e-02 2.470242831171013e-02 -2.326439700410182e-02 -7.149303312532672e-02 3.068581563722089e-01 -4.330423641784394e-01
            9.844694632718834e-02 2.476671053620819e-02 9.298634394729488e-02 1.421078608182894e-02 3.067606163562344e-01 -4.329563611651006e-01 -2.330268381342537e-02 -7.142503788170589e-02
            -2.330237025333077e-02 -7.145466365058453e-02 3.067561481365180e-01 -4.330119674037829e-01 8.374754935715902e-02 2.848916125241586e-02 9.998014737274502e-02 2.587680252900518e-02
            3.067827529917146e-01 -4.330401752066663e-01 -2.323207831129768e-02 -7.142981077518527e-02 9.994302606922141e-02 2.581934572138605e-02 8.365370870608622e-02 2.852259227189709e-02
735265000.0000000000 1.025365024186333e-01 -1.404808984031652e-03 1.113177866416186e-01 9.154895889118209e-03 -4.829712151529218e-02 -5.813371295290333e-02 1.360138527317425e-01 -5.114121082787023e-01
            1.114227884486646e-01 9.045728173190323e-03 1.025858723099956e-01 -1.483997002735183e-03 1.360628766555169e-01 -5.113976850563035e-01 -4.830512324863127e-02 -5.815991868810075e-02
            -4.831084130386250e-02 -5.809995991852397e-02 1.360428089874032e-01 -5.113679473244254e-01 9.621520730840055e-02 1.396176891257263e-02 1.126296276414883e-01 9.387053927009661e-03
            1.359936320055726e-01 -5.114282322294291e-01 -4.832800171384313e-02 -5.816398906017652e-02 1.126798987023881e-01 9.431316173145604e-03 9.611202702821041e-02 1.412321389436033e-02
736097500.0000000000 9.958761747544476e-02 -1.958213152380812e-02 1.112536814408219e-01 -1.094243272963983e-02 -6.678949462620323e-02 -3.767541813161670e-02 -5.073423096331399e-02 -5.264805058648802e-01
            1.112960623843456e-01 -1.092740155462208e-02 9.953982138015555e-02 -1.972317578734291e-02 -5.057113019827420e-02 -5.264173414484443e-01 -6.681585882539921e-02 -3.766485292182262e-02
            -6.679192701128794e-02 -3.765368859858676e-02 -5.063324535811391e-02 -5.265244287126979e-01 9.606123394743558e-02 -4.755310329967533e-03 1.116296035402716e-01 -1.155745445199706e-02
            -5.066451224534641e-02 -5.265275534791548e-01 -6.670117956810874e-02 -3.778146250337427e-02 1.116140894653040e-01 -1.153409792875271e-02 9.602597027511638e-02 -4.905785044263081e-03
736930000.0000000000 8.546564854872060e-02 -3.157675666343884e-02 9.841461066294190e-02 -2.576852104746033e-02 -7.792512954924680e-02 -1.242260245381022e-02 -2.319597149427719e-01 -4.762944399166534e-01
            9.831247974503969e-02 -2.582614519695914e-02 8.539988590377405e-02 -3.157271108746974e-02 -2.320035022160614e-01 -4.764303615558778e-01 -7.795267659554049e-02 -1.231096490149760e-02
            -7.795361017511794e-02 -1.246863210742722e-02 -2.319193739543119e-01 -4.763053254976343e-01 8.337968085509982e-02 -1.901964387206522e-02 9.703979505518920e-02 -2.728039664880128e-02
            -2.320160765779209e-01 -4.763997728341208e-01 -7.789723735423555e-02 -1.239074496247834e-02 9.699775288436396e-02 -2.727182690616300e-02 8.336342073748305e-02 -1.897282896465959e-02
737762500.0000000000 6.680209117922423e-02 -3.120210251053394e-02 7.907908693717064e-02 -2.846622397664959e-02 -8.070424599670172e-02 1.661548252696984e-02 -3.856701518965404e-01 -3.651902515479911e-01
            7.918550308039460e-02 -2.840934855656214e-02 6.676191263670199e-02 -3.130852881041349e-02 -3.857317005551421e-01 -3.651806390421367e-01 -8.072906708516005e-02 1.662179802159535e-02
            -8.073749284563193e-02 1.663439182677505e-02 -3.856679585288624e-01 -3.651531695056117e-01 6.417775718361393e-02 -2.114681334407787e-02 7.537694855834504e-02 -3.000334108293571e-02
            -3.856818620898712e-01 -3.651868899875467e-01 -8.074085963725609e-02 1.668668444629835e-02 7.539121646495719e-02 -2.997647383650857e-02 6.421252069439169e-02 -2.108469966903158e-02
738595000.0000000000 5.304185555784448e-02 -1.859065727963657e-02 6.342059447192258e-02 -1.768566383013509e-02 -7.257707704901294e-02 4.727628595141351e-02 -4.907181428974131e-01 -2.053263139488689e-01
            6.345650844175720e-02 -1.770721797170022e-02 5.301743044698577e-02 -1.847971518926162e-02 -4.907594884171464e-01 -2.052486489992972e-01 -7.259157649212529e-02 4.718532271149080e-02
            -7.257433907454335e-02 4.718823723472637e-02 -4.907971812675631e-01 -2.053670655292404e-01 4.829469981363189e-02 -9.778500732853336e-03 5.705556718680447e-02 -1.785322450121450e-02
            -4.906782578727406e-01 -2.052794352419466e-01 -7.257744774064878e-02 4.721408374925305e-02 5.699775342860768e-02 -1.781623601901542e-02 4.833271115832839e-02 -9.718370778401651e-03
739427500.0000000000 5.159272094383184e-02 2.110984110369596e-04 5.944936663767347e-02 5.386459403886878e-04 -5.172365816143426e-02 7.451050112164966e-02 -5.313139754375111e-01 -1.767858990543524e-02
            5.951748787808110e-02 5.268573717884016e-04 5.154368447904752e-02 1.528779715323775e-04 -5.312244092804580e-01 -1.764137481913013e-02 -5.169048490209568e-02 7.455717634619270e-02
            -5.173247278554705e-02 7.444411408874933e-02 -5.311809527897589e-01 -1.763821365450050e-02 4.409960425455813e-02 9.614312420427238e-03 5.118094000300662e-02 3.146444085584148e-03
            -5.311877925517192e-01 -1.771181665093652e-02 -5.169179023139319e-02 7.443582170256434e-02 5.108314741038326e-02 3.164784470053019e-03 4.413865098144366e-02 9.669759301994735e-03
740260000.0000000000 6.314574213487804e-02 1.493898439520826e-02 6.927031605356157e-02 1.610151864259832e-02 -1.979532206209910e-02 9.158779124043848e-02 -5.014410799830317e-01 1.711994502308233e-01
            6.921730644438805e-02 1.607232789814389e-02 6.315047288945332e-02 1.495985051983744e-02 -5.014043187910062e-01 1.711522564092418e-01 -1.980013599906269e-02 9.165613078019913e-02
            -1.984069366440964e-02 9.164229287488278e-02 -5.013282310917063e-01 1.711558712900916e-01 5.402122031267239e-02 2.668059761187562e-02 6.038492297276105e-02 2.236323468643122e-02
            -5.013895570190186e-01 1.713390411942134e-01 -1.977414506452550e-02 9.164659305998762e-02 6.045235915843866e-02 2.232669875473486e-02 5.395857104002686e-02 2.669452793615937e-02
741092500.0000000000 8.166328404612910e-02 1.812206440550926e-02 8.697690641664939e-02 2.056794702569978e-02 1.699704307598477e-02 9.409257691077320e-02 -4.070816301394362e-01 3.353268977189868e-01
            8.694317419429094e-02 2.056014869181148e-02 8.162651140420975e-02 1.817663583739220e-02 -4.070702008001132e-01 3.353483493675830e-01 1.706132945799489e-02 9.399234665766019e-02
            1.701222610962501e-02 9.406476014725790e-02 -4.071376307801710e-01 3.353317710773212e-01 7.272617364433266e-02 3.275772888195484e-02 7.951011248249014e-02 3.010516308677492e-02
            -4.071412061177063e-01 3.353560337542045e-01 1.705386894612633e-02 9.409009288120593e-02 7.948296706818250e-02 3.019706409696784e-02 7.265083837887179e-02 3.264819430089950e-02
741925000.0000000000 9.761769561513610e-02 8.373481977325738e-03 1.031277406147331e-01 1.184336933905478e-02 5.135894304217391e-02 8.171158110890209e-02 -2.628156766479611e-01 4.547950505786505e-01
            1.031962051645532e-01 1.184361627804747e-02 9.760411251969357e-02 8.367301910967321e-03 -2.628315133358171e-01 4.548230309264760e-01 5.139420220979534e-02 8.183675975488135e-02
            5.144053883574431e-02 8.173748589372073e-02 -2.628102084938782e-01 4.547569247808869e-01 9.032248899468545e-02 2.461243513892505e-02 9.828319966647822e-02 2.329983818074783e-02
            -2.627689155736122e-01 4.547553847872524e-01 5.133183405270529e-02 8.174389875038218e-02 9.832632680957608e-02 2.323545125705401e-02 9.033132127286214e-02 2.459640120657407e-02
742757500.0000000000 1.035077197436641e-01 -9.286006599197991e-03 1.097116171963966e-01 -5.585371973089049e-03 7.798392612431856e-02 5.819367961514171e-02 -8.754252693760274e-02 5.167424203954484e-01
            1.096867410755449e-01 -5.575362945638728e-03 1.035605790363941e-01 -9.229614393777445e-03 -8.745699288343670e-02 5.167924057951415e-01 7.801302792073926e-02 5.822312260473463e-02
            7.804396656848286e-02 5.818147755296422e-02 -8.757171221743627e-02 5.168135856858860e-01 9.837897757737490e-02 6.714214075303493e-03 1.073226641909607e-01 5.779623033000906e-03
            -8.752376669171857e-02 5.167957656935548e-01 7.806129738523201e-02 5.820971595542972e-02 1.073390494386469e-01 5.804372130817889e-03 9.824454609020231e-02 6.731588652737340e-03
743590000.0000000000 9.708259310443766e-02 -2.639443897179353e-02 1.035276523147322e-01 -2.328905247619354e-02 9.484637038148723e-02 2.759206386259527e-02 9.833193872638266e-02 5.149492087859572e-01
            1.035101099743009e-01 -2.330723202712867e-02 9.711625704867448e-02 -2.638878355081005e-02 9.827443171043962e-02 5.149641036486874e-01 9.483119833898618e-02 2.761568409050931e-02
            9.487729047830992e-02 2.765796115147439e-02 9.831705980973181e-02 5.149933726339695e-01 9.241531824648334e-02 -1.250362485516777e-02 1.022637353376290e-01 -1.355070344053905e-02
            9.833854574877514e-02 5.149505701504867e-01 9.485974469268400e-02 2.761518675678673e-02 1.023027070269797e-01 -1.358796692932944e-02 9.246769847804363e-02 -1.252338681309843e-02
744422500.0000000000 8.180487521645127e-02 -3.524211907144899e-02 8.747300143247221e-02 -3.305609704082992e-02 1.012063633500553e-01 -7.198664576122402e-03 2.730336865377214e-01 4.486210062286110e-01
            8.741593705978774e-02 -3.311657693925479e-02 8.172507418366620e-02 -3.529347137315909e-02 2.730804423794789e-01 4.487063644710517e-01 1.012315403216487e-01 -7.170970085493478e-03
            1.011996942557967e-01 -7.117054969498238e-03 2.731078889401261e-01 4.486699448091447e-01 7.487805636256818e-02 -2.394476764237477e-02 8.510473275518216e-02 -2.513365222896516e-02
            2.731097295403521e-01 4.487029200243542e-01 1.011839350274145e-01 -7.169420045509570e-03 8.509480716821761e-02 -2.514556438157772e-02 7.480665720307418e-02 -2.395776210064446e-02
745255000.0000000000 6.545147320078132e-02 -3.215874217210081e-02 6.945511206261278e-02 -3.033467012925421e-02 9.568517055064209e-02 -4.378174011359141e-02 4.146606723001465e-01 3.241995954566810e-01
            6.950581096542235e-02 -3.038428641429228e-02 6.545304707403089e-02 -3.221434241473149e-02 4.145968454205303e-01 3.241789722864306e-01 9.571852904523127e-02 -4.379936235167219e-02
            9.571255807677892e-02 -4.372618794036864e-02 4.146155610055031e-01 3.241761315824130e-01 5.291365973896979e-02 -2.168046849955814e-02 6.351094870884397e-02 -2.272727278373441e-02
            4.145455431627674e-01 3.241199549721184e-01 9.568117787381894e-02 -4.389809664819355e-02 6.353001742916194e-02 -2.273332666329438e-02 5.286484805064013e-02 -2.159844803491183e-02
746087500.0000000000 5.647977749853652e-02 -1.996024721787822e-02 5.848025471646576e-02 -1.731501559563775e-02 7.648235756778901e-02 -7.849537941239099e-02 5.028703846976138e-01 1.562195215531682e-01
            5.850999009887775e-02 -1.735372545070896e-02 5.649465445476247e-02 -2.004321849093279e-02 5.028837596079410e-01 1.562144612979373e-01 7.638421890274652e-02 -7.851861898272459e-02
            7.651622090742294e-02 -7.849465671947785e-02 5.027643853141448e-01 1.561498746302202e-01 3.662226236155204e-02 -5.806486821537012e-03 4.757416946538712e-02 -6.560765880203680e-03
            5.028730317379033e-01 1.561562336770265e-01 7.643029705466708e-02 -7.849716985615991e-02 4.760727705829142e-02 -6.537890999856226e-03 3.662514263372191e-02 -5.743646198238075e-03
746920000.0000000000 5.912520064449262e-02 -6.836051695951396e-03 5.974617689361335e-02 -1.913699660346570e-03 4.357600075690021e-02 -1.048962594831307e-01 5.245728936853341e-01 -3.243451763577630e-02
            5.977487127606893e-02 -1.913562714074412e-03 5.913691598118834e-02 -6.725790048301373e-03 5.245862591401570e-01 -3.237350590932773e-02 4.361732525072876e-02 -1.049112608940975e-01
            4.351489202919746e-02 -1.048900303954331e-01 5.246271731209882e-01 -3.239718607587734e-02 3.321043980476298e-02 1.676465406818635e-02 4.515802458864816e-02 1.632964312695283e-02
            5.245994093909896e-01 -3.240008362137440e-02 4.352173506518001e-02 -1.049868519929000e-01 4.517360485625811e-02 1.634431551714561e-02 3.316616973670945e-02 1.678459431066569e-02
747752500.0000000000 7.045193158297823e-02 -1.192290264738490e-03 7.108397740522357e-02 6.616428215494727e-03 1.271540436753645e-03 -1.166095439863700e-01 4.774557701996917e-01 -2.151279608640983e-01
            7.104671672393330e-02 6.527788832784135e-03 7.042457709472563e-02 -1.106308515033337e-03 4.774306733389452e-01 -2.151677523104812e-01 1.177295683031689e-03 -1.166192651559128e-01
            1.219531301850516e-03 -1.166948568668318e-01 4.775040007239563e-01 -2.150532179180693e-01 4.342111322101846e-02 3.617757358480958e-02 5.670160270480153e-02 3.565954967336207e-02
            4.774718296535732e-01 -2.151303475835592e-01 1.273920362232415e-03 -1.166780311077960e-01 5.677582476228758e-02 3.558090513779383e-02 4.343292027504902e-02 3.612833800526492e-02
748585000.0000000000 8.211195105835753e-02 -7.481213568487975e-03 8.438888566013980e-02 2.850794097365198e-03 -4.285328990117238e-02 -1.107108855311008e-01 3.696792551835759e-01 -3.678144509108110e-01
            8.435594028703548e-02 2.885247310789913e-03 8.204792788762649e-02 -7.488438817561925e-03 3.696797127386990e-01 -3.678310805203425e-01 -4.291878659445930e-02 -1.108048521080379e-01
            -4.283060587484653e-02 -1.106504199894713e-01 3.696390164121732e-01 -3.677933996732980e-01 6.141056853128098e-02 4.498870005604242e-02 7.607500714333168e-02 4.360552039009192e-02
            3.696584208132158e-01 -3.678136839842981e-01 -4.291929766183942e-02 -1.107239775693697e-01 7.604409644571268e-02 4.363884306528986e-02 6.137206004024640e-02 4.504217119305659e-02
749417500.0000000000 8.504958372823743e-02 -2.277434678746836e-02 9.018631751004742e-02 -1.103862484178712e-02 -8.125795425506693e-02 -8.856260888535596e-02 2.166690216977808e-01 -4.725076814275618e-01
            9.023285673930270e-02 -1.107539113373079e-02 8.512013555298882e-02 -2.262640728376344e-02 2.166509553579760e-01 -4.724364632965453e-01 -8.131101056249096e-02 -8.857510306761247e-02
            -8.121111481041773e-02 -8.864415481906665e-02 2.166420483221748e-01 -4.725172837435217e-01 7.849462913384191e-02 4.217014319884531e-02 9.411635226416123e-02 3.925573584880335e-02
            2.167294888019997e-01 -4.724655122784334e-01 -8.117642033984249e-02 -8.855957323599037e-02 9.405282029683287e-02 3.910930850359785e-02 7.846766029210583e-02 4.215937930390037e-02
750250000.0000000000 7.479196411547513e-02 -3.853952230081761e-02 8.298196404898064e-02 -2.730646852798096e-02 -1.090695456025173e-01 -5.458284764840838e-02 3.748155733545387e-02 -5.176846185191755e-01
            8.300860703177976e-02 -2.736937803934558e-02 7.478690320646673e-02 -3.849864098836445e-02 3.749669280704142e-02 -5.176241911093988e-01 -1.090478634473211e-01 -5.464106447193144e-02
            -1.090870302294869e-01 -5.461089174019680e-02 3.757510703250473e-02 -5.176326180477889e-01 8.798490857887799e-02 3.208114827488487e-02 1.038392079519809e-01 2.704566152862262e-02
            3.754771832423615e-02 -5.176407170150781e-01 -1.090270703040591e-01 -5.464142226539200e-02 1.038362689428788e-01 2.698230440683756e-02 8.802937819212794e-02 3.205308687476681e-02
751082500.0000000000 5.327109609964924e-02 -4.524273540968004e-02 6.353672737979520e-02 -3.610582168731358e-02 -1.237079208169622e-01 -1.292335792797215e-02 -1.465195015080839e-01 -4.977920509480885e-01
            6.364145859550929e-02 -3.612246383285990e-02 5.325504937040801e-02 -4.528272029644380e-02 -1.465995570271951e-01 -4.978650467756102e-01 -1.237087243933389e-01 -1.290654338100602e-02
            -1.236616282014124e-01 -1.286651636223196e-02 -1.465076014204319e-01 -4.978873863532103e-01 8.830899114397119e-02 2.175429702094317e-02 1.032546895109339e-01 1.486970718674289e-02
            -1.465789608073265e-01 -4.979324233002572e-01 -1.237532731979920e-01 -1.287200203474351e-02 1.031545968204521e-01 1.486233051289320e-02 8.830846196707738e-02 2.175105554824988e-02
751915000.0000000000 2.848764187662121e-02 -3.624608059573645e-02 3.933445224994614e-02 -2.995774690627034e-02 -1.234347844609036e-01 3.258504862232421e-02 -3.127539529659449e-01 -4.142825807489852e-01
            3.943542860884192e-02 -2.989390960960293e-02 2.854264864278823e-02 -3.624816500564676e-02 -3.127478270549594e-01 -4.142074669180978e-01 -1.235053370013689e-01 3.266686905904615e-02
            -1.235163586123634e-01 3.262281520764176e-02 -3.127276402708728e-01 -4.141713076316345e-01 8.273736934535249e-02 1.747173001243008e-02 9.596916505479891e-02 9.623094781616175e-03
            -3.127728032750788e-01 -4.142722830048006e-01 -1.235070644417287e-01 3.261576709524446e-02 9.595077754862535e-02 9.636858260739933e-03 8.265907214536829e-02 1.746822881562905e-02
752747500.0000000000 1.244201101664553e-02 -1.192742895740531e-02 2.186754750043488e-02 -8.010035852453721e-03 -1.065436052211554e-01 7.732165745291293e-02 -4.385990681577681e-01 -2.763640970571771e-01
            2.193878476342237e-02 -8.011450939492652e-03 1.240779840164172e-02 -1.192631614641810e-02 -4.386545859540571e-01 -2.763548335059892e-01 -1.065320309926522e-01 7.719852613614528e-02
            -1.065876999569225e-01 7.727681102040927e-02 -4.385751208085352e-01 -2.763245727088626e-01 7.795669416852111e-02 2.135078962821343e-02 8.942033843741347e-02 1.345734438815571e-02
            -4.386709889505845e-01 -2.762973528339666e-01 -1.065769826447695e-01 7.724085801226817e-02 8.945565569500097e-02 1.340337219683783e-02 7.791385911963930e-02 2.129507008377563e-02
753580000.0000000000 1.344396932675136e-02 1.911873208438810e-02 2.043247612993901e-02 2.208260275985843e-02 -7.251280968362193e-02 1.140711692517205e-01 -5.063008072300230e-01 -1.026510599750473e-01
            2.046807218626604e-02 2.203498683439600e-02 1.342460835915163e-02 1.906827659048537e-02 -5.064118246659329e-01 -1.026159732865822e-01 -7.256975175555037e-02 1.140698670484323e-01
            -7.254950353233930e-02 1.140138323666432e-01 -5.064273231592765e-01 -1.025801215819979e-01 8.008012563468096e-02 2.957584583082023e-02 9.044621523978305e-02 2.262155693135188e-02
            -5.063578616911040e-01 -1.026840958754879e-01 -7.255772188162510e-02 1.140482691946186e-01 9.032585097689078e-02 2.255381684326968e-02 8.016220273240021e-02 2.953553276090438e-02
754412500.0000000000 3.275757427064072e-02 4.417795730857384e-02 3.733982005296362e-02 4.794490004370972e-02 -2.548132821836767e-02 1.352346692189959e-01 -5.072640355575199e-01 8.212570732784504e-02
            3.726460238266319e-02 4.792294767653413e-02 3.271186107019265e-02 4.430664737312744e-02 -5.072685456578108e-01 8.215107483798507e-02 -2.542923428703334e-02 1.352572789498904e-01
            -2.548053496316197e-02 1.352295216012711e-01 -5.072564874434835e-01 8.221902230647547e-02 9.081256821686047e-02 3.525615141753013e-02 1.006277051834562e-01 2.954703825121078e-02
            -5.073590753108697e-01 8.223380088210068e-02 -2.552326766217695e-02 1.352239252786203e-01 1.007508795008997e-01 2.950473871165162e-02 9.087236908994065e-02 3.521122464884083e-02
755245000.0000000000 6.251314942947674e-02 5.331469094230830e-02 6.549499947282132e-02 5.900319587788029e-02 2.647435849016426e-02 1.362588956984133e-01 -4.436764693538595e-01 2.532275446802553e-01
            6.556397224783961e-02 5.901537997183318e-02 6.238591531631807e-02 5.327506423815339e-02 -4.437362337670068e-01 2.533047330128061e-01 2.643138349377849e-02 1.362425878699808e-01
            2.652480904859534e-02 1.363087704560401e-01 -4.436336581804211e-01 2.531957794083086e-01 1.058581976679059e-01 3.214202382686107e-02 1.162264685728659e-01 2.746659476415502e-02
            -4.436915388008166e-01 2.533222835459665e-01 2.647494822350563e-02 1.362579198722199e-01 1.162904775504125e-01 2.747386236437278e-02 1.058695090615585e-01 3.224857994319293e-02
756077500.0000000000 9.027678434324155e-02 4.403371451492469e-02 9.350168545576398e-02 5.196532463336728e-02 7.417257167226997e-02 1.177859323020528e-01 -3.263184959139568e-01 3.902204441448325e-01
            9.358282132584449e-02 5.195185230495420e-02 9.041979432296064e-02 4.396478078815960e-02 -3.262543047647750e-01 3.902284065780913e-01 7.417794117049993e-02 1.177486423144179e-01
            7.407156185574050e-02 1.177729793103522e-01 -3.263794094983370e-01 3.902568190115949e-01 1.179763125260714e-01 1.886847951794179e-02 1.292856533919542e-01 1.454593518333940e-02
            -3.263075245745000e-01 3.902215205854924e-01 7.409055634979193e-02 1.177147321034373e-01 1.293195911228215e-01 1.454418866164071e-02 1.180634383747619e-01 1.885118852569607e-02
756910000.0000000000 1.060249481346289e-01 2.154703949472202e-02 1.106934947126016e-01 3.108212777074354e-02 1.110324479367874e-01 8.427573904848908e-02 -1.702089598355198e-01 4.783129680530853e-01
            1.106779452504016e-01 3.106293333124500e-02 1.061380520027759e-01 2.146620974404164e-02 -1.702125817989173e-01 4.783164804629760e-01 1.109723291071888e-01 8.428640398464166e-02
            1.109855545727541e-01 8.429559940187507e-02 -1.702326127127422e-01 4.784072029691271e-01 1.206666652725829e-01 -6.837634331722258e-04 1.328145068486526e-01 -5.383972211838041e-03
            -1.702546842012731e-01 4.783694024541398e-01 1.110259906197043e-01 8.435732867914042e-02 1.327211156649588e-01 -5.383989877098401e-03 1.206001907410278e-01 -6.919325136035338e-04
757742500.0000000000 1.049749567894683e-01 -3.701384972989826e-03 1.112479036057596e-01 6.033842736977560e-03 1.342423329516846e-01 4.137341058436429e-02 6.892065135374035e-03 5.082252742405494e-01
            1.112371095239264e-01 6.095231110103029e-03 1.048593763530568e-01 -3.672995497643124e-03 6.919627265460231e-03 5.083364531053054e-01 1.342349452359344e-01 4.135705718766004e-02
            1.341635381299638e-01 4.140578978313655e-02 6.859299061257754e-03 5.081565503428047e-01 1.111853904936725e-01 -1.945277969372387e-02 1.236128447735215e-01 -2.483114879381856e-02
            6.862452535295022e-03 5.082209331143828e-01 1.341936850026601e-01 4.139229600560344e-02 1.235072791906467e-01 -2.491450505391830e-02 1.112310263265467e-01 -1.938761476662432e-02
758575000.0000000000 8.923805729572847e-02 -2.077613995684248e-02 9.648868920402658e-02 -1.206991928163303e-02 1.429123423319312e-01 -6.871120470911645e-03 1.850108380064861e-01 4.749255048861932e-01
            9.658238346260355e-02 -1.212423596444782e-02 8.912521422511900e-02 -2.075856493530522e-02 1.849659721300822e-01 4.749514306146906e-01 1.428319123891014e-01 -6.936100288646878e-03
            1.427750417856927e-01 -6.972501359345439e-03 1.850163344389470e-01 4.749215751817637e-01 9.226330384423316e-02 -2.949264909982803e-02 1.043270375226343e-01 -3.545705990454058e-02
            1.849590328111645e-01 4.749230945612969e-01 1.428561988740693e-01 -6.938611686285503e-03 1.043288850069217e-01 -3.540183883027009e-02 9.228828453514139e-02 -2.955967375178695e-02
759407500.0000000000 6.754699779134057e-02 -2.256743978781698e-02 7.466149374476859e-02 -1.541455939546435e-02 1.354425095993247e-01 -5.730452455167701e-02 3.416476256736276e-01 3.799322898791720e-01
            7.458061679110192e-02 -1.546256422966916e-02 6.746075984975844e-02 -2.261141701003387e-02 3.417164545465139e-01 3.799268543669270e-01 1.354148887822283e-01 -5.724194067646822e-02
            1.354346941082100e-01 -5.734509163464467e-02 3.417353439554209e-01 3.799297386275667e-01 7.105606214321294e-02 -2.629969799126535e-02 8.247318024143933e-02 -3.197619437283044e-02
            3.417636358820716e-01 3.799461313836346e-01 1.354536580858326e-01 -5.739878607981783e-02 8.257839383201437e-02 -3.198023668354404e-02 7.106893801804352e-02 -2.629319350385999e-02
760240000.0000000000 5.163220301969296e-02 -9.192517684935937e-03 5.691448296632284e-02 -2.741251270154997e-03 1.097785285501511e-01 -1.047835095711402e-01 4.546484294643440e-01 2.337964128762011e-01
            5.691965918661537e-02 -2.744753949519099e-03 5.156066441844283e-02 -9.325818076413165e-03 4.546508158810575e-01 2.337849880444635e-01 1.098068989866700e-01 -1.048095519111010e-01
            1.098374642909130e-01 -1.047896170087424e-01 4.546307361137948e-01 2.338593647567221e-01 5.688971979133466e-02 -1.085432428501140e-02 6.815451063026286e-02 -1.578327508036002e-02
            4.547426675683337e-01 2.338202630505676e-01 1.098287624013013e-01 -1.047502658729752e-01 6.822293077553714e-02 -1.580834407316805e-02 5.685586529342872e-02 -1.092401106247201e-02
761072500.0000000000 5.006660036205123e-02 1.117795720314369e-02 5.312739358792675e-02 1.849730889661763e-02 6.622077437642554e-02 -1.415457707307719e-01 5.067304487115626e-01 5.664465286062259e-02
            5.307888194007141e-02 1.846232977038604e-02 4.998709104304885e-02 1.117357402954391e-02 5.067464708160615e-01 5.662299614210356e-02 6.615499221122503e-02 -1.415580203168481e-01
            6.619131757562120e-02 -1.415707875606514e-01 5.067793977524578e-01 5.660814048843651e-02 5.635032857798550e-02 9.188079924596195e-03 6.825786874011357e-02 5.401496577099157e-03
            5.067574108848257e-01 5.668781023342309e-02 6.624697226695313e-02 -1.416397705224911e-01 6.824133571896979e-02 5.387642622813217e-03 5.635079754798366e-02 9.155435208057078e-03
761905000.0000000000 6.346660847497224e-02 2.692932062979572e-02 6.476630267080280e-02 3.644805120606717e-02 9.663709964812004e-03 -1.591369609699701e-01 4.914138004955160e-01 -1.258214525409273e-01
            6.473568970992191e-02 3.649746785222938e-02 6.346492444983634e-02 2.684375993481707e-02 4.915170741727894e-01 -1.257763240959731e-01 9.752700898976552e-03 -1.592703990429933e-01
            9.666104526214548e-03 -1.591606927193470e-01 4.913866966355225e-01 -1.257967020608974e-01 6.865611398483799e-02 2.348064360198740e-02 8.224833720939519e-02 2.046043043302043e-02
            4.913885606651452e-01 -1.258024855845852e-01 9.759073570599932e-03 -1.592084120661196e-01 8.223523620507953e-02 2.051420447016860e-02 6.867138408769424e-02 2.346900660324997e-02
762737500.0000000000 8.428576152327147e-02 2.900643054571730e-02 8.539396158212260e-02 4.203756472895524e-02 -4.982839701774780e-02 -1.533432386397083e-01 4.134179781838827e-01 -2.887211722260863e-01
            8.535164230305502e-02 4.199089038444263e-02 8.433063305560710e-02 2.896393114818101e-02 4.134562128221015e-01 -2.887506124930376e-01 -4.979883271622142e-02 -1.533139619362935e-01
            -4.984745556311758e-02 -1.533745802428976e-01 4.134963687568377e-01 -2.887839228227088e-01 8.671782715526564e-02 2.532345967488696e-02 1.024408747631676e-01 2.203740117663585e-02
            4.133833795825845e-01 -2.887266252378283e-01 -4.982382266450996e-02 -1.533785844841105e-01 1.025037995953775e-01 2.213713616340832e-02 8.675153551827772e-02 2.535742957684546e-02
763570000.0000000000 1.015530856471960e-01 1.679413793099685e-02 1.042786640359767e-01 3.289145851516543e-02 -1.021032345272031e-01 -1.257045065595540e-01 2.853685604485023e-01 -4.130511301442237e-01
            1.042835030948986e-01 3.291671225912528e-02 1.014997752343804e-01 1.674903333859484e-02 2.852887718360664e-01 -4.130706685962365e-01 -1.021914452202522e-01 -1.257314560169399e-01
            -1.021613729683092e-01 -1.256323783733193e-01 2.853588356159865e-01 -4.131148201211055e-01 1.008547598860836e-01 1.454812932605685e-02 1.186309482135175e-01 9.929915365675978e-03
            2.853610445928086e-01 -4.131051724707935e-01 -1.021819961905765e-01 -1.256763638319895e-01 1.186889265251832e-01 9.829619698615642e-03 1.009509584430517e-01 1.452532129686523e-02
764402500.0000000000 1.068599508700663e-01 -3.938111380859894e-03 1.124037208744731e-01 1.392392096896057e-02 -1.405009571905134e-01 -8.212568986855524e-02 1.233964788403333e-01 -4.856481860889241e-01
            1.123969605898665e-01 1.397797989274825e-02 1.068699464673876e-01 -3.910882746147138e-03 1.234565810035744e-01 -4.856601532914293e-01 -1.403953694908915e-01 -8.215276365823600e-02
            -1.404700168553522e-01 -8.209224084055589e-02 1.234913607955870e-01 -4.856649840028098e-01 1.040390932807378e-01 -3.106371615236593e-03 1.228097258285373e-01 -9.910611320229204e-03
            1.234621551975593e-01 -4.856864414714899e-01 -1.404561146451447e-01 -8.211267375332314e-02 1.228241274099781e-01 -9.888280368977379e-03 1.040231008847626e-01 -3.138466283596011e-03
765235000.0000000000 9.776276990700257e-02 -2.306428206748591e-02 1.060341653180225e-01 -5.400864458391557e-03 -1.617113373406390e-01 -2.879333949425318e-02 -5.397892752166941e-02 -4.984957736328260e-01
            1.060158593366039e-01 -5.393313209198935e-03 9.773832112292366e-02 -2.299935974834905e-02 -5.397581686920963e-02 -4.985132824204440e-01 -1.617494486874730e-01 -2.883779352719656e-02
            -1.617046266729226e-01 -2.877809110704534e-02 -5.399383272865056e-02 -4.985220388390522e-01 9.462194358962657e-02 -1.895980210002733e-02 1.131780559399840e-01 -2.792803855299871e-02
            -5.401902232666085e-02 -4.984400623973207e-01 -1.616798733171795e-01 -2.875668952299291e-02 1.131683157017312e-01 -2.795534494607667e-02 9.461025755733846e-02 -1.895796095605513e-02
766067500.0000000000 7.878094701386297e-02 -3.168260272314317e-02 8.834117494546448e-02 -1.548701959044925e-02 -1.646962773382445e-01 2.912019397833278e-02 -2.262365005367045e-01 -4.485618570895045e-01
            8.832773884171316e-02 -1.553130732855663e-02 7.869591238220246e-02 -3.167581525845498e-02 -2.261727636553448e-01 -4.486144245165695e-01 -1.646121514368349e-01 2.923365957831000e-02
            -1.646317818457265e-01 2.923706332531470e-02 -2.263202387235040e-01 -4.485581479123696e-01 7.645889978975284e-02 -2.521054827170268e-02 9.416974042580546e-02 -3.510014468510028e-02
            -2.262112880139129e-01 -4.485841521603454e-01 -1.645913421453631e-01 2.921064416766711e-02 9.414890905369709e-02 -3.505717701107885e-02 7.645044215345269e-02 -2.525390280886382e-02
766900000.0000000000 5.929669612428456e-02 -2.561103502726183e-02 6.801884644931051e-02 -1.089979387384817e-02 -1.476688215241418e-01 8.691161217515354e-02 -3.707695026729628e-01 -3.397741347129400e-01
            6.791079092468374e-02 -1.081879362677541e-02 5.928641081814659e-02 -2.561637535642859e-02 -3.708086213383067e-01 -3.397771920139233e-01 -1.476269208030941e-01 8.691120732331345e-02
            -1.477262912335127e-01 8.695569025387970e-02 -3.708595726265294e-01 -3.397386855144642e-01 5.802736357169613e-02 -1.835769044091710e-02 7.505868702265872e-02 -2.761688866338263e-02
            -3.708396361354660e-01 -3.396783848258186e-01 -1.476477523753382e-01 8.689247274285164e-02 7.506861116262438e-02 -2.760345034118541e-02 5.817076685724205e-02 -1.838017766984024e-02
767732500.0000000000 4.969164408940180e-02 -8.446142905540818e-03 5.556442680847284e-02 6.875824377186481e-03 -1.098943526338077e-01 1.373304749628785e-01 -4.668212978418080e-01 -1.853786833154331e-01
            5.545809565346112e-02 6.812285223788325e-03 4.975692955577238e-02 -8.452894130498408e-03 -4.668256316128485e-01 -1.853444112604083e-01 -1.098993119921099e-01 1.374047988706242e-01
            -1.098340288573593e-01 1.372686900246347e-01 -4.668411879921788e-01 -1.853704404949865e-01 4.831174263954831e-02 -1.178038202081717e-03 6.653532592446720e-02 -8.979132683174915e-03
            -4.667781194087466e-01 -1.853549288651202e-01 -1.098614882997855e-01 1.373361570046992e-01 6.642564439170025e-02 -8.900704830187336e-03 4.833005941410669e-02 -1.222913366660095e-03
768565000.0000000000 5.511210237731741e-02 9.968768902733403e-03 5.777080606089961e-02 2.905464286277840e-02 -5.365510142689722e-02 1.714297810289101e-01 -5.000114746835459e-01 -7.409599566427055e-03
            5.776422168053159e-02 2.907994738983667e-02 5.513885920682648e-02 9.976962458300162e-03 -5.000036117238644e-01 -7.407637578005253e-03 -5.374737114280109e-02 1.715235180339079e-01
            -5.379362701725150e-02 1.714795552690848e-01 -5.000060911178166e-01 -7.480230497176100e-03 5.160510382596190e-02 1.747584396175666e-02 7.353362155307873e-02 1.085898154003257e-02
            -5.000526939426942e-01 -7.443753429967412e-03 -5.368802044013814e-02 1.714723186130178e-01 7.345355541144932e-02 1.087340465968960e-02 5.155126709430251e-02 1.743131429956026e-02
769397500.0000000000 7.233177899831210e-02 1.868829011470093e-02 7.373240550661911e-02 4.506976977869472e-02 1.269930002723244e-02 1.817741637358427e-01 -4.675334717184323e-01 1.685409977913013e-01
            7.371850872989472e-02 4.507165521125859e-02 7.231471907951367e-02 1.861014784677742e-02 -4.674964928961011e-01 1.685603602484803e-01 1.258848300203952e-02 1.817610123162054e-01
            1.271889046049387e-02 1.817287435365164e-01 -4.675478096652486e-01 1.686188332714723e-01 6.511532132643176e-02 2.858478576295783e-02 9.318964718810432e-02 2.071820218102781e-02
            -4.675178642281309e-01 1.686183603170091e-01 1.267179923900693e-02 1.817347973440591e-01 9.313247441854716e-02 2.077648066389842e-02 6.509097017048618e-02 2.861929514814004e-02
770230000.0000000000 9.109032976421941e-02 1.208640812563973e-02 9.559021039960618e-02 4.808942409895658e-02 7.801681098874902e-02 1.660119835993455e-01 -3.764503519562791e-01 3.197607115420501e-01
            9.562013125044158e-02 4.798056914406942e-02 9.100397296800858e-02 1.208120232508113e-02 -3.765289685858591e-01 3.197957580100730e-01 7.804453384841782e-02 1.659815606659393e-01
            7.809556501015509e-02 1.659449040748668e-01 -3.765620889549018e-01 3.197883409339430e-01 8.078597640746125e-02 2.805577234781938e-02 1.157437654643842e-01 1.469844082384496e-02
            -3.765173048544565e-01 3.197832467085460e-01 7.800183496585630e-02 1.660024357884127e-01 1.157494582666383e-01 1.468725514759516e-02 8.069604301370183e-02 2.796672554197635e-02
771062500.0000000000 1.007356145504262e-01 -6.964724056461546e-03 1.140067070519706e-01 3.793023358176488e-02 1.322539071301757e-01 1.278537650889933e-01 -2.403949308851669e-01 4.292484963746969e-01
            1.140161897242505e-01 3.786465798517283e-02 1.006128141620072e-01 -6.982456431607188e-03 -2.404556487060221e-01 4.292078808014957e-01 1.322728486962835e-01 1.279224637228781e-01
            1.322607271865092e-01 1.278796151366559e-01 -2.404750192048075e-01 4.292445964271501e-01 9.013046673140114e-02 1.803051670875895e-02 1.303495702170484e-01 -5.569937559780551e-03
            -2.403713808199064e-01 4.291999149616222e-01 1.322517621060214e-01 1.278823963856302e-01 1.303539027404356e-01 -5.480092588345737e-03 9.005025064762121e-02 1.800341473164151e-02
771895000.0000000000 9.491516339859032e-02 -2.966257301929589e-02 1.221292656553880e-01 2.054795379972996e-02 1.694364643629244e-01 7.427602893066390e-02 -7.565596347168234e-02 4.853558797815626e-01
            1.221424213429724e-01 2.057198791970575e-02 9.490892821888634e-02 -2.967590324895960e-02 -7.569302080064474e-02 4.852961064630820e-01 1.693797247491755e-01 7.426273787173227e-02
            1.694079698852576e-01 7.419774744325079e-02 -7.570405454130627e-02 4.853157250998665e-01 8.881046398415847e-02 5.680862133924314e-03 1.296906457887581e-01 -3.194402137161997e-02
            -7.568947308888431e-02 4.852987510646286e-01 1.693992263883067e-01 7.419803156054947e-02 1.295925472027492e-01 -3.188693421573226e-02 8.884089241257831e-02 5.689574386052918e-03
772727500.0000000000 7.433816221254885e-02 -4.491756111953805e-02 1.184029420641860e-01 4.293671381432492e-03 1.868105336491345e-01 1.162811737577040e-02 9.903916654478451e-02 4.814195650162698e-01
            1.184714129003520e-01 4.222402024208243e-03 7.438861530924479e-02 -4.494084805798732e-02 9.900226223912859e-02 4.814044066823664e-01 1.866974069505853e-01 1.154649519733891e-02
            1.867249947298312e-01 1.160067832817079e-02 9.901157124765973e-02 4.813988141537580e-01 7.837466159572186e-02 -8.645819144063498e-04 1.130440616344206e-01 -5.379359587042596e-02
            9.894191057711554e-02 4.813574399077106e-01 1.867003773503267e-01 1.162519701859466e-02 1.131664209445764e-01 -5.379385323030574e-02 7.840602082319384e-02 -9.351746954694693e-04
773560000.0000000000 4.652306877706696e-02 -4.451705105393963e-02 1.072433598407769e-01 -3.725269788341264e-03 1.826923352854929e-01 -5.453460308299263e-02 2.625656096668209e-01 4.160574679187329e-01
            1.071973166007779e-01 -3.737892824570851e-03 4.657164288930419e-02 -4.453928409912722e-02 2.625523759363735e-01 4.160574016549192e-01 1.827070648669670e-01 -5.456758862254993e-02
            1.827107700744170e-01 -5.461821566588979e-02 2.625387055644101e-01 4.159853473865006e-01 6.500831549643067e-02 3.487817390284182e-03 8.667332631967170e-02 -6.215030612992065e-02
            2.625407283948620e-01 4.159818006251623e-01 1.828546653811401e-01 -5.460086555161985e-02 8.652187771487579e-02 -6.209956587549661e-02 6.494276563659995e-02 3.477235070887442e-03
774392500.0000000000 2.325065025953381e-02 -2.670567436529939e-02 9.648553814020974e-02 -1.024596627134980e-03 1.556813902308466e-01 -1.179990650897447e-01 3.927620511757970e-01 2.957585130348447e-01
            9.646953706189378e-02 -1.034945334714845e-03 2.325418940155731e-02 -2.674326350989994e-02 3.928585523285132e-01 2.957185908762714e-01 1.557447701744660e-01 -1.179957826230442e-01
            1.556829523489729e-01 -1.179647870342985e-01 3.927449403374834e-01 2.957717756930684e-01 5.781964715084354e-02 1.886753148282454e-02 6.072412362339366e-02 -5.371749490468041e-02
            3.927923534500281e-01 2.958393050210512e-01 1.556692617153006e-01 -1.180767066155332e-01 6.074578244304510e-02 -5.372477752693080e-02 5.785287044164945e-02 1.886699495549998e-02
775225000.0000000000 1.493007560767693e-02 2.100628927497095e-03 9.387493629289466e-02 8.384441125710044e-03 1.056999309525059e-01 -1.698407442691505e-01 4.707203350963132e-01 1.365708529563681e-01
            9.391403765504276e-02 8.351676498188619e-03 1.499598276561250e-02 2.061729260602374e-03 4.706759288773835e-01 1.366338651076146e-01 1.056198373838491e-01 -1.697320862734052e-01
            1.056539172955947e-01 -1.697429975568011e-01 4.707604777295578e-01 1.366103196403154e-01 6.373238262088231e-02 3.815567647423754e-02 4.609195641485863e-02 -3.340282141801219e-02
            4.707095993183807e-01 1.366342675586449e-01 1.056547090048369e-01 -1.698083218734095e-01 4.604192238503887e-02 -3.330839121687194e-02 6.370367714097507e-02 3.812415702518047e-02
776057500.0000000000 2.519388777545316e-02 2.975563618068323e-02 1.017628924603702e-01 1.607106745922479e-02 3.761582023949511e-02 -2.001935364031172e-01 4.858967053534545e-01 -3.866681322645418e-02
            1.018816672136703e-01 1.600228304590683e-02 2.520742355928941e-02 2.976060718003550e-02 4.858485849277402e-01 -3.854801349766619e-02 3.765884914492775e-02 -2.001312676484570e-01
            3.757153933666778e-02 -2.001668437162875e-01 4.858058262565226e-01 -3.857218400470868e-02 8.304249237662154e-02 5.104014125911822e-02 4.661212028501666e-02 -1.109506307539005e-02
            4.857730951524009e-01 -3.857602868238749e-02 3.757182741109052e-02 -2.001238931448153e-01 4.661373113483225e-02 -1.102979569305693e-02 8.311451500643163e-02 5.107463442297732e-02
776890000.0000000000 4.845295564100546e-02 4.503410998402128e-02 1.154708004835856e-01 1.435766269612954e-02 -3.806589726153026e-02 -2.023517665453586e-01 4.384770869099683e-01 -2.054283794991836e-01
            1.155426128314501e-01 1.432983211144212e-02 4.853037828599281e-02 4.501062837775906e-02 4.385239143194216e-01 -2.053942086513525e-01 -3.798895161321730e-02 -2.023252191791150e-01
            -3.818790497090208e-02 -2.023985545999971e-01 4.384474545121452e-01 -2.054994157958321e-01 1.084531536028928e-01 4.943673129202181e-02 5.886797221001145e-02 3.161329340907813e-03
            4.384709223077904e-01 -2.053976225599205e-01 -3.799379201593340e-02 -2.023937094413110e-01 5.887773202388991e-02 3.194100821694628e-03 1.084831268741557e-01 4.936202640442969e-02
777722500.0000000000 7.398208389386365e-02 4.336321299804681e-02 1.264856424449624e-01 1.526886948771650e-03 -1.088883186780454e-01 -1.762122156268121e-01 3.374916994560404e-01 -3.436219340874194e-01
            1.264370254154987e-01 1.510333626265407e-03 7.392020793388138e-02 4.328372062770575e-02 3.375649914872418e-01 -3.436044338158998e-01 -1.088395383888091e-01 -1.761893252267272e-01
            -1.088313207428018e-01 -1.761881684979908e-01 3.375036789578068e-01 -3.435991316711347e-01 1.291323144031901e-01 3.230447298853768e-02 7.414294649823411e-02 4.838527604428268e-03
            3.374550590538300e-01 -3.435810180505010e-01 -1.088117675582424e-01 -1.761640552445318e-01 7.412579008628534e-02 4.868348658860701e-03 1.291602720118949e-01 3.232116877622897e-02
778555000.0000000000 9.072256533779284e-02 2.812770063328661e-02 1.271841175027878e-01 -1.807922962997718e-02 -1.647793488071068e-01 -1.267552724920550e-01 1.963771227353407e-01 -4.383864865801735e-01
            1.272136315433147e-01 -1.812828235348505e-02 9.075695781855501e-02 2.804041872540235e-02 1.964424534374669e-01 -4.383327085591650e-01 -1.647751094086912e-01 -1.267909341190988e-01
            -1.647627150565704e-01 -1.268582834966988e-01 1.963501512527851e-01 -4.384001241388965e-01 1.361368657234043e-01 6.093974247323075e-03 8.361267865607140e-02 -3.676417045013256e-03
            1.963741770105273e-01 -4.383161557874851e-01 -1.647401256924172e-01 -1.267809041130749e-01 8.354012047519734e-02 -3.681374302334516e-03 1.362428655449799e-01 6.101338231659956e-03
779387500.0000000000 9.317182176414052e-02 8.097596114191271e-03 1.151816565941274e-01 -3.604078297035022e-02 -1.999433644747503e-01 -6.194615117860776e-02 3.125378168372620e-02 -4.793816490293684e-01
            1.151880827635736e-01 -3.593997909034412e-02 9.322715769989906e-02 8.133155627481630e-03 3.126078687301242e-02 -4.792948152697141e-01 -1.999608384145683e-01 -6.186294210099605e-02
            -1.999069381518517e-01 -6.191528168787729e-02 3.120301998283926e-02 -4.793672449921349e-01 1.268694340005561e-01 -1.910415191970754e-02 8.256685974110149e-02 -1.546734719425472e-02
            3.114351961703198e-02 -4.794073156481280e-01 -1.998989693221127e-01 -6.182196966236029e-02 8.257729146755839e-02 -1.545601882314064e-02 1.268682735028800e-01 -1.901067304985906e-02
780220000.0000000000 8.233049653671454e-02 -6.364871201131853e-03 9.369119980675795e-02 -4.412363539044784e-02 -2.115808013397106e-01 1.138577271145796e-02 -1.392291886324405e-01 -4.605589130339206e-01
            9.378352838432673e-02 -4.412366310670918e-02 8.234812395217729e-02 -6.311996694344318e-03 -1.391982767073356e-01 -4.605986053422512e-01 -2.116181703720109e-01 1.135839450914405e-02
            -2.115476422711889e-01 1.144130381372085e-02 -1.392629367709812e-01 -4.606539370507944e-01 1.051244659877786e-01 -3.324974170205262e-02 7.202132256332223e-02 -2.222895760054502e-02
            -1.391394059836843e-01 -4.605879311500184e-01 -2.116233356040012e-01 1.136803722584472e-02 7.188341840504986e-02 -2.224524036073502e-02 1.052246928905216e-01 -3.325175951203341e-02
781052500.0000000000 6.550323663227378e-02 -7.971810169766782e-03 7.104112175187684e-02 -3.774040054836071e-02 -1.978561299646341e-01 8.602695576314852e-02 -2.933883781923561e-01 -3.819817238439616e-01
            7.096312774329583e-02 -3.782022650924245e-02 6.551178350195669e-02 -8.079641097446114e-03 -2.933910141819828e-01 -3.819653097828898e-01 -1.979297047375265e-01 8.602074108805319e-02
            -1.978402850647167e-01 8.588508169782223e-02 -2.934401581364602e-01 -3.820384699760189e-01 8.068364898595100e-02 -3.121722292433898e-02 5.795944418826039e-02 -1.852305255712858e-02
            -2.933811333653748e-01 -3.819735748130340e-01 -1.978988890877344e-01 8.597416515251577e-02 5.804710172380182e-02 -1.851132635938469e-02 8.070277645026558e-02 -3.122144771066732e-02
781885000.0000000000 5.308575757940946e-02 3.432803270229916e-03 5.686609282294467e-02 -1.883464064000004e-02 -1.577293093454898e-01 1.535131020280330e-01 -4.095204590123866e-01 -2.524074194460794e-01
            5.684949501572879e-02 -1.890404648377894e-02 5.307247309894295e-02 3.323603785939989e-03 -4.095308931936027e-01 -2.525337849884368e-01 -1.576666448430102e-01 1.534918455801226e-01
            -1.576903950748892e-01 1.535414747308420e-01 -4.094999734472203e-01 -2.524418560264642e-01 6.452699078845042e-02 -1.484094969898297e-02 4.927557405886106e-02 -4.466043879810691e-03
            -4.096517229838900e-01 -2.524117668904242e-01 -1.576867091698670e-01 1.534592812910781e-01 4.925649178782660e-02 -4.542524286402452e-03 6.450515354988490e-02 -1.482349436514758e-02
782717500.0000000000 5.303542178372836e-02 2.105453298090017e-02 5.778656365432744e-02 3.986632364595245e-03 -9.362312711393768e-02 2.034555939504768e-01 -4.704596051463005e-01 -9.005354735340557e-02
            5.784114567479147e-02 3.939285502001474e-03 5.300911039104642e-02 2.106935370475734e-02 -4.704671150026657e-01 -9.013735347070244e-02 -9.365797456731043e-02 2.034856741649983e-01
            -9.365333401675482e-02 2.034711733011584e-01 -4.704741533935974e-01 -9.000711534273159e-02 6.386211010736170e-02 6.765974849448482e-03 5.232409926062549e-02 1.329334308414837e-02
            -4.704981604542123e-01 -9.009978049793321e-02 -9.365546748994773e-02 2.034298066150928e-01 5.239202471273713e-02 1.324320016990359e-02 6.384265555939994e-02 6.697595887073334e-03
783550000.0000000000 6.600597823968773e-02 3.427757328256138e-02 7.267762568634714e-02 1.987144224167561e-02 -1.382384419449136e-02 2.263079948913607e-01 -4.689670242986025e-01 8.144471412510167e-02
            7.272714636939613e-02 1.993457578258106e-02 6.589280066643599e-02 3.429946260489829e-02 -4.689226665556896e-01 8.148367918138928e-02 -1.390993518670711e-02 2.262977340692828e-01
            -1.381588850785731e-02 2.263087686511571e-01 -4.688950044382658e-01 8.149503483725810e-02 7.764376806754324e-02 2.175259021281968e-02 6.666287441177451e-02 2.547286127908623e-02
            -4.689652132653118e-01 8.150671197673097e-02 -1.383265855064644e-02 2.262662427165443e-01 6.673599695192231e-02 2.543789217709709e-02 7.770205760796180e-02 2.179081513549062e-02
784382500.0000000000 8.501672319438140e-02 3.551621091407937e-02 9.345622323443771e-02 2.178322849119980e-02 6.910138114964245e-02 2.173729788862331e-01 -4.078822132134259e-01 2.392368561011974e-01
            9.341350504661708e-02 2.174768591630440e-02 8.503718858712521e-02 3.555472230972113e-02 -4.079209878956692e-01 2.391521484770773e-01 6.904751659251071e-02 2.172956020096134e-01
            6.905618715686546e-02 2.173762165977834e-01 -4.079474458642802e-01 2.392063399931825e-01 9.756812948084387e-02 2.272389026672494e-02 8.570208520710923e-02 2.560375954934007e-02
            -4.078258795640526e-01 2.391805042906033e-01 6.906494701368225e-02 2.173238279398655e-01 8.566028960161291e-02 2.567013783791811e-02 9.758551468319161e-02 2.266288172780530e-02
785215000.0000000000 1.007242925207207e-01 2.405027925218313e-02 1.094568613554546e-01 9.776442839667667e-03 1.422963544650022e-01 1.789013774468246e-01 -2.974809440220758e-01 3.647058757778587e-01
            1.093843336326249e-01 9.802019843457051e-03 1.007654627561223e-01 2.402510529377050e-02 -2.975549826236991e-01 3.646887824100788e-01 1.422088513987923e-01 1.789661589216252e-01
            1.421926863969520e-01 1.790310003198675e-01 -2.975164125020975e-01 3.646724385066556e-01 1.127740652096547e-01 9.772910487600666e-03 1.001440130379136e-01 1.384845793803785e-02
            -2.975224541962130e-01 3.646892583524006e-01 1.422310512035065e-01 1.790485541719490e-01 1.001322022765318e-01 1.378078404423826e-02 1.127560684531352e-01 9.718416007712116e-03
786047500.0000000000 1.054578871949305e-01 5.145662310281350e-03 1.134002132692147e-01 -9.543802494123668e-03 1.965358185639443e-01 1.182243031056753e-01 -1.516119776908904e-01 4.445424068835450e-01
            1.133395120055607e-01 -9.425760837167894e-03 1.053773183209287e-01 5.120380610161425e-03 -1.515933719449342e-01 4.444966632864680e-01 1.965100045301750e-01 1.181809659231440e-01
            1.965406028393100e-01 1.182389609679809e-01 -1.515899186138221e-01 4.446313487638238e-01 1.154132172451305e-01 -1.048639059812840e-02 1.035544362849292e-01 -4.202197613306668e-03
            -1.516454876264119e-01 4.445608994049364e-01 1.965242542753729e-01 1.182038719381020e-01 1.035912363917851e-01 -4.222380095423492e-03 1.154956766537602e-01 -1.044202736243614e-02
786880000.0000000000 9.702476396607512e-02 -1.209964952183590e-02 1.034083070853978e-01 -2.660052694577194e-02 2.269009915591439e-01 4.309863461711298e-02 1.342578212436362e-02 4.696997041927455e-01
            1.034268880792841e-01 -2.658280431480766e-02 9.697520726126174e-02 -1.219444899346984e-02 1.339463422615697e-02 4.697082616096842e-01 2.269445372285648e-01 4.306692426339553e-02
            2.268230840859361e-01 4.304622423789620e-02 1.335969769581550e-02 4.697387175390217e-01 1.040917898609348e-01 -2.807296808753688e-02 9.447621518416303e-02 -1.979868940314934e-02
            1.340136311064072e-02 4.697627120324238e-01 2.269750492732229e-01 4.309982142227551e-02 9.447429801088801e-02 -1.987950187232584e-02 1.041132729041254e-01 -2.797978232464254e-02
787712500.0000000000 7.946176832575411e-02 -1.966749909327513e-02 8.449447100387456e-02 -3.295771580606417e-02 2.307227541245914e-01 -3.862578701066519e-02 1.781321075769572e-01 4.352595604954606e-01
            8.442852469718880e-02 -3.301483265255720e-02 7.949285091100169e-02 -1.964941638526548e-02 1.782015113813968e-01 4.352893589736738e-01 2.307341777667988e-01 -3.856881867290202e-02
            2.307249886317961e-01 -3.861466817069501e-02 1.781271772325391e-01 4.353664042761677e-01 8.376086804656739e-02 -3.422430825821635e-02 7.719887602967089e-02 -2.550476430241653e-02
            1.781869526804394e-01 4.354002350096774e-01 2.306831435026122e-01 -3.857970488791106e-02 7.723921674227299e-02 -2.551567227143384e-02 8.372991895026202e-02 -3.412662389505176e-02
788545000.0000000000 6.163190122663566e-02 -1.334131663385686e-02 6.573333232942274e-02 -2.517617316648240e-02 2.061451699634229e-01 -1.189157409567577e-01 3.209799855831812e-01 3.438516031532574e-01
            6.570349446461216e-02 -2.510807809024103e-02 6.167072193223125e-02 -1.342535000345122e-02 3.210678695114547e-01 3.437628780555821e-01 2.061532216442739e-01 -1.188675731441711e-01
            2.062094750315769e-01 -1.188468321864670e-01 3.209698567226897e-01 3.438274595034448e-01 6.398577343613587e-02 -2.570356623449769e-02 6.035494402393327e-02 -1.800198624185086e-02
            3.209320842528712e-01 3.438229097730672e-01 2.061791607212790e-01 -1.188066246087924e-01 6.030907897377124e-02 -1.798536649500612e-02 6.403988068138945e-02 -2.563982421356700e-02
789377500.0000000000 5.288094675670469e-02 3.268906728788777e-03 5.686918063746355e-02 -6.780139339445294e-03 1.532552731354153e-01 -1.876750808294942e-01 4.210668406389367e-01 2.066144642419585e-01
            5.690600826515006e-02 -6.820800889573222e-03 5.290678215858289e-02 3.262054373783952e-03 4.211065441436431e-01 2.065101163543966e-01 1.532904970220762e-01 -1.876336561025552e-01
            1.532225360352815e-01 -1.876686659839009e-01 4.211216979345928e-01 2.064970253843424e-01 5.502377756648364e-02 -6.413724649420782e-03 5.286133673295741e-02 -8.866855916237076e-04
            4.210788734030735e-01 2.065416273716299e-01 1.532440932492779e-01 -1.876184499638425e-01 5.281504905569778e-02 -8.071875727241748e-04 5.498879301761401e-02 -6.441994039884757e-03
790210000.0000000000 5.815603887960708e-02 2.138670550694296e-02 6.257403575850055e-02 1.256874576412212e-02 7.662472718256440e-02 -2.334542043288148e-01 4.643538423122267e-01 4.341610804695026e-02
            6.243238239294573e-02 1.253034965867629e-02 5.817866010905787e-02 2.140087255205324e-02 4.642557463159429e-01 4.340759148275635e-02 7.668449923976602e-02 -2.334962319651415e-01
            7.665229726942246e-02 -2.335254812630290e-01 4.642863860354364e-01 4.348359103715660e-02 6.104584277228992e-02 1.359735063945251e-02 5.893832988602828e-02 1.714018761931889e-02
            4.643024305842585e-01 4.342296714249707e-02 7.669734980038811e-02 -2.334757931488647e-01 5.897445149296281e-02 1.709577681631815e-02 6.107210453856582e-02 1.359299268062215e-02
791042500.0000000000 7.437774323292130e-02 3.096987002797705e-02 7.942440482375494e-02 2.282515670947517e-02 -1.276984328494505e-02 -2.475810618868716e-01 4.466630187972236e-01 -1.220297287723928e-01
            7.945316207773309e-02 2.277171166437180e-02 7.437506871994545e-02 3.100090781759321e-02 4.466756595690979e-01 -1.220768148220850e-01 -1.282826142237874e-02 -2.476653518506098e-01
            -1.267680242397548e-02 -2.476652440136414e-01 4.466604273051245e-01 -1.220977508218971e-01 7.864164147931953e-02 2.396063677936634e-02 7.534129415119308e-02 2.620436512499522e-02
            4.467112393249288e-01 -1.220837368406065e-01 -1.277488086050901e-02 -2.475949819084971e-01 7.538017745582125e-02 2.625854660972000e-02 7.859611540326995e-02 2.405213356471902e-02
791875000.0000000000 9.279743294779250e-02 2.741409091450114e-02 9.847134837494513e-02 1.919483508110235e-02 -1.008453899800209e-01 -2.275674970030687e-01 3.733908200982404e-01 -2.688868246657605e-01
            9.846772332574970e-02 1.916889574672879e-02 9.283622022403237e-02 2.734919371247878e-02 3.734077126299801e-01 -2.688136512310961e-01 -1.008424819508381e-01 -2.276251436535853e-01
            -1.009744947636476e-01 -2.275883915721199e-01 3.733195558210973e-01 -2.688654902857436e-01 9.807012831964039e-02 1.980553480633032e-02 9.346602148472370e-02 2.230250036156081e-02
            3.734175797741331e-01 -2.688010575022537e-01 -1.008962576363215e-01 -2.276056589464644e-01 9.345375507953047e-02 2.232458399880444e-02 9.816014772462314e-02 1.978373634005033e-02
792707500.0000000000 1.043417879403250e-01 1.256513081771951e-02 1.100775366781368e-01 3.984219818642793e-03 -1.751915605809793e-01 -1.777983393179130e-01 2.552778086515298e-01 -3.805397198747276e-01
            1.101571088708382e-01 3.966229068708253e-03 1.042757310448641e-01 1.255504667832824e-02 2.553297256158447e-01 -3.805289041981157e-01 -1.750957056224432e-01 -1.777311540088979e-01
            -1.751661794887512e-01 -1.777242383625930e-01 2.552735253274741e-01 -3.805865457656776e-01 1.097920871966838e-01 3.760997805629639e-03 1.042434087218240e-01 7.563217345169365e-03
            2.553624226454668e-01 -3.805650681316836e-01 -1.752118520402530e-01 -1.776801236112704e-01 1.043040860155834e-01 7.584604762060183e-03 1.097844964452565e-01 3.762869101880964e-03
793540000.0000000000 1.034066888595695e-01 -6.023598658194381e-03 1.087431771768907e-01 -1.516732348656351e-02 -2.270845794820583e-01 -1.058941598975418e-01 1.064222487061907e-01 -4.451014125351861e-01
            1.086637865204697e-01 -1.512965711695513e-02 1.033841833089163e-01 -6.055485226809051e-03 1.064604186765870e-01 -4.451059920129585e-01 -2.270506781755811e-01 -1.058488348589646e-01
            -2.270203471577736e-01 -1.059474329094486e-01 1.065139082472856e-01 -4.451340862871917e-01 1.078449125246534e-01 -1.618382675996799e-02 1.027492045882140e-01 -1.038026853285274e-02
            1.064686543894520e-01 -4.451776850391687e-01 -2.270101588284265e-01 -1.059548902601420e-01 1.027656767786476e-01 -1.033879028026282e-02 1.077785387867685e-01 -1.608490045531655e-02
794372500.0000000000 9.054531367775934e-02 -1.942840760291463e-02 9.507131310847984e-02 -2.877095746392399e-02 -2.518546629740415e-01 -2.087762492548775e-02 -5.647099606533172e-02 -4.544245669905254e-01
            9.502599200515070e-02 -2.866266652782928e-02 9.057583322321552e-02 -1.947767866079433e-02 -5.648876093369358e-02 -4.543426696852040e-01 -2.518195676994150e-01 -2.094419744916932e-02
            -2.518216306412228e-01 -2.091816254518594e-02 -5.643579268845213e-02 -4.544079078688439e-01 9.313944352616797e-02 -3.001930343541083e-02 8.961218852470182e-02 -2.290964013428663e-02
            -5.644859234126846e-02 -4.543897681883645e-01 -2.518612123686014e-01 -2.089999700442059e-02 8.966011423708746e-02 -2.281153959648301e-02 9.317536910737166e-02 -3.014226464114408e-02
795205000.0000000000 7.209863199669278e-02 -2.086078097799509e-02 7.556468606761607e-02 -2.997338419122408e-02 -2.466067078528543e-01 6.888299488307711e-02 -2.135372777982744e-01 -4.052688225898801e-01
            7.554942418985112e-02 -2.990013692299592e-02 7.213373717989167e-02 -2.092098813259859e-02 -2.135493157862193e-01 -4.053238112934059e-01 -2.467209043971421e-01 6.875246038284089e-02
            -2.467105234286327e-01 6.884930809504228e-02 -2.135063535319836e-01 -4.052690255672524e-01 7.254363301507397e-02 -3.109230883258078e-02 7.121314596357345e-02 -2.347935627844156e-02
            -2.134821548333487e-01 -4.053382706566517e-01 -2.467552874353189e-01 6.887766827990975e-02 7.126192347925640e-02 -2.343961984276071e-02 7.259460842327506e-02 -3.107725290317556e-02
796037500.0000000000 5.743411371418365e-02 -9.518812371279892e-03 5.996480140901278e-02 -1.780119386485992e-02 -2.100587690734800e-01 1.537136885206002e-01 -3.429904271307835e-01 -3.024994579296190e-01
            6.005506444120214e-02 -1.786716934407667e-02 5.737755409459833e-02 -9.500465762564816e-03 -3.430694481530942e-01 -3.024803345886631e-01 -2.101136212015465e-01 1.536571554315890e-01
            -2.100703390609130e-01 1.536620356759328e-01 -3.430552055142053e-01 -3.024143731142445e-01 5.630830205076234e-02 -1.811238685958789e-02 5.698986889945636e-02 -1.126364415390533e-02
            -3.430347037331977e-01 -3.023654192029953e-01 -2.100209250944899e-01 1.537212125416496e-01 5.703148961787561e-02 -1.129695844665064e-02 5.627175242660103e-02 -1.817937317903125e-02
796870000.0000000000 5.462786481805525e-02 8.857840047918161e-03 5.645856458234483e-02 1.668127334136340e-03 -1.435682967530746e-01 2.218359847058237e-01 -4.262250771824248e-01 -1.599769937458712e-01
            5.653817703980995e-02 1.712529125592320e-03 5.464300487888953e-02 8.835720186148907e-03 -4.262294593414689e-01 -1.599379043424815e-01 -1.436243385841540e-01 2.218626157971597e-01
            -1.436064388181819e-01 2.217660393562514e-01 -4.262123249455627e-01 -1.599274414623748e-01 5.262447393013678e-02 2.182647853390297e-03 5.460128733343296e-02 7.645106043463983e-03
            -4.261951569281738e-01 -1.599535854039445e-01 -1.435838326891388e-01 2.218505219735880e-01 5.454918972613995e-02 7.632961520365840e-03 5.265306476430340e-02 2.222735209022214e-03
797702500.0000000000 6.524707545511095e-02 2.412668127515917e-02 6.694381533860352e-02 1.804645545801445e-02 -5.488473812108409e-02 2.613603987742339e-01 -4.520351369825149e-01 1.172305762355579e-03
            6.691042270101942e-02 1.807260902201065e-02 6.520463595857845e-02 2.408934826614410e-02 -4.520623381045838e-01 1.159982133955068e-03 -5.496063256335991e-02 2.614401496792027e-01
            -5.495470277423106e-02 2.613916119517140e-01 -4.520913226268154e-01 1.281613651340296e-03 6.351234320082043e-02 1.950017459071132e-02 6.551737576436957e-02 2.334881060983661e-02
            -4.520543945339530e-01 1.198892278197425e-03 -5.496833313537228e-02 2.614226159972981e-01 6.549338948165824e-02 2.332734110385922e-02 6.353092330455065e-02 1.950964002171887e-02
798535000.0000000000 8.343442749508001e-02 2.816235993407399e-02 8.530356840270427e-02 2.313866705306761e-02 4.273923594585392e-02 2.652710930070685e-01 -4.197533750556278e-01 1.586787824881646e-01
            8.532405228826974e-02 2.314215288647829e-02 8.341900073778778e-02 2.820153979178048e-02 -4.197472037878319e-01 1.586605892265551e-01 4.263967886619378e-02 2.652952390837217e-01
            4.270032233118161e-02 2.653328271219852e-01 -4.197457287652283e-01 1.586835970033126e-01 8.253522068690611e-02 2.506719886540202e-02 8.406198542775926e-02 2.775680751155563e-02
            -4.196863326129158e-01 1.587079736165843e-01 4.273971265503596e-02 2.652911844856609e-01 8.402067145500071e-02 2.774129328737046e-02 8.269205392854931e-02 2.501714792951757e-02
799367500.0000000000 9.971652527423179e-02 1.894723326512244e-02 1.019992837795370e-01 1.479377138630483e-02 1.345401304104759e-01 2.334140945944985e-01 -3.359606260895148e-01 2.934527248639304e-01
            1.019119833788296e-01 1.468387102452970e-02 9.977245076215438e-02 1.895335589144149e-02 -3.360046212373086e-01 2.935156878973290e-01 1.345334430743184e-01 2.333598509012380e-01
            1.345170806499862e-01 2.334196621411114e-01 -3.360357253409970e-01 2.934807388156633e-01 1.000986465240566e-01 1.658742772924426e-02 1.005780546484592e-01 1.913532262823213e-02
            -3.360283130881728e-01 2.934810862828904e-01 1.345278615024670e-01 2.333244225081952e-01 1.005934251436253e-01 1.910983723673152e-02 1.000543222685979e-01 1.660023937112614e-02
800200000.0000000000 1.059579014685714e-01 1.197941992140505e-03 1.086040423592388e-01 -2.496608158504667e-03 2.083747498156361e-01 1.717027459570797e-01 -2.121180057850122e-01 3.908623329272571e-01
            1.085691226971542e-01 -2.522630735139305e-03 1.059543901378533e-01 1.167346568041247e-03 -2.121187766955568e-01 3.909793631654839e-01 2.083146908986407e-01 1.717373321778106e-01
            2.084039741682521e-01 1.717396915451400e-01 -2.121792190325045e-01 3.909375810267449e-01 1.073188988036995e-01 -9.889443355650728e-04 1.074035575625438e-01 1.875578575853558e-03
            -2.121396292428203e-01 3.909890613531156e-01 2.083965695366851e-01 1.717357934883962e-01 1.073500113205810e-01 1.855203585938926e-03 1.072801022746275e-01 -1.101730646391693e-03
801032500.0000000000 9.888864349692744e-02 -1.653190678593065e-02 1.021345055019151e-01 -1.994039099268092e-02 2.564213062905832e-01 8.899534354417307e-02 -6.209553584006850e-02 4.401245147295870e-01
            1.021782498236731e-01 -1.992609826758743e-02 9.891153577295614e-02 -1.653621189163952e-02 -6.207996890672628e-02 4.401790164460574e-01 2.563830779668561e-01 8.899480726494778e-02
            2.564135652876706e-01 8.895022291676773e-02 -6.210814175753839e-02 4.400921586491324e-01 1.011339576621463e-01 -1.892996791170763e-02 1.012248003269754e-01 -1.532243473678758e-02
            -6.212996815395021e-02 4.401522611707573e-01 2.564108121011143e-01 8.896343768169331e-02 1.011922540726021e-01 -1.540922792298979e-02 1.010764709129276e-01 -1.896378941983449e-02
801865000.0000000000 8.186272718806496e-02 -2.542298790691405e-02 8.554853205800822e-02 -2.892503299831426e-02 2.740064848584260e-01 -5.574443449681591e-03 9.681113124252892e-02 4.339379873876349e-01
            8.553419749057052e-02 -2.881898066419741e-02 8.198003059550134e-02 -2.542954144649375e-02 9.678113993979873e-02 4.340226920194609e-01 2.739808739016695e-01 -5.517897937850070e-03
            2.739694491124121e-01 -5.496844244394986e-03 9.688429610367802e-02 4.339481859310649e-01 8.438257919484712e-02 -2.829236872985438e-02 8.522532118562080e-02 -2.430163865470792e-02
            9.689397769630748e-02 4.339706313063711e-01 2.739914749964746e-01 -5.424742534334885e-03 8.531370491311964e-02 -2.425548573581411e-02 8.440369053062274e-02 -2.830125851031718e-02
802697500.0000000000 6.300859225397708e-02 -2.091108326050451e-02 6.685832371967045e-02 -2.436758605551250e-02 2.583375101582318e-01 -1.022161580354418e-01 2.442677604603490e-01 3.711827807114124e-01
            6.673019104410270e-02 -2.436158385946671e-02 6.300255293404419e-02 -2.093121025125524e-02 2.442488370272747e-01 3.711579019422085e-01 2.583482153251103e-01 -1.022173757208351e-01
            2.583499148778353e-01 -1.022514778508226e-01 2.441760940123345e-01 3.712053272064398e-01 6.556287578036020e-02 -2.393500370962938e-02 6.729800722169392e-02 -2.018380324090275e-02
            2.443228082588124e-01 3.711474771525666e-01 2.582783334130634e-01 -1.022188511681888e-01 6.729002232365526e-02 -2.021511227299569e-02 6.554649538965185e-02 -2.396083162442737e-02
803530000.0000000000 5.184295711428580e-02 -4.713809213939176e-03 5.571914597867589e-02 -8.233127239973010e-03 2.084958552186270e-01 -1.897081565930957e-01 3.591433453833855e-01 2.590998267980123e-01
            5.574345450142446e-02 -8.287961170454675e-03 5.181694260117822e-02 -4.764292323490421e-03 3.592161773177742e-01 2.591200912844226e-01 2.085386776345849e-01 -1.897495768113963e-01
            2.085463750180820e-01 -1.897686929655171e-01 3.591732609636318e-01 2.591651678895464e-01 5.446458753868331e-02 -7.928133321445386e-03 5.663302310064132e-02 -5.040305342556331e-03
            3.591506712443966e-01 2.591596324061088e-01 2.084372033139979e-01 -1.897745217241274e-01 5.664620896868106e-02 -4.964163070755361e-03 5.457341835653707e-02 -7.961029337940030e-03
804362500.0000000000 5.443416391039444e-02 1.460048432963300e-02 5.825921393731266e-02 1.110144506734862e-02 1.284592066046548e-01 -2.547955246240384e-01 4.250720968330894e-01 1.139416086421717e-01
            5.831608671961896e-02 1.120769264224739e-02 5.444756536445566e-02 1.468548800151594e-02 4.250778401595219e-01 1.139547204401729e-01 1.284978279161534e-01 -2.548144845226080e-01
            1.285156030478226e-01 -2.547525018853528e-01 4.251388225841805e-01 1.140232156574816e-01 5.713056968853483e-02 1.146420454624646e-02 5.922904410336141e-02 1.342976110679039e-02
            4.251425207056092e-01 1.139628629501146e-01 1.285038598600843e-01 -2.547859760135220e-01 5.921539690360375e-02 1.344404278686799e-02 5.717613333451867e-02 1.141191087539244e-02
805195000.0000000000 6.924943213203148e-02 2.719577507283910e-02 7.311653077430239e-02 2.385510341326001e-02 2.871285815486925e-02 -2.861522678307557e-01 4.345839749796179e-01 -4.292539049939808e-02
            7.317874183184812e-02 2.380881069157672e-02 6.926340178030606e-02 2.719783574106592e-02 4.346267180421611e-01 -4.291107008562316e-02 2.867132800467611e-02 -2.861283052930892e-01
            2.875785249991941e-02 -2.862022212288393e-01 4.345584313498297e-01 -4.298279544942304e-02 7.215089571785736e-02 2.390007700512381e-02 7.346831511199733e-02 2.522936445872438e-02
            4.346278407983969e-01 -4.293012234550211e-02 2.874582410211425e-02 -2.861390127532351e-01 7.345381789506143e-02 2.522983454629634e-02 7.217524875806564e-02 2.384653307112914e-02
806027500.0000000000 8.837307803501400e-02 2.673710964397288e-02 9.224284990724918e-02 2.331398014430434e-02 -7.557710804680716e-02 -2.785384632257212e-01 3.891358643466273e-01 -1.908964079790706e-01
            9.226143506173336e-02 2.326650138160869e-02 8.836091040263783e-02 2.655880875597674e-02 3.892055960952469e-01 -1.909033759807892e-01 -7.555569053442505e-02 -2.785033645459354e-01
            -7.555988554754146e-02 -2.784915783587658e-01 3.891527885592088e-01 -1.908541922344397e-01 9.145992168651171e-02 2.310751160096168e-02 9.168114869572673e-02 2.452540438260245e-02
            3.892022349956918e-01 -1.908826239997970e-01 -7.560088300430577e-02 -2.785447417191179e-01 9.167408760340699e-02 2.449217968761273e-02 9.151580371464094e-02 2.307827464143023e-02
806860000.0000000000 1.022404711777739e-01 1.372362246388389e-02 1.060375788262871e-01 1.043840908987482e-02 -1.693467940114551e-01 -2.342927726515969e-01 2.968126400608613e-01 -3.128941260103242e-01
            1.060309913721209e-01 1.037785799765702e-02 1.021372090032829e-01 1.370153117955180e-02 2.968358959653220e-01 -3.128968016292815e-01 -1.692743559642264e-01 -2.343256213671598e-01
            -1.693083308458946e-01 -2.342641902163070e-01 2.968109597405645e-01 -3.129433424843484e-01 1.053126886927830e-01 9.807732702447941e-03 1.045868027724869e-01 1.198245837634523e-02
            2.966819651230923e-01 -3.128513503069824e-01 -1.693844021286480e-01 -2.343048990113306e-01 1.046393256431544e-01 1.195018991441966e-02 1.053528820652265e-01 9.806432505667418e-03
807692500.0000000000 1.039585294119689e-01 -4.903283572906390e-03 1.079105140053710e-01 -8.318125662561605e-03 -2.411935788584144e-01 -1.607833536446922e-01 1.687705548576074e-01 -3.959192479186408e-01
            1.078360137173212e-01 -8.341152774797496e-03 1.039326176270715e-01 -4.922599944205328e-03 1.686890331969629e-01 -3.958634118454488e-01 -2.412026663709970e-01 -1.608220802848561e-01
            -2.412194733136865e-01 -1.608461366770666e-01 1.688010517954124e-01 -3.958609664197776e-01 1.070587588431676e-01 -9.306071682367311e-03 1.060020411374419e-01 -5.851986666366560e-03
            1.687886112202588e-01 -3.959010519412340e-01 -2.411874184301409e-01 -1.608367021389865e-01 1.060836566313961e-01 -5.866725954409532e-03 1.069982596194839e-01 -9.287492195826570e-03
808525000.0000000000 9.311880373293979e-02 -2.012040981055329e-02 9.691305668212603e-02 -2.367311344844827e-02 -2.838087034415722e-01 -6.748305654923895e-02 1.925623674781934e-02 -4.298845970592737e-01
            9.678183605977127e-02 -2.367755008461127e-02 9.313997233211950e-02 -2.016370806452020e-02 1.930861129346217e-02 -4.298118700583500e-01 -2.838129494423294e-01 -6.753103469683563e-02
            -2.837790908084754e-01 -6.746780519502886e-02 1.926179653665220e-02 -4.299162595882263e-01 9.578922967724254e-02 -2.488164078482800e-02 9.526187714179446e-02 -2.028759216778859e-02
            1.928219704431280e-02 -4.298391703261423e-01 -2.838458558170923e-01 -6.757560910235545e-02 9.528436742310455e-02 -2.017246329319365e-02 9.577413096959733e-02 -2.487406354115689e-02
809357500.0000000000 7.477957255122339e-02 -2.425406622926882e-02 7.819737416347629e-02 -2.804282268257063e-02 -2.926660687552677e-01 3.573756097658030e-02 -1.337836101258712e-01 -4.088546217638848e-01
            7.812550863716328e-02 -2.801625080066548e-02 7.483460489864735e-02 -2.428259572264190e-02 -1.337917957197503e-01 -4.089727664413331e-01 -2.926102468510026e-01 3.576060642742569e-02
            -2.926217772235112e-01 3.581383776555792e-02 -1.337081331030201e-01 -4.089228415833252e-01 7.695073682481465e-02 -2.933884155942434e-02 7.741905075818735e-02 -2.380085967655704e-02
            -1.337648329349050e-01 -4.089639160933642e-01 -2.927002060683241e-01 3.570940263318037e-02 7.746364665820478e-02 -2.387788896978662e-02 7.689555225661168e-02 -2.930901650938353e-02
810190000.0000000000 5.830286868702099e-02 -1.491597940591184e-02 6.102925777555721e-02 -1.867887090495728e-02 -2.650435740173231e-01 1.379866903211277e-01 -2.698762854185000e-01 -3.339873754901764e-01
            6.112083619744323e-02 -1.876611846837533e-02 5.830006635314940e-02 -1.503489564287234e-02 -2.698217093600968e-01 -3.339615012312488e-01 -2.649048960535497e-01 1.379811210959515e-01
            -2.649596015301501e-01 1.380093515662915e-01 -2.698287073809302e-01 -3.339594917031692e-01 5.983134056527589e-02 -2.003856526144142e-02 6.152203202006788e-02 -1.433386412065250e-02
            -2.698535733599634e-01 -3.339424445852074e-01 -2.649247877126998e-01 1.380066387820594e-01 6.151190433210748e-02 -1.440658466718049e-02 5.979428265598503e-02 -2.004041680448316e-02
811022500.0000000000 5.246102381018521e-02 3.229108260720988e-03 5.448967204495124e-02 -1.997998750563180e-04 -2.013207885560790e-01 2.259810632724330e-01 -3.691347702739772e-01 -2.149742484763616e-01
            5.449030755892465e-02 -1.875911499605110e-04 5.250741411162490e-02 3.172028029438724e-03 -3.692473614031359e-01 -2.149189721424473e-01 -2.012310927599268e-01 2.259897510471254e-01
            -2.011941292210037e-01 2.259345116262002e-01 -3.691398817474811e-01 -2.148880702141818e-01 5.334315435745341e-02 -1.722512159773553e-03 5.600456217479569e-02 3.617086215355456e-03
            -3.691502457264537e-01 -2.149602505171201e-01 -2.013211190750400e-01 2.259846385146761e-01 5.604180615088438e-02 3.662546374470681e-03 5.339471223628518e-02 -1.799684656676384e-03
811855000.0000000000 6.052003927646644e-02 2.045125862704679e-02 6.191538197717342e-02 1.781232591777271e-02 -1.081705628173243e-01 2.857805375049371e-01 -4.181818692097361e-01 -6.969487497324586e-02
            6.182683250309806e-02 1.789680235765102e-02 6.048530908348001e-02 2.038100768583497e-02 -4.181357295465719e-01 -6.976883657988404e-02 -1.081688994762750e-01 2.856697631758273e-01
            -1.081314239567220e-01 2.857268078536177e-01 -4.180983662775538e-01 -6.974897572975437e-02 6.088978009398096e-02 1.603400069671184e-02 6.420325787915412e-02 2.075970790708481e-02
            -4.181846858291823e-01 -6.971397890255593e-02 -1.081592791854801e-01 2.856666582780570e-01 6.408327208363009e-02 2.069069958823758e-02 6.086536562841200e-02 1.593910263490309e-02
812687500.0000000000 7.810287331598026e-02 2.785972758917354e-02 7.924512630820112e-02 2.616280454112014e-02 1.249104794300583e-03 3.070352968998011e-01 -4.125135358345878e-01 8.101935463285083e-02
            7.929375556643985e-02 2.614333552801931e-02 7.811796018802666e-02 2.781874377829606e-02 -4.124430128000708e-01 8.098065059311459e-02 1.253716117509240e-03 3.070350481799861e-01
            1.300745000178378e-03 3.070959866391424e-01 -4.125748497075651e-01 8.102066446289308e-02 7.818612801973433e-02 2.380484218842147e-02 8.149576380618906e-02 2.794418634080758e-02
            -4.125132958279814e-01 8.111948305533559e-02 1.223372744709726e-03 3.071049137095118e-01 8.150075602090984e-02 2.798354847715346e-02 7.818478904056621e-02 2.383994674871990e-02
813520000.0000000000 9.593817408270723e-02 2.157165866370738e-02 9.741922900271252e-02 2.109708541387149e-02 1.104067612502394e-01 2.871159325850365e-01 -3.558197711096105e-01 2.183321956725692e-01
            9.732798558069869e-02 2.099110565491989e-02 9.596363587408979e-02 2.160112756457886e-02 -3.557878614493741e-01 2.183924891455238e-01 1.104541666163179e-01 2.871568017958164e-01
            1.104374091029644e-01 2.871759848110789e-01 -3.557950268707085e-01 2.184121506194123e-01 9.597015157084048e-02 1.814118502557054e-02 9.911831978108256e-02 2.209133466066858e-02
            -3.558222005938875e-01 2.184641175870204e-01 1.104056319150228e-01 2.871943432984220e-01 9.911883783848303e-02 2.205820475892500e-02 9.597686762145802e-02 1.799136180566663e-02
814352500.0000000000 1.051969191044037e-01 5.197905757357105e-03 1.072598615028410e-01 5.334380122382919e-03 2.045815357449452e-01 2.304632743875499e-01 -2.564568481264452e-01 3.272433094695530e-01
            1.073081232583029e-01 5.365677291203084e-03 1.052451717096232e-01 5.133463125103819e-03 -2.564769361287696e-01 3.272675006282392e-01 2.045419313122146e-01 2.303811244524015e-01
            2.045844117658306e-01 2.304389239259267e-01 -2.564156168951611e-01 3.271868031627694e-01 1.053960804910868e-01 2.046556810774863e-03 1.085065923960901e-01 6.304948440676733e-03
            -2.565060001712072e-01 3.271799744485810e-01 2.045824487005065e-01 2.303363593470012e-01 1.083977799158302e-01 6.173766112244403e-03 1.052784849472768e-01 2.152898077397545e-03
815185000.0000000000 1.014725638137404e-01 -1.332488983543996e-02 1.044408354467551e-01 -1.264297843446334e-02 2.730061483594566e-01 1.451929489018930e-01 -1.258898093472567e-01 3.956595258415725e-01
            1.044484137424698e-01 -1.278171760456753e-02 1.013837622095383e-01 -1.333583021762560e-02 -1.258157802848003e-01 3.956456897919368e-01 2.729237058981899e-01 1.452329515578241e-01
            2.729753682807094e-01 1.452836754844989e-01 -1.259094043503733e-01 3.956492185292902e-01 1.017155948052035e-01 -1.618078688926258e-02 1.052357556301722e-01 -1.172365828021050e-02
            -1.258849138067512e-01 3.956875689828798e-01 2.729837720884503e-01 1.453125922051177e-01 1.051116811473352e-01 -1.166747685951397e-02 1.017222344181889e-01 -1.627433590977350e-02
816017500.0000000000 8.631667120311627e-02 -2.486847372576623e-02 9.019554521580371e-02 -2.451524274662896e-02 3.087338373947432e-01 4.168027166012316e-02 2.137296465563663e-02 4.146184631200159e-01
            9.020283734872542e-02 -2.451755898348885e-02 8.628164580935173e-02 -2.490727854170184e-02 2.131304665615591e-02 4.145897309628168e-01 3.087400306816266e-01 4.179996214029606e-02
            3.087194671846590e-01 4.171928427381569e-02 2.133947843959432e-02 4.145316056359690e-01 8.681028157803380e-02 -2.768908418515079e-02 9.084007118258805e-02 -2.298326909215398e-02
            2.129492439162030e-02 4.145577629690448e-01 3.087214148383060e-01 4.172793045570408e-02 9.080563622460876e-02 -2.294644540569661e-02 8.688986531000888e-02 -2.765379829848644e-02
816850000.0000000000 6.704505116220688e-02 -2.354652774144269e-02 7.161010024192037e-02 -2.374072741986986e-02 3.072448237370820e-01 -6.940215227890802e-02 1.667338692993880e-01 3.797354167202104e-01
            7.153475861165418e-02 -2.377897739620986e-02 6.708369671763981e-02 -2.351984244338341e-02 1.667422655740066e-01 3.797260658362209e-01 3.072373322700221e-01 -6.938321940002651e-02
            3.073122730947527e-01 -6.940205979170221e-02 1.667006104322504e-01 3.797651982251051e-01 6.777241612655893e-02 -2.645222806179577e-02 7.258803391852800e-02 -2.187381317513454e-02
            1.667573666263151e-01 3.796536306775067e-01 3.072161475798159e-01 -6.941464717917677e-02 7.258556154899501e-02 -2.186290304450353e-02 6.779507952229707e-02 -2.644727782130702e-02
817682500.0000000000 5.349083846473697e-02 -9.504223427737928e-03 5.790533408094286e-02 -1.048691907659414e-02 2.663298790249665e-01 -1.754194755626207e-01 2.899472324870850e-01 2.943198164893877e-01
            5.784875210305237e-02 -1.056776163082708e-02 5.354916854898686e-02 -9.503993903076718e-03 2.899334467503996e-01 2.942802368265446e-01 2.662870367073180e-01 -1.753726901587574e-01
            2.662582879594275e-01 -1.754503703914053e-01 2.899660867913719e-01 2.944125726533181e-01 5.429490083233490e-02 -1.257226923029126e-02 5.977030008034290e-02 -8.665300989872895e-03
            2.898631156230994e-01 2.943074925764085e-01 2.663266665516233e-01 -1.754459817260811e-01 5.977897123979328e-02 -8.658133606177357e-03 5.430598143641452e-02 -1.270526294745240e-02
818515000.0000000000 5.299488400410271e-02 1.011627822204892e-02 5.668293661222028e-02 8.638794413867213e-03 1.883922907277313e-01 -2.614877637954366e-01 3.731048360641976e-01 1.709099615151805e-01
            5.675601991274873e-02 8.597166352187841e-03 5.304217678414082e-02 1.005922851727731e-02 3.730558456849282e-01 1.708509688182502e-01 1.883973937112072e-01 -2.615068436476829e-01
            1.883257845288410e-01 -2.614335701226758e-01 3.730171165684016e-01 1.708504964381679e-01 5.354245054996647e-02 6.632577081268927e-03 5.927103578336701e-02 9.995552214678176e-03
            3.731103438507840e-01 1.709280882221677e-01 1.884454708575103e-01 -2.615293392213990e-01 5.932716277981001e-02 9.903075987625245e-03 5.362182828541747e-02 6.697924568641629e-03
819347500.0000000000 6.576006794804189e-02 2.484647218903863e-02 6.860190516897888e-02 2.355480853112536e-02 8.298022156171768e-02 -3.136863746998318e-01 4.058796092714502e-01 2.782392239617138e-02
            6.853248572627511e-02 2.359424264523407e-02 6.572827368164565e-02 2.484884102527882e-02 4.057756814856070e-01 2.782423906542454e-02 8.291290929039286e-02 -3.138156614574473e-01
            8.298256699448196e-02 -3.137439579775174e-01 4.057697523436346e-01 2.787699935024129e-02 6.596281859639971e-02 2.129589655264274e-02 7.161563242507421e-02 2.395264942192287e-02
            4.058367577180179e-01 2.785941570902356e-02 8.300508164268761e-02 -3.138119003726753e-01 7.167165929806808e-02 2.392577761759345e-02 6.594980552959900e-02 2.126825161774371e-02
820180000.0000000000 8.496983665614455e-02 2.732701882721874e-02 8.707494217433270e-02 2.670696073432790e-02 -3.441409863064028e-02 -3.236384566572673e-01 3.864932435317750e-01 -1.151077721848084e-01
            8.703488365956587e-02 2.664048935027224e-02 8.501608971878967e-02 2.729160178154201e-02 3.864956172488175e-01 -1.150289625583091e-01 -3.443872411582961e-02 -3.237367197281794e-01
            -3.444879649504017e-02 -3.236757842927515e-01 3.865026696939906e-01 -1.150975336447135e-01 8.459036346029790e-02 2.375436533672082e-02 8.998355033268801e-02 2.596300960512531e-02
            3.864897763165465e-01 -1.150839582518068e-01 -3.442329599831141e-02 -3.236962319140929e-01 9.001278030532359e-02 2.596543300775147e-02 8.465173189899852e-02 2.370877131841952e-02
821012500.0000000000 1.008406783894598e-01 1.659391509124363e-02 1.026072645193686e-01 1.712075767075946e-02 -1.467387337366798e-01 -2.909902517807632e-01 3.201450891528914e-01 -2.409746128911449e-01
            1.025910847678589e-01 1.712151928451390e-02 1.007974961983432e-01 1.654907617889621e-02 3.202362624621615e-01 -2.409898496667155e-01 -1.468023801623079e-01 -2.909920220277553e-01
            -1.466833311641372e-01 -2.910038754503140e-01 3.202990567177291e-01 -2.410158162937511e-01 9.998416526564703e-02 1.323276107647887e-02 1.050729077270596e-01 1.543321963105778e-02
            3.202535664915299e-01 -2.410235929804045e-01 -1.466933469640290e-01 -2.908521471975210e-01 1.050946010255300e-01 1.536608926037494e-02 9.983817026577738e-02 1.323516469708571e-02
821845000.0000000000 1.056688778290667e-01 -1.849274067888282e-03 1.078638953900199e-01 -4.331309600777748e-05 -2.396620821515971e-01 -2.216351603543064e-01 2.155974209510285e-01 -3.364017267913599e-01
            1.079179839735290e-01 -1.132497739340266e-05 1.057758012752728e-01 -1.848432834934323e-03 2.155266066022251e-01 -3.364134481183680e-01 -2.396980115856853e-01 -2.216364670386266e-01
            -2.396724108599471e-01 -2.216076951715090e-01 2.155479020298362e-01 -3.363410481105902e-01 1.041989978019386e-01 -4.786699540825798e-03 1.094467693821161e-01 -2.463978579796800e-03
            2.155727855264281e-01 -3.364211914921177e-01 -2.396065221688121e-01 -2.217093413902929e-01 1.094332752286547e-01 -2.451460655217601e-03 1.042756766258469e-01 -4.681909333439752e-03
822677500.0000000000 9.730331336424999e-02 -1.893816562256733e-02 1.005063262443548e-01 -1.626923796088092e-02 -3.031859427082296e-01 -1.250675669652146e-01 8.394954230356425e-02 -3.902374178606777e-01
            1.004777369257275e-01 -1.623634283600983e-02 9.738658698588908e-02 -1.901295282759704e-02 8.408858108498583e-02 -3.901885386617150e-01 -3.031578928863964e-01 -1.250100519884088e-01
            -3.031603057552047e-01 -1.251065833039737e-01 8.395115116321004e-02 -3.901249484001482e-01 9.559256773482454e-02 -2.103240034857518e-02 1.011633174439494e-01 -1.884938166967184e-02
            8.399442145402013e-02 -3.902317974664817e-01 -3.032003226241754e-01 -1.250880644747951e-01 1.010832809442817e-01 -1.885400006364942e-02 9.556104443447555e-02 -2.107741699964529e-02
823510000.0000000000 7.962271479577858e-02 -2.639650039248171e-02 8.422862464064323e-02 -2.331285888497604e-02 -3.305763071678207e-01 -1.184471961032644e-02 -5.917745703394883e-02 -3.945106467217966e-01
            8.417773931107353e-02 -2.339587097348322e-02 7.969156072965924e-02 -2.629460543133261e-02 -5.913471900320547e-02 -3.945627665854707e-01 -3.305494928992734e-01 -1.185940985587893e-02
            -3.305277268283311e-01 -1.199265149730979e-02 -5.910292057926145e-02 -3.944875408558545e-01 7.788527609385530e-02 -2.781463576212988e-02 8.393418320105056e-02 -2.582794219434805e-02
            -5.917654744237851e-02 -3.945137065277183e-01 -3.305917645645292e-01 -1.187685254516566e-02 8.386495818702365e-02 -2.577806505180039e-02 7.792113163345413e-02 -2.764749336980525e-02
824342500.0000000000 6.143036824430023e-02 -2.010747791878134e-02 6.715135404028980e-02 -1.741377639426786e-02 -3.171891532948154e-01 1.058528283434568e-01 -1.951219581680852e-01 -3.468630983088251e-01
            6.713891379345280e-02 -1.747515555425649e-02 6.147795853330545e-02 -2.008936941997532e-02 -1.950941020466896e-01 -3.469017091900102e-01 -3.171905797890698e-01 1.058864887690237e-01
            -3.171200324870802e-01 1.058714794825624e-01 -1.951730094480846e-01 -3.468929251814513e-01 5.998714422120111e-02 -2.066024542828589e-02 6.622633642351158e-02 -1.943751892614272e-02
            -1.950392517545250e-01 -3.468798929553578e-01 -3.171844863873537e-01 1.058466740446948e-01 6.619752827813513e-02 -1.942075871484658e-02 5.992212969849686e-02 -2.067025280537627e-02
825175000.0000000000 5.215827540767645e-02 -3.150596185911620e-03 5.850775275280772e-02 -1.259113347270036e-03 -2.619811537019981e-01 2.136894303838047e-01 -3.042075241222029e-01 -2.531866154144136e-01
            5.859230711347550e-02 -1.294333106203498e-03 5.214134977839184e-02 -3.137533121089919e-03 -3.041769329132632e-01 -2.531748844848336e-01 -2.619744697790419e-01 2.136507960570442e-01
            -2.619801150719825e-01 2.136295063742318e-01 -3.042356540984433e-01 -2.531970992339043e-01 5.114805119583827e-02 -2.962148937277897e-03 5.717865508300742e-02 -2.817170252714778e-03
            -3.042095550361081e-01 -2.531727396088139e-01 -2.619962245425232e-01 2.136212261183517e-01 5.724625446493577e-02 -2.825212329649749e-03 5.115450133038249e-02 -3.057688257367239e-03
826007500.0000000000 5.664658749013649e-02 1.571402105767843e-02 6.334054682728045e-02 1.665034166854068e-02 -1.700569073275966e-01 2.955535940773788e-01 -3.710658780474558e-01 -1.276870177591235e-01
            6.337528137057778e-02 1.660988539055759e-02 5.673986739062156e-02 1.570408260108629e-02 -3.710143263569946e-01 -1.276340246890130e-01 -1.699284198782847e-01 2.955297817011671e-01
            -1.698709874990808e-01 2.955398365589576e-01 -3.710982028998919e-01 -1.276177032343618e-01 5.651432713573872e-02 1.602324432408846e-02 6.187351032369724e-02 1.555891118275729e-02
            -3.710811981491697e-01 -1.276465624717186e-01 -1.699548165159576e-01 2.954809624945913e-01 6.178372091604444e-02 1.548949332837962e-02 5.644104004823107e-02 1.607245262500151e-02
826840000.0000000000 7.261138568663675e-02 2.639197140741035e-02 7.897100887679123e-02 2.668619652555494e-02 -5.343884274344848e-02 3.381876986100399e-01 -3.885639297021831e-01 1.101975158425364e-02
            7.902165508564096e-02 2.666507682518088e-02 7.265445465585259e-02 2.641989733540028e-02 -3.884324206501472e-01 1.099134098446316e-02 -5.344436907190515e-02 3.382525440453624e-01
            -5.354690178094706e-02 3.382496762184477e-01 -3.884409256071069e-01 1.102983894582365e-02 7.309671557610767e-02 2.684427574051732e-02 7.736380265984952e-02 2.581849882712628e-02
            -3.884712879220372e-01 1.090543331163709e-02 -5.345952309140802e-02 3.382786332502275e-01 7.736490598354250e-02 2.580493595987762e-02 7.316513603045796e-02 2.676001795323466e-02
827672500.0000000000 9.146662350293598e-02 2.374459708071593e-02 9.738635750084328e-02 2.372379329887301e-02 7.019016402939735e-02 3.356387062423770e-01 -3.572481970695724e-01 1.447161233238066e-01
            9.737690038789094e-02 2.376594203281268e-02 9.139657910622670e-02 2.375684142260724e-02 -3.572502572271261e-01 1.446803528361099e-01 7.017489083384791e-02 3.356247139726609e-01
            7.031293730281080e-02 3.356243976734805e-01 -3.572690734451973e-01 1.446707144928321e-01 9.252143314851485e-02 2.379608691307637e-02 9.569797118403307e-02 2.322115815452539e-02
            -3.572832100756577e-01 1.447100225929160e-01 7.020387700429741e-02 3.357041188841987e-01 9.568866823115574e-02 2.330620629132057e-02 9.253503454631203e-02 2.379545047558130e-02
828505000.0000000000 1.036720250634335e-01 9.217164464394821e-03 1.092422399281720e-01 9.537565187326579e-03 1.838190079853771e-01 2.896793878721687e-01 -2.831156995208117e-01 2.585060334871916e-01
            1.092904916613018e-01 9.545233713937793e-03 1.036143543048659e-01 9.287451925261999e-03 -2.831073881305716e-01 2.585681516560821e-01 1.838316010653092e-01 2.897247725340582e-01
            1.838248674978930e-01 2.897185784366543e-01 -2.830926826203957e-01 2.584952283331260e-01 1.050462416937958e-01 8.920433401124481e-03 1.074385175810118e-01 9.400515175706876e-03
            -2.830630627403204e-01 2.585427773286900e-01 1.838522662480590e-01 2.896809733778117e-01 1.074367733025959e-01 9.309536027013962e-03 1.050416645530946e-01 9.004970423683116e-03
829337500.0000000000 1.034183162793755e-01 -9.441170823871638e-03 1.089784258541870e-01 -8.926946092481274e-03 2.739607174919455e-01 2.078763032491662e-01 -1.747930813058608e-01 3.402868856611755e-01
            1.089897199730902e-01 -8.890024339291598e-03 1.034912169363995e-01 -9.543094059603683e-03 -1.747941038830555e-01 3.402148371208245e-01 2.740225751408797e-01 2.078773444578598e-01
            2.740003213919692e-01 2.079256852375246e-01 -1.747638114936174e-01 3.402251435346548e-01 1.049001990251687e-01 -1.023210633305965e-02 1.072224569089325e-01 -8.743264411767563e-03
            -1.747385327779862e-01 3.402348389023869e-01 2.739419268393266e-01 2.079176183282587e-01 1.072650090217802e-01 -8.659178698628096e-03 1.048691444988372e-01 -1.033967538168005e-02
830170000.0000000000 9.083552261018821e-02 -2.360755351570189e-02 9.674213229675221e-02 -2.271818138795085e-02 3.309498415906256e-01 1.002974248901313e-01 -4.399661663889540e-02 3.797129263195262e-01
            9.671895908400245e-02 -2.272191484872338e-02 9.072631816710855e-02 -2.364146008428445e-02 -4.396669005562153e-02 3.797231712577728e-01 3.308983930813041e-01 1.003514427634429e-01
            3.309499778222790e-01 1.002595431482148e-01 -4.409085288980437e-02 3.796999386580582e-01 9.211936515476711e-02 -2.472722388010803e-02 9.516830439683141e-02 -2.218008678469933e-02
            -4.399277417736779e-02 3.797454165623995e-01 3.309987857066018e-01 1.004357483872557e-01 9.517138187288698e-02 -2.227314853644107e-02 9.209000641261644e-02 -2.476990535964749e-02
831002500.0000000000 7.181463279213769e-02 -2.588537591063474e-02 7.829401807303871e-02 -2.513821872264784e-02 3.482757948081173e-01 -2.151126874120294e-02 9.326772347787460e-02 3.702900868915265e-01
            7.832960363761274e-02 -2.511103099589920e-02 7.183597170182840e-02 -2.586996868064149e-02 9.328662809543509e-02 3.702482600636408e-01 3.482805475890301e-01 -2.162056567259594e-02
            3.482545028319121e-01 -2.161916564123562e-02 9.328833602660951e-02 3.702470265109001e-01 7.291181375749579e-02 -2.715053802226238e-02 7.697762032442122e-02 -2.433966885955533e-02
            9.332992535529520e-02 3.701883255874760e-01 3.482612062899279e-01 -2.150628508743291e-02 7.700944324853520e-02 -2.440749142259888e-02 7.287957760679926e-02 -2.714889319285299e-02
831835000.0000000000 5.587202651440898e-02 -1.484603979825020e-02 6.287254947183349e-02 -1.445617392853580e-02 3.218107068475334e-01 -1.441647957583450e-01 2.183493853014397e-01 3.114496747354563e-01
            6.288882810495658e-02 -1.457769637069953e-02 5.589714137538208e-02 -1.477034934285427e-02 2.182096925370267e-01 3.114060368645616e-01 3.218683456518001e-01 -1.442121965956064e-01
            3.218219181782239e-01 -1.442610997928214e-01 2.183090216883539e-01 3.114607861174215e-01 5.684751933424672e-02 -1.603770209475698e-02 6.195434569425112e-02 -1.373413317007631e-02
            2.182516232007658e-01 3.114120231442468e-01 3.218199870979597e-01 -1.442066619836219e-01 6.196287453624182e-02 -1.378104591670259e-02 5.681299101114403e-02 -1.613698908198831e-02
832667500.0000000000 5.166008180016601e-02 4.127200030186934e-03 5.866592252016710e-02 3.805304470686029e-03 2.519837745259361e-01 -2.514464097008355e-01 3.125730008800264e-01 2.116591691104642e-01
            5.872484361302779e-02 3.749595812785381e-03 5.164321428543064e-02 4.048224464635992e-03 3.125479339297481e-01 2.117085953935354e-01 2.520252542068753e-01 -2.514816544346253e-01
            2.520494022783299e-01 -2.515162619335475e-01 3.125968819947041e-01 2.116784587117938e-01 5.235034029239303e-02 3.007034187248843e-03 5.797356002730527e-02 4.456517355922131e-03
            3.125875891374860e-01 2.117047281159563e-01 2.520045808717375e-01 -2.515069061388528e-01 5.802568868486542e-02 4.405362290077743e-03 5.240001220543087e-02 3.009806438232263e-03
833500000.0000000000 6.119841015522912e-02 2.094315948692511e-02 6.792340063945823e-02 1.999703928048335e-02 1.466537855988645e-01 -3.269203537723067e-01 3.636846500610692e-01 8.641774367952668e-02
            6.789817607177538e-02 1.998596557842423e-02 6.122020409774669e-02 2.106552802218735e-02 3.636846424785885e-01 8.647624536274251e-02 1.466086629862683e-01 -3.268242038207714e-01
            1.465652859421354e-01 -3.268961524645592e-01 3.636669537642823e-01 8.643966963607505e-02 6.183923743399222e-02 2.006784787884942e-02 6.726792864653777e-02 2.045204840053196e-02
            3.636763464382306e-01 8.650711201473645e-02 1.465792153266142e-01 -3.268700655515459e-01 6.727504087065422e-02 2.043124985191233e-02 6.185912994759617e-02 2.010469587717620e-02
834332500.0000000000 7.935579274998819e-02 2.693773192179041e-02 8.547505139617415e-02 2.572480038461613e-02 2.064885503494977e-02 -3.586423618651349e-01 3.673050681665081e-01 -4.616368574355217e-02
            8.547530131707110e-02 2.566483199276284e-02 7.934444865397325e-02 2.704729762391453e-02 3.672371401633067e-01 -4.608569681583485e-02 2.065304015963011e-02 -3.586607102736930e-01
            2.063530396745411e-02 -3.586819854236009e-01 3.671717751094073e-01 -4.602501531155875e-02 8.015517025966439e-02 2.616923480187124e-02 8.482684397825822e-02 2.593742961150185e-02
            3.672311982565328e-01 -4.607078776539483e-02 2.067178892047782e-02 -3.585971736126298e-01 8.481743549658352e-02 2.603325775720516e-02 8.018078032446903e-02 2.624324060890178e-02
835165000.0000000000 9.678917444655803e-02 1.949497870442229e-02 1.022086469248757e-01 1.830573483972503e-02 -1.075534240202565e-01 -3.429389966273284e-01 3.256778205859160e-01 -1.697305297885985e-01
            1.021554531035204e-01 1.837876074354990e-02 9.673822993824847e-02 1.948419199717728e-02 3.256784715330810e-01 -1.698216839350702e-01 -1.075273621088240e-01 -3.429240769153759e-01
            -1.075714979083442e-01 -3.429860739329665e-01 3.257527425948388e-01 -1.697202558851773e-01 9.764132854735534e-02 1.867761651383877e-02 1.013474184121518e-01 1.858697597576130e-02
            3.257075667928699e-01 -1.698422047084690e-01 -1.075011918247413e-01 -3.430114533626394e-01 1.013664980956218e-01 1.855244118154485e-02 9.769978706814277e-02 1.864374072868951e-02
835997500.0000000000 1.047079689101583e-01 2.525365582238226e-03 1.097926833391168e-01 1.866868327796173e-03 -2.211079148462358e-01 -2.838269108877162e-01 2.451578925590401e-01 -2.712963363425477e-01
            1.097885686947431e-01 1.809989349758434e-03 1.046812541379045e-01 2.485345084574207e-03 2.451687614731052e-01 -2.712907661962931e-01 -2.210625202970443e-01 -2.838166251965915e-01
            -2.210169907145712e-01 -2.838057165739185e-01 2.451891620444517e-01 -2.713028838343045e-01 1.058558730870191e-01 1.612857942876105e-03 1.088240407285388e-01 2.209631120299506e-03
            2.451099294045166e-01 -2.713709445799029e-01 -2.209689013114408e-01 -2.838050139002036e-01 1.087735434121542e-01 2.232508428788030e-03 1.058504616060400e-01 1.651564544937545e-03
836830000.0000000000 9.951593314723177e-02 -1.545272789232725e-02 1.047559114900722e-01 -1.544283281259707e-02 -3.070102432592886e-01 -1.897112814328075e-01 1.345432731719813e-01 -3.392951074893155e-01
            1.047281523896678e-01 -1.554167542154878e-02 9.950378622807056e-02 -1.553341424688928e-02 1.346246596442097e-01 -3.393616194284075e-01 -3.070250692381045e-01 -1.896940937446069e-01
            -3.069678987861664e-01 -1.897113474773416e-01 1.345919473878680e-01 -3.394959139165782e-01 1.007913165997745e-01 -1.645602872756989e-02 1.036429501697222e-01 -1.493547865566187e-02
            1.345886886365363e-01 -3.393511130783596e-01 -3.069335515518278e-01 -1.897499218986065e-01 1.036446706411572e-01 -1.492561369312637e-02 1.007727411189268e-01 -1.646205710522739e-02
837662500.0000000000 8.368945838989887e-02 -2.566413193163226e-02 8.943771998265911e-02 -2.528937199136419e-02 -3.561501044368726e-01 -7.155368403547377e-02 6.125814070802153e-03 -3.646805229294096e-01
            8.934957848709095e-02 -2.530866204250613e-02 8.367671458849425e-02 -2.563990241805857e-02 6.190276068692220e-03 -3.646486305076193e-01 -3.561542429220290e-01 -7.161955085293413e-02
            -3.561483217522248e-01 -7.147781494269743e-02 6.099989993676700e-03 -3.645498392988925e-01 8.490410941673976e-02 -2.681660043622745e-02 8.829202361410882e-02 -2.446831533114613e-02
            6.191777740626072e-03 -3.646132724288721e-01 -3.561596415142628e-01 -7.158464964948498e-02 8.837135990781576e-02 -2.450844152899685e-02 8.491628957215336e-02 -2.682526415915421e-02
838495000.0000000000 6.473393046547106e-02 -2.274424924595767e-02 7.113582042225965e-02 -2.234612915888387e-02 -3.620389507939175e-01 5.815145587473367e-02 -1.236961888970627e-01 -3.420275287281412e-01
            7.121455252867932e-02 -2.236400047848039e-02 6.481728499754237e-02 -2.277498793807679e-02 -1.236847314974887e-01 -3.420771586349521e-01 -3.619494838861687e-01 5.814956472730133e-02
            -3.619383831354418e-01 5.814657425268298e-02 -1.236784589893917e-01 -3.420597933129835e-01 6.595124590537373e-02 -2.398487815299986e-02 7.041629059927032e-02 -2.137243327252902e-02
            -1.236339577924040e-01 -3.420666369388007e-01 -3.620027403806709e-01 5.818778144411542e-02 7.048500831669149e-02 -2.142493213601704e-02 6.599297632986426e-02 -2.390861972239672e-02
839327500.0000000000 5.260262783104493e-02 -7.653920510275357e-03 5.959032150736445e-02 -7.783685261564697e-03 -3.212280571922220e-01 1.840380362080485e-01 -2.361750155718574e-01 -2.738132505781676e-01
            5.962958471077168e-02 -7.779410934292237e-03 5.270817678306533e-02 -7.595203204288506e-03 -2.362029961409046e-01 -2.737536708315341e-01 -3.211951855381290e-01 1.840740671159640e-01
            -3.212566388131937e-01 1.839850477479640e-01 -2.361635113393098e-01 -2.737752401322661e-01 5.373675367947861e-02 -8.869777749536770e-03 5.913059901761669e-02 -6.936623195263021e-03
            -2.361548304727722e-01 -2.737904896574041e-01 -3.211798759772418e-01 1.840207071061730e-01 5.907548404258645e-02 -6.895749016305732e-03 5.367078187781943e-02 -9.032431394892402e-03
840160000.0000000000 5.375696983762533e-02 1.168392691805883e-02 6.085824804416973e-02 1.087140006317444e-02 -2.363629484017576e-01 2.884407059688305e-01 -3.151383637113556e-01 -1.703544418603137e-01
            6.093303696189561e-02 1.083809488488118e-02 5.376065298685765e-02 1.171198728574339e-02 -3.151164947115632e-01 -1.702637648925219e-01 -2.364770286499082e-01 2.885553728455494e-01
            -2.363772691514781e-01 2.885044087654866e-01 -3.151088956211087e-01 -1.703554133706289e-01 5.482572067629096e-02 1.050434964456708e-02 6.064964544248926e-02 1.154307534420375e-02
            -3.150957012580512e-01 -1.702777015458327e-01 -2.364265176883107e-01 2.884853930161025e-01 6.056648714058203e-02 1.145845537054647e-02 5.478769193637652e-02 1.052886684703184e-02
840992500.0000000000 6.753286369649784e-02 2.522061729003546e-02 7.439272230960059e-02 2.376250602014153e-02 -1.185244544749112e-01 3.552683221784449e-01 -3.510094278911892e-01 -4.769223347019692e-02
            7.435859672814364e-02 2.366604667115963e-02 6.756058942053335e-02 2.521214087213386e-02 -3.510462312217427e-01 -4.766739597231282e-02 -1.185250616067997e-01 3.553148747353037e-01
            -1.184889871215078e-01 3.552552534177225e-01 -3.511050080376470e-01 -4.770735642464193e-02 6.864158508746240e-02 2.399003916173441e-02 7.409536606411876e-02 2.410331541727738e-02
            -3.510852885535162e-01 -4.767796954731564e-02 -1.185553697712110e-01 3.552177897920699e-01 7.401768218392621e-02 2.416530335819214e-02 6.861931620762211e-02 2.400182141358651e-02
841825000.0000000000 8.669987825469226e-02 2.611085239219040e-02 9.292494768358410e-02 2.417469497752478e-02 1.531764404049051e-02 3.745791937237555e-01 -3.421836147087515e-01 7.717401611668637e-02
            9.287626898606825e-02 2.424057522943283e-02 8.664164906343626e-02 2.618610865998811e-02 -3.421586763329041e-01 7.719410961284903e-02 1.533369488912051e-02 3.746460883803964e-01
            1.533025289984565e-02 3.746505073611884e-01 -3.422236603539214e-01 7.718498880623813e-02 8.776426980451088e-02 2.495972999460568e-02 9.227322745342369e-02 2.431702572932267e-02
            -3.421999001019581e-01 7.715737442974224e-02 1.535304634482336e-02 3.747304841991257e-01 9.231388926696270e-02 2.440266579900494e-02 8.774439584445975e-02 2.496452889278653e-02
842657500.0000000000 1.013873977470836e-01 1.436659631012613e-02 1.069756986789095e-01 1.246076078768865e-02 1.462577492151364e-01 3.452538933680510e-01 -2.919713953739249e-01 1.900357245525790e-01
            1.070454994831611e-01 1.247719191703705e-02 1.013665213030102e-01 1.437029053692613e-02 -2.920482311067267e-01 1.900448049006395e-01 1.462531837733640e-01 3.453062578140885e-01
            1.462435760277711e-01 3.453132491656249e-01 -2.920525469109814e-01 1.900200855993044e-01 1.026306048710497e-01 1.305271811842175e-02 1.060827286884207e-01 1.249129966099509e-02
            -2.920259570260110e-01 1.900955622201853e-01 1.462634791856575e-01 3.452931567472736e-01 1.060684011845631e-01 1.259320526729854e-02 1.026010684702043e-01 1.295666763126998e-02
843490000.0000000000 1.046961349871055e-01 -3.988154520893359e-03 1.097963859014250e-01 -5.595491483205375e-03 2.578820432996893e-01 2.729304368616438e-01 -2.068129883678546e-01 2.790149436330754e-01
            1.099120900396368e-01 -5.528901632817346e-03 1.045961231766281e-01 -4.003736114078955e-03 -2.068088835671450e-01 2.789446838948499e-01 2.578908305767178e-01 2.728332328289613e-01
            2.579315658276974e-01 2.728207699371918e-01 -2.067898778186338e-01 2.788962868741660e-01 1.059076515887361e-01 -5.691526623071779e-03 1.085958963535534e-01 -5.288006582530960e-03
            -2.067823844241040e-01 2.789364504435616e-01 2.579427805877326e-01 2.729062722956781e-01 1.086027696815305e-01 -5.258874806777438e-03 1.059790624176494e-01 -5.646009526728694e-03
844322500.0000000000 9.500440537874992e-02 -1.998331736696955e-02 1.002832127646658e-01 -2.112139763610817e-02 3.381094169554412e-01 1.667581869484747e-01 -9.561886877434510e-02 3.332860173578036e-01
            1.003506397044450e-01 -2.114239867020757e-02 9.503809248357543e-02 -2.002822149500402e-02 -9.560317900279265e-02 3.332994478713192e-01 3.380787299514615e-01 1.668613129809812e-01
            3.380816378477329e-01 1.667989145135322e-01 -9.570423842706283e-02 3.333264872406091e-01 9.626416434836360e-02 -2.188670440561744e-02 9.894153146289200e-02 -2.038979478215018e-02
            -9.561984165233400e-02 3.333399854368133e-01 3.381226100548969e-01 1.667897500233986e-01 9.876747332965145e-02 -2.042811857484839e-02 9.624181396336620e-02 -2.193478485222879e-02
845155000.0000000000 7.712510424553774e-02 -2.566611669279518e-02 8.286249332784362e-02 -2.660304652649039e-02 3.777944601159938e-01 3.881064245903048e-02 2.868418683965337e-02 3.449633612471265e-01
            8.284934004504729e-02 -2.659621567895090e-02 7.712350868058497e-02 -2.564797099906651e-02 2.865031177442958e-02 3.450130623504781e-01 3.778394726230491e-01 3.875783864606358e-02
            3.778340393619228e-01 3.878409211879865e-02 2.861273790179834e-02 3.449609247221332e-01 7.810561040496464e-02 -2.788236994971000e-02 8.127490664156108e-02 -2.531684139509208e-02
            2.866337625197285e-02 3.450065803648145e-01 3.778029367757295e-01 3.874215458752013e-02 8.132203287899750e-02 -2.525584822977711e-02 7.807380054543832e-02 -2.787852811196451e-02
845987500.0000000000 5.979211228296914e-02 -1.774635751110823e-02 6.593857547574536e-02 -1.896267718539037e-02 3.706808083024055e-01 -9.729579712700878e-02 1.492177687172551e-01 3.107075947950629e-01
            6.597241641359079e-02 -1.895344894467052e-02 5.973459264831044e-02 -1.765753187386454e-02 1.492135941086415e-01 3.107047133783180e-01 3.706696984687227e-01 -9.730279311671584e-02
            3.707187685489611e-01 -9.731150295546419e-02 1.492311664925113e-01 3.107142469018782e-01 6.045692148494853e-02 -2.017841346808962e-02 6.475571380014941e-02 -1.711626110536807e-02
            1.492197239998375e-01 3.106748683566269e-01 3.707286342232423e-01 -9.730726390285893e-02 6.476775182635723e-02 -1.709768583597015e-02 6.042182134851386e-02 -2.021537811735596e-02
846820000.0000000000 5.225188051644172e-02 -8.764394506448103e-05 5.863106280436649e-02 -1.998495587236394e-03 3.147589934179520e-01 -2.241839750074995e-01 2.482788210873410e-01 2.350637513911428e-01
            5.861371676690462e-02 -2.014760814354334e-03 5.229109810913802e-02 -8.001747307029643e-05 2.483895660988212e-01 2.349840211337432e-01 3.148026529068392e-01 -2.242143381946712e-01
            3.147923509335225e-01 -2.241921293909324e-01 2.483042613185172e-01 2.350695361597147e-01 5.234492490365072e-02 -2.476527602539049e-03 5.797341007873708e-02 2.764178150921669e-04
            2.482984918359524e-01 2.350439608287804e-01 3.148514781633020e-01 -2.241178890080651e-01 5.796337742527050e-02 1.845883158953471e-04 5.241900424966134e-02 -2.518486751204035e-03
847652500.0000000000 5.859592033595609e-02 1.814379200396193e-02 6.471669030782089e-02 1.547084045304699e-02 2.155446084747765e-01 -3.234934036027712e-01 3.121634521534874e-01 1.302325538638094e-01
            6.473732930610443e-02 1.550076885527840e-02 5.862467024541463e-02 1.810304922429808e-02 3.121592270039861e-01 1.302827830817804e-01 2.155724001248505e-01 -3.235411626463366e-01
            2.154872895803910e-01 -3.234540959399561e-01 3.121317653553565e-01 1.301924564092921e-01 5.837122830452509e-02 1.586884402416116e-02 6.469384083177299e-02 1.766743348827446e-02
            3.121293514557131e-01 1.301493598683326e-01 2.155537831033391e-01 -3.235224649209882e-01 6.460471202772351e-02 1.767232555347950e-02 5.828642081463904e-02 1.585193539879312e-02
848485000.0000000000 7.546027662762672e-02 2.733037046374939e-02 8.079786835933829e-02 2.396282812853342e-02 8.659021754098289e-02 -3.798447704563765e-01 3.340932827245007e-01 1.210989482369398e-02
            8.081693467959396e-02 2.400409568861900e-02 7.553811677445595e-02 2.742467141042462e-02 3.339997889311920e-01 1.215849887447369e-02 8.645459198855784e-02 -3.799639580339780e-01
            8.654411235611918e-02 -3.799576409352404e-01 3.340379416317002e-01 1.221321423074329e-02 7.481084542562644e-02 2.537179607314370e-02 8.130753520912584e-02 2.585538403412138e-02
            3.340591001240182e-01 1.214018170456189e-02 8.653783667203714e-02 -3.799448334317156e-01 8.132107817095145e-02 2.608516674519024e-02 7.477263839528406e-02 2.541176020714199e-02
849317500.0000000000 9.412771690507560e-02 2.312193446484336e-02 9.835537260514823e-02 1.958415178337826e-02 -5.346575627202364e-02 -3.859716398445592e-01 3.144115334352164e-01 -1.040693032266496e-01
            9.838881450289599e-02 1.968554659164893e-02 9.401977843833689e-02 2.305120231585378e-02 3.143819118858422e-01 -1.039109183585779e-01 -5.353481085267052e-02 -3.860252264791891e-01
            -5.340279807808564e-02 -3.860084459826055e-01 3.144209462949951e-01 -1.039687142458756e-01 9.311700028668952e-02 2.157631643958524e-02 9.905325240913720e-02 2.110553585319231e-02
            3.143643809302051e-01 -1.039956193025956e-01 -5.349869863268407e-02 -3.859992247777983e-01 9.919450464817417e-02 2.109168779267146e-02 9.320219556726980e-02 2.156937677977716e-02
850150000.0000000000 1.051687284073198e-01 7.895614645675383e-03 1.083568085582028e-01 4.757028364092260e-03 -1.854865647183255e-01 -3.426893798525782e-01 2.571337823231888e-01 -2.055283001512071e-01
            1.083419300882946e-01 4.702564647631083e-03 1.052134439694176e-01 7.846395289256772e-03 2.571129847325971e-01 -2.055925729194794e-01 -1.854214445320924e-01 -3.427204612439900e-01
            -1.854757336232765e-01 -3.426911194070444e-01 2.571016463893638e-01 -2.055819230364647e-01 1.041992153371210e-01 6.743820511630547e-03 1.093227929411858e-01 5.795950814275864e-03
            2.572131313051073e-01 -2.055420344275886e-01 -1.854317774124995e-01 -3.427768514646271e-01 1.092862218651211e-01 5.802954866689265e-03 1.041829940636416e-01 6.753572055560146e-03
850982500.0000000000 1.036553561227400e-01 -1.078671431515027e-02 1.060818120485711e-01 -1.309285044860552e-02 -2.938399557594645e-01 -2.571600827146587e-01 1.685798856721158e-01 -2.816976251567962e-01
            1.061337648655270e-01 -1.298174705150249e-02 1.036912320613780e-01 -1.085950240446143e-02 1.687191491023907e-01 -2.816047123683869e-01 -2.938848761089159e-01 -2.571791774545892e-01
            -2.939213380797846e-01 -2.571336934462487e-01 1.686494635786445e-01 -2.816715067177695e-01 1.028147206175408e-01 -1.152151658642790e-02 1.069280718860850e-01 -1.226207551598962e-02
            1.686814705754776e-01 -2.816237345428264e-01 -2.937905801598862e-01 -2.571408723286409e-01 1.069648364342030e-01 -1.228343081536596e-02 1.028264184424404e-01 -1.152090594767868e-02
851815000.0000000000 9.026596161603331e-02 -2.390227255333539e-02 9.250671604833166e-02 -2.495110898838774e-02 -3.668409298922051e-01 -1.394943661202038e-01 5.841687510568202e-02 -3.226911477395871e-01
            9.251890741261611e-02 -2.499447283529612e-02 9.027836660431508e-02 -2.388729759608114e-02 5.847609618705628e-02 -3.225436310287878e-01 -3.668326466531945e-01 -1.395048451845411e-01
            -3.668279723954274e-01 -1.396589718022591e-01 5.837467462673387e-02 -3.225170123671390e-01 8.960805547351934e-02 -2.439211778191112e-02 9.323729764182197e-02 -2.458063815524284e-02
            5.843803814885214e-02 -3.225621043901749e-01 -3.668232176192893e-01 -1.396127454394720e-01 9.327906396313380e-02 -2.461629918536791e-02 8.955381079216282e-02 -2.434466907044035e-02
852647500.0000000000 7.149214728182859e-02 -2.469917980000199e-02 7.415017385677958e-02 -2.504234502973920e-02 -3.954321396716646e-01 -2.542179908771180e-03 -6.002441281323773e-02 -3.213124028720012e-01
            7.412646569126541e-02 -2.502347659089496e-02 7.156544955874442e-02 -2.472602806628567e-02 -5.996972606568511e-02 -3.212705826354940e-01 -3.955751620643086e-01 -2.537931590409446e-03
            -3.955100042496584e-01 -2.572495842530573e-03 -5.995835276412910e-02 -3.212699061591184e-01 7.101595987979029e-02 -2.508337864344747e-02 7.465547922785755e-02 -2.465352351487464e-02
            -6.006892377687985e-02 -3.212933102745638e-01 -3.955253332538823e-01 -2.474005850943093e-03 7.461159351072519e-02 -2.473663118365172e-02 7.099925776583205e-02 -2.506904769174482e-02
853480000.0000000000 5.696034044992984e-02 -1.268410271761674e-02 6.025957371038500e-02 -1.257171532978434e-02 -3.741872077088435e-01 1.382648016799270e-01 -1.698517589110762e-01 -2.768025788618683e-01
            6.019897597568603e-02 -1.259064124889911e-02 5.692250113188359e-02 -1.274557299619514e-02 -1.698724224241830e-01 -2.767744501092795e-01 -3.741244560197575e-01 1.381856110851661e-01
            -3.741073847952857e-01 1.382841401705558e-01 -1.699266926610223e-01 -2.767776900961156e-01 5.666954803825042e-02 -1.297967341368831e-02 6.060041638765212e-02 -1.228300829828728e-02
            -1.697933168178218e-01 -2.768677240893920e-01 -3.741681298308485e-01 1.382284392587362e-01 6.058722997540458e-02 -1.231926425626433e-02 5.664633238027578e-02 -1.300957327530718e-02
854312500.0000000000 5.436098952349609e-02 6.059577825643285e-03 5.829238777329534e-02 6.116535981237927e-03 -3.027654537925937e-01 2.639510444984068e-01 -2.547425950031215e-01 -1.960006249756838e-01
            5.832489036125874e-02 6.148832241276230e-03 5.437512512253422e-02 6.105592697031940e-03 -2.547253780239599e-01 -1.960963979324907e-01 -3.027548706071911e-01 2.638653147056902e-01
            -3.027493080087017e-01 2.639466384188807e-01 -2.548022530915992e-01 -1.959850223752349e-01 5.429364048605847e-02 5.756494250509372e-03 5.860094805846687e-02 6.338471006216353e-03
            -2.547147950304465e-01 -1.960388883472078e-01 -3.026791791275601e-01 2.640027048384097e-01 5.855249909143400e-02 6.446787689230638e-03 5.427325173296910e-02 5.700815252480061e-03
855145000.0000000000 6.525261810479459e-02 2.160698400216014e-02 6.947586023109560e-02 2.127634097528280e-02 -1.895940435303540e-01 3.557710201556751e-01 -3.036847183173172e-01 -9.211750140623239e-02
            6.947854158838292e-02 2.128704935064163e-02 6.523193849233674e-02 2.167239039389495e-02 -3.037282989119885e-01 -9.212191848346508e-02 -1.895063722382658e-01 3.558173309514321e-01
            -1.895675947784401e-01 3.558333143578515e-01 -3.036877598345337e-01 -9.210949477386346e-02 6.514305163387989e-02 2.132154217399699e-02 6.975115155201232e-02 2.159704949485391e-02
            -3.036249677767692e-01 -9.215504077793359e-02 -1.895633485839239e-01 3.557717951737850e-01 6.966012050883395e-02 2.161152751933661e-02 6.521215486188435e-02 2.130979061913195e-02
855977500.0000000000 8.368341275713749e-02 2.576872040444592e-02 8.779701358098235e-02 2.510025862993016e-02 -5.093964882906319e-02 4.002562917728205e-01 -3.130618021116557e-01 1.967301860202880e-02
            8.778853539300027e-02 2.508304561133376e-02 8.368173008806522e-02 2.579952346092584e-02 -3.130205532692289e-01 1.969626966384155e-02 -5.096649336417251e-02 4.002558650162491e-01
            -5.091090883173886e-02 4.002355205462425e-01 -3.131164203167117e-01 1.968314463034817e-02 8.365930595058207e-02 2.542808168944404e-02 8.795057246443046e-02 2.529008621633038e-02
            -3.130467552754078e-01 1.966689178984750e-02 -5.090411344689900e-02 4.002466620553810e-01 8.804338059546066e-02 2.536884626300023e-02 8.366109826487488e-02 2.538750235279841e-02
856810000.0000000000 1.001676201697763e-01 1.667575056065895e-02 1.038843801362268e-01 1.581678667869933e-02 9.326858106133558e-02 3.923438066462233e-01 -2.842255233277597e-01 1.260599441243858e-01
            1.038391740390396e-01 1.587764043742448e-02 1.002397694437978e-01 1.675017670530158e-02 -2.842541013445044e-01 1.260430849213047e-01 9.323179680064650e-02 3.923986946068694e-01
            9.326539188717950e-02 3.923376904824784e-01 -2.842585623403554e-01 1.261056316753736e-01 1.001595550608926e-01 1.643631104447961e-02 1.039403048345683e-01 1.607347171047918e-02
            -2.842168270442286e-01 1.261022079243015e-01 9.325086292082681e-02 3.922985493451860e-01 1.040272574517069e-01 1.613344791023584e-02 1.002093328381313e-01 1.637405745455357e-02
857642500.0000000000 1.068027968053888e-01 -9.116524600199136e-04 1.099771558973012e-01 -1.494121332630671e-03 2.246408309282358e-01 3.350538660378253e-01 -2.215359501829002e-01 2.160635363311504e-01
            1.099392857201046e-01 -1.507421339711282e-03 1.067282172689642e-01 -8.561575641295091e-04 -2.215629738754460e-01 2.160340630549800e-01 2.245975801425555e-01 3.350557888934810e-01
            2.245897117757712e-01 3.350500235072734e-01 -2.214852592926014e-01 2.160411601155778e-01 1.067096736872786e-01 -1.198396638270367e-03 1.100817349653549e-01 -1.253489191864388e-03
            -2.215896901346898e-01 2.160048717954006e-01 2.245238635367493e-01 3.350598951332076e-01 1.100449815290124e-01 -1.304855634451652e-03 1.067261830665848e-01 -1.200946154422991e-03
858475000.0000000000 1.002334645309410e-01 -1.852297121281475e-02 1.033027621773492e-01 -1.860507664679489e-02 3.280808229566332e-01 2.366202934454392e-01 -1.315556200789064e-01 2.793899183381786e-01
            1.033089985245913e-01 -1.865222145309634e-02 1.002933147169561e-01 -1.860116354449187e-02 -1.314969534276162e-01 2.793850464775905e-01 3.279823858156233e-01 2.366312285931211e-01
            3.281095524073930e-01 2.366909699850844e-01 -1.315240571629989e-01 2.793797737572876e-01 1.003646618204240e-01 -1.884678470713192e-02 1.033157548827459e-01 -1.846528133197587e-02
            -1.315184960309638e-01 2.793735930870643e-01 3.280527260526967e-01 2.366699830586395e-01 1.032687389606340e-01 -1.844142470448929e-02 1.002771663654557e-01 -1.876762244976511e-02
859307500.0000000000 8.371506010685650e-02 -2.786691879675293e-02 8.692109288987078e-02 -2.730843783728969e-02 3.922367432076503e-01 1.081670641812782e-01 -2.397745076550510e-02 3.072921329975749e-01
            8.688288416740600e-02 -2.728233328466165e-02 8.379721823024196e-02 -2.786409703641347e-02 -2.399614035765763e-02 3.072878442916631e-01 3.921858056202397e-01 1.081299287768133e-01
            3.922128510752806e-01 1.081601272583984e-01 -2.399363630031897e-02 3.073512106167358e-01 8.386722240674674e-02 -2.813152853646678e-02 8.690037102727075e-02 -2.703758629987547e-02
            -2.393577516565803e-02 3.073861090674045e-01 3.921508139121078e-01 1.082370556223754e-01 8.697454982399472e-02 -2.701144342124394e-02 8.381732864633434e-02 -2.812841509403443e-02
860140000.0000000000 6.508109896488715e-02 -2.394104267600792e-02 6.886824593176566e-02 -2.298445980372003e-02 4.084888222663576e-01 -3.638946674650238e-02 8.703245000605503e-02 2.942984391906547e-01
            6.879882078632385e-02 -2.297330038640011e-02 6.504660823881979e-02 -2.399047841975433e-02 8.710088564569403e-02 2.942788538679985e-01 4.084052207576948e-01 -3.636859865951216e-02
            4.084724353674175e-01 -3.643293713373524e-02 8.699993567794423e-02 2.943050467543702e-01 6.529303696529730e-02 -2.418788971611152e-02 6.883291609336066e-02 -2.276685661014733e-02
            8.691502327354604e-02 2.942048801898191e-01 4.083343311805876e-01 -3.644842565271738e-02 6.884268979981804e-02 -2.273314299747223e-02 6.530217787035585e-02 -2.421572101052918e-02
860972500.0000000000 5.378957253704676e-02 -8.620753860064249e-03 5.825084229063198e-02 -7.705075407639437e-03 3.719632084742365e-01 -1.797581258770124e-01 1.850960743369649e-01 2.416618862256025e-01
            5.828268583633122e-02 -7.774916422142446e-03 5.375197748562809e-02 -8.628690462390926e-03 1.851133088056728e-01 2.416389873167258e-01 3.719838231157016e-01 -1.798240749968374e-01
            3.720002217627579e-01 -1.797500123883640e-01 1.850837115216248e-01 2.416440239070518e-01 5.397629363435601e-02 -8.921906492279291e-03 5.824631622462353e-02 -7.444128336237484e-03
            1.850642874426384e-01 2.415862300521494e-01 3.719699511409360e-01 -1.798190241579263e-01 5.826012204451240e-02 -7.429849052612335e-03 5.394759354133204e-02 -8.941718083699609e-03
861805000.0000000000 5.566114166220646e-02 1.012131567738796e-02 6.062910334383348e-02 1.049586117099711e-02 2.854109974841620e-01 -3.020319842963126e-01 2.558187462602958e-01 1.579133571277021e-01
            6.057416493485254e-02 1.061728477896382e-02 5.561371908638987e-02 1.010067250845442e-02 2.557383520804343e-01 1.580297740251980e-01 2.853405510765635e-01 -3.019953139253236e-01
            2.853152257725373e-01 -3.020324929358423e-01 2.557935282935727e-01 1.579504019366535e-01 5.593966851689319e-02 9.786267085730443e-03 6.070295579502737e-02 1.081732715777633e-02
            2.558624601094122e-01 1.579381037831086e-01 2.853728883519428e-01 -3.020255816979998e-01 6.072372857702391e-02 1.081207316687596e-02 5.586935919177656e-02 9.815321771965941e-03
862637500.0000000000 6.944999914123183e-02 2.243179685970280e-02 7.459971271983744e-02 2.227877299371309e-02 1.597221432195013e-01 -3.846516751604432e-01 2.911281081065916e-01 5.689622569207271e-02
            7.460777122107656e-02 2.221104833477472e-02 6.947976620359576e-02 2.246575500364668e-02 2.911503470759523e-01 5.688917786645131e-02 1.596330226864279e-01 -3.846738146592302e-01
            1.596740863151481e-01 -3.846010456465917e-01 2.910915955912510e-01 5.686451059160109e-02 6.973507460694738e-02 2.215146696528634e-02 7.462957955414504e-02 2.248889046768600e-02
            2.911167791041364e-01 5.689251543152485e-02 1.596674493720038e-01 -3.845845430753840e-01 7.465480822529857e-02 2.243743616533066e-02 6.979945596804360e-02 2.221379457416848e-02
863470000.0000000000 8.763590215454292e-02 2.217294667674610e-02 9.228873927334268e-02 2.145466113386239e-02 1.318395561757659e-02 -4.163645694791968e-01 2.892125465756383e-01 -4.774143806360638e-02
            9.234522158024332e-02 2.139859672133126e-02 8.761208566722006e-02 2.225365804768522e-02 2.893955225608129e-01 -4.776763565697706e-02 1.317183042842866e-02 -4.163827871482214e-01
            1.325027537188795e-02 -4.163344920486012e-01 2.893414162431658e-01 -4.779527693921025e-02 8.784335812958051e-02 2.193463597971928e-02 9.237990900325721e-02 2.162791652509813e-02
            2.893339684295919e-01 -4.772356828153700e-02 1.328327637339345e-02 -4.162653188361533e-01 9.231871454779197e-02 2.161718943492688e-02 8.782318519199811e-02 2.194605221404019e-02
864302500.0000000000 1.007273757227801e-01 1.013297802040813e-02 1.049261269522726e-01 9.084777763984066e-03 -1.337235648121439e-01 -3.943407707123746e-01 2.526098195383100e-01 -1.441553377853470e-01
            1.049371937202140e-01 9.105835212703549e-03 1.007578399654468e-01 1.017880126516260e-02 2.525859352946642e-01 -1.441360171755225e-01 -1.337617729980302e-01 -3.943236638801436e-01
            -1.337440727460725e-01 -3.943277760738326e-01 2.526166315967206e-01 -1.442121631787326e-01 1.010041640630659e-01 9.871001564496037e-03 1.047650597437281e-01 9.246884968139187e-03
            2.526850433851216e-01 -1.442327714412999e-01 -1.337577389412712e-01 -3.942985739184957e-01 1.047855506628367e-01 9.176910698064438e-03 1.010295181209815e-01 9.917995808303555e-03
865135000.0000000000 1.025087045433778e-01 -7.459932149435839e-03 1.060413780971501e-01 -8.373700549091227e-03 -2.633207471479792e-01 -3.231576221613741e-01 1.856039897598182e-01 -2.223315147822833e-01
            1.060106394898281e-01 -8.364635905069275e-03 1.025385169665078e-01 -7.423434937268235e-03 1.856581741566154e-01 -2.223272573375932e-01 -2.633831799961491e-01 -3.232239683996408e-01
            -2.633615588227883e-01 -3.232215384752665e-01 1.856350425105427e-01 -2.223755855291875e-01 1.027778040418208e-01 -7.741487834116901e-03 1.057872369375242e-01 -8.214110555609432e-03
            1.856650444999588e-01 -2.223430284078148e-01 -2.633253379186460e-01 -3.231643899136327e-01 1.057923020422474e-01 -8.159336576286638e-03 1.027716783785772e-01 -7.658650644497814e-03
865967500.0000000000 9.208435545642067e-02 -2.183118917876389e-02 9.516548418290376e-02 -2.216382014368490e-02 -3.608275117101958e-01 -2.119196566251567e-01 9.511610276320277e-02 -2.728319755462215e-01
            9.514584223626608e-02 -2.219476214220740e-02 9.203397776132304e-02 -2.174167559251313e-02 9.508129071725636e-02 -2.728047250435484e-01 -3.608032649208711e-01 -2.120716615443940e-01
            -3.608252621175020e-01 -2.119948651985962e-01 9.517468207340220e-02 -2.728216284286921e-01 9.233818271464656e-02 -2.204109267226254e-02 9.495661966844492e-02 -2.196528890550301e-02
            9.510560484319126e-02 -2.727206647679086e-01 -3.608547682213915e-01 -2.119806389817513e-01 9.489240398460126e-02 -2.195558214361307e-02 9.239878008638683e-02 -2.215231101940317e-02
866800000.0000000000 7.444448740207590e-02 -2.552338453057740e-02 7.759920934595474e-02 -2.538069311625032e-02 -4.147977857198331e-01 -7.292948239937447e-02 -8.204294068448970e-03 -2.877506748294379e-01
            7.754723480575197e-02 -2.540129926055610e-02 7.446161558335045e-02 -2.550514056589651e-02 -8.176479554222117e-03 -2.877266359491027e-01 -4.147904678587697e-01 -7.292724215850586e-02
            -4.147851717488179e-01 -7.297363390645273e-02 -8.281104979352239e-03 -2.877331805022811e-01 7.471528944558267e-02 -2.586898419045251e-02 7.727289744613297e-02 -2.503434203338499e-02
            -8.200984051499025e-03 -2.878110053050222e-01 -4.148069080017632e-01 -7.293692903590139e-02 7.733900027142530e-02 -2.499384804331380e-02 7.480760941361267e-02 -2.587533167976465e-02
867632500.0000000000 5.868521249455332e-02 -1.632908109706503e-02 6.213823738087842e-02 -1.581614941531652e-02 -4.169452819366916e-01 7.827908552119496e-02 -1.099787285608963e-01 -2.638061835570158e-01
            6.205287429658164e-02 -1.583867924258553e-02 5.868295633744078e-02 -1.622138852289735e-02 -1.099855543304057e-01 -2.638031029197558e-01 -4.168997539572019e-01 7.832887537055773e-02
            -4.169403149314909e-01 7.830840862076184e-02 -1.099562434799062e-01 -2.637645790043613e-01 5.893687311559095e-02 -1.682417313500724e-02 6.188234871501613e-02 -1.530679995099562e-02
            -1.099897546654280e-01 -2.637732131834824e-01 -4.168685594248216e-01 7.836118284453283e-02 6.187813368174634e-02 -1.534102780098871e-02 5.895507015986506e-02 -1.677475664145600e-02
868465000.0000000000 5.316116034345230e-02 1.275234387701834e-03 5.692419534621494e-02 1.727105732857335e-03 -3.642949162604256e-01 2.224004890316828e-01 -1.947298634825639e-01 -2.046401060536026e-01
            5.699159339942560e-02 1.800840650615657e-03 5.321948995018460e-02 1.240251030361010e-03 -1.947749614712632e-01 -2.046137084177780e-01 -3.641592532391624e-01 2.224245993326247e-01
            -3.641968376276413e-01 2.224514251899080e-01 -1.947816743651300e-01 -2.046994790138841e-01 5.342943183661206e-02 7.866802922317231e-04 5.679372028165882e-02 2.417783056531906e-03
            -1.947616534146125e-01 -2.046037881110556e-01 -3.642133682046346e-01 2.224246137023144e-01 5.676504146553356e-02 2.373314785401631e-03 5.332421800638786e-02 7.041515701358194e-04
869297500.0000000000 6.103401635371137e-02 1.817262680796592e-02 6.512290112166522e-02 1.834180460270978e-02 -2.621542972620194e-01 3.387030995117590e-01 -2.510967156199548e-01 -1.205208524111460e-01
            6.508636878387408e-02 1.831273368565715e-02 6.105687114160602e-02 1.818216016354228e-02 -2.510777156359464e-01 -1.205566347155173e-01 -2.622411152859777e-01 3.385928951650176e-01
            -2.622706649388741e-01 3.386575835457744e-01 -2.511654185487855e-01 -1.205582044920238e-01 6.109049359664391e-02 1.758918544245372e-02 6.502321607063351e-02 1.895471728874169e-02
            -2.511049250260932e-01 -1.205100682079655e-01 -2.621626490162577e-01 3.386171770442993e-01 6.502251777397815e-02 1.899364104033206e-02 6.109033861498717e-02 1.748663644462794e-02
870130000.0000000000 7.808532026745610e-02 2.534510226940597e-02 8.203579118484862e-02 2.516631284933278e-02 -1.250814017443691e-01 4.099379212198249e-01 -2.735524398818358e-01 -2.457523173966811e-02
            8.206455388929107e-02 2.516223077915498e-02 7.802690141790987e-02 2.524864964775568e-02 -2.735108476669922e-01 -2.458817099672558e-02 -1.250345134329918e-01 4.098763130063584e-01
            -1.250690709738202e-01 4.099333838186188e-01 -2.734916156027469e-01 -2.459123216873577e-02 7.802315245326435e-02 2.486028155815703e-02 8.207685045967035e-02 2.576103289858431e-02
            -2.734773958450607e-01 -2.454025368476985e-02 -1.250946436443310e-01 4.099400942387025e-01 8.209911113556237e-02 2.570085576986400e-02 7.803113061131688e-02 2.479529422089450e-02
870962500.0000000000 9.541965928253257e-02 1.942443882996470e-02 9.904661247201549e-02 1.899653429462322e-02 2.744673994569073e-02 4.272780082541179e-01 -2.620667353987291e-01 7.125181358371303e-02
            9.906099613718088e-02 1.897466426007290e-02 9.549091985872875e-02 1.946734686706903e-02 -2.620885129421298e-01 7.128847188198793e-02 2.748338438665239e-02 4.273283467816315e-01
            2.757293720533436e-02 4.273932538159265e-01 -2.621054833108677e-01 7.129772019539905e-02 9.520512227688559e-02 1.899732446373133e-02 9.918315863636787e-02 1.953520853915273e-02
            -2.620996479148075e-01 7.134164869983214e-02 2.744230149573807e-02 4.273136918081925e-01 9.918126935649049e-02 1.957195487085996e-02 9.528718679997379e-02 1.905297141234291e-02
871795000.0000000000 1.045557394012688e-01 3.793684516013724e-03 1.076298491152999e-01 3.422043314063084e-03 1.751968986989608e-01 3.906135268113726e-01 -2.194756654595302e-01 1.568157478057776e-01
            1.077265865142188e-01 3.483275364686701e-03 1.045286147517585e-01 3.717583136215028e-03 -2.196445220281774e-01 1.568661109257543e-01 1.752134118927255e-01 3.906393679708457e-01
            1.752501728914598e-01 3.906582478308445e-01 -2.195039514132892e-01 1.568600604162363e-01 1.043990529691370e-01 3.434398225079593e-03 1.077870645756703e-01 3.809207933340040e-03
            -2.195610754426007e-01 1.568268231150827e-01 1.751941352892786e-01 3.906257477532790e-01 1.078386441503031e-01 3.818512109409082e-03 1.043660871958947e-01 3.487537186633178e-03
872627500.0000000000 1.012937501831153e-01 -1.395561040191783e-02 1.038942181104098e-01 -1.394532890405356e-02 3.009419494728706e-01 3.056383278841652e-01 -1.501488886103041e-01 2.230175556399066e-01
            1.038632612791798e-01 -1.397202852210983e-02 1.012402228512099e-01 -1.405092143646858e-02 -1.502396642958498e-01 2.230243503269827e-01 3.009526652728645e-01 3.055891699144696e-01
            3.009253315040899e-01 3.056766835999569e-01 -1.501258761815725e-01 2.230447476821734e-01 1.010376357075388e-01 -1.414638904336177e-02 1.039902263682691e-01 -1.367987748969583e-02
            -1.502377347636372e-01 2.231415737069626e-01 3.009294660814065e-01 3.056764719838164e-01 1.040179589817937e-01 -1.367980930821549e-02 1.009659907660856e-01 -1.421183472777866e-02
873460000.0000000000 8.697694326861925e-02 -2.526487139503655e-02 8.945361158639338e-02 -2.465253781651444e-02 3.904681982396174e-01 1.823939051779137e-01 -6.123615359358818e-02 2.609543842044930e-01
            8.946264592877955e-02 -2.458854210913384e-02 8.695634931138363e-02 -2.530411471688497e-02 -6.119740588326635e-02 2.609937489830820e-01 3.903731892697176e-01 1.823745458880373e-01
            3.904010439788705e-01 1.823763056544833e-01 -6.119923779422954e-02 2.610116861883569e-01 8.669054081072247e-02 -2.537537915061536e-02 8.955486163739933e-02 -2.441097112005821e-02
            -6.123160557424410e-02 2.610412709707807e-01 3.903936768726727e-01 1.824005507427465e-01 8.951059024279817e-02 -2.436800777727460e-02 8.672005626997541e-02 -2.533473236805799e-02
874292500.0000000000 6.878131384586261e-02 -2.414904355474482e-02 7.151155340870066e-02 -2.297062945164896e-02 4.324402685136486e-01 3.416127183827016e-02 3.609708148650767e-02 2.642298556120027e-01
            7.146055790308936e-02 -2.292153791319836e-02 6.870384120958564e-02 -2.420282347943489e-02 3.611126293905899e-02 2.642742561173324e-01 4.323601174168948e-01 3.418897837206701e-02
            4.323826728388566e-01 3.422076906806528e-02 3.606875385345302e-02 2.642551790269403e-01 6.845511011250117e-02 -2.419834577046174e-02 7.144432539964767e-02 -2.283263029472646e-02
            3.612044151873982e-02 2.641964501096378e-01 4.323790720606560e-01 3.424709734743356e-02 7.145092440653308e-02 -2.272815455887024e-02 6.849496581882686e-02 -2.423263315476236e-02
875125000.0000000000 5.592248682888318e-02 -1.105216443861830e-02 5.908045726014122e-02 -9.558560049977644e-03 4.193724319896212e-01 -1.215362568408976e-01 1.273443066253299e-01 2.313961087215519e-01
            5.908323057324699e-02 -9.527889828541893e-03 5.583007227212575e-02 -1.108077318925659e-02 1.272730358878701e-01 2.314251620116582e-01 4.193501233257591e-01 -1.214300282882296e-01
            4.193506924535569e-01 -1.215067787501001e-01 1.273583046269655e-01 2.314290623201575e-01 5.559548962807893e-02 -1.100528265404742e-02 5.893187683584997e-02 -9.385620615108631e-03
            1.273136723156955e-01 2.313873398279892e-01 4.193849296386939e-01 -1.215660792053600e-01 5.893854964916558e-02 -9.343444600917414e-03 5.562580896219885e-02 -1.097833610872859e-02
875957500.0000000000 5.532914694701084e-02 7.407083243884145e-03 5.896026128534377e-02 8.851188878075936e-03 3.505290314812186e-01 -2.637234190604767e-01 1.986534793130015e-01 1.682319429453462e-01
            5.896633047530261e-02 8.877022082183557e-03 5.521475791227919e-02 7.420829147872304e-03 1.987967181657671e-01 1.682108341246737e-01 3.505741920223895e-01 -2.637724992380653e-01
            3.505557958754090e-01 -2.637683997397620e-01 1.987311318336876e-01 1.682372118686862e-01 5.498618434190485e-02 7.550904144375933e-03 5.872206849542230e-02 9.067985677257053e-03
            1.987546531699362e-01 1.682647174088387e-01 3.504980014921513e-01 -2.638112779647279e-01 5.877983192455668e-02 9.184403897199062e-03 5.496956985775331e-02 7.536783026142768e-03
876790000.0000000000 6.724824801657289e-02 2.139893106279848e-02 7.117400970857739e-02 2.250961847629522e-02 2.343268789772613e-01 -3.718246161429671e-01 2.414936822924108e-01 8.586959645413463e-02
            7.114079689977681e-02 2.256985684962650e-02 6.723475031351384e-02 2.134771417784403e-02 2.414435334926077e-01 8.579689734337706e-02 2.343221216289433e-01 -3.717979458712936e-01
            2.343309158095980e-01 -3.718486638733221e-01 2.414788684398963e-01 8.582060695759129e-02 6.694316550052837e-02 2.170731324835600e-02 7.100399378305110e-02 2.283963811676385e-02
            2.415037420414113e-01 8.580933084645588e-02 2.343012934071207e-01 -3.717707898325958e-01 7.093653514125575e-02 2.289951676027379e-02 6.694877545941606e-02 2.171570451312878e-02
877622500.0000000000 8.529349355309769e-02 2.365813629747194e-02 8.928431242681822e-02 2.433586128334268e-02 8.748435315285660e-02 -4.304459596855305e-01 2.526544647735772e-01 -3.760975575017755e-03
            8.935949943147467e-02 2.434184402169123e-02 8.534609911676275e-02 2.358743011831392e-02 2.526946097504472e-01 -3.722073841593611e-03 8.756048149183139e-02 -4.305032261362833e-01
            8.750606014283308e-02 -4.305564201761982e-01 2.526781895067021e-01 -3.835768618307307e-03 8.513851540264680e-02 2.416712881074526e-02 8.911293540864769e-02 2.484293550911503e-02
            2.526352573412370e-01 -3.744239303079134e-03 8.749342730940458e-02 -4.304953930763044e-01 8.909996151903558e-02 2.483062461800379e-02 8.510215780590388e-02 2.410916148313482e-02
878455000.0000000000 1.002584823890598e-01 1.355235175958801e-02 1.038833041240670e-01 1.384892954460721e-02 -6.928000702396127e-02 -4.333261634780411e-01 2.331769172772559e-01 -9.025964634774983e-02
            1.038471777635424e-01 1.386008405865773e-02 1.003181281951794e-01 1.353575635096360e-02 2.331988821055621e-01 -9.025923888463203e-02 -6.925578503053333e-02 -4.333949922529001e-01
            -6.927856903270396e-02 -4.333204162705200e-01 2.332169929386898e-01 -9.026827976731569e-02 1.002693021618355e-01 1.412668727921077e-02 1.037633680169522e-01 1.450462543172344e-02
            2.332121581543636e-01 -9.025485052835909e-02 -6.925641865209214e-02 -4.333276043744902e-01 1.037560307168176e-01 1.435023901659092e-02 1.002297077355796e-01 1.414630835380248e-02
879287500.0000000000 1.048870128322602e-01 -3.882606618121199e-03 1.079669610596210e-01 -3.596997101383414e-03 -2.162994677773957e-01 -3.821058248591250e-01 1.861310331532309e-01 -1.649182152812710e-01
            1.079212746500501e-01 -3.640084071965787e-03 1.049656924478444e-01 -3.915479618035913e-03 1.860636088074565e-01 -1.649442571888454e-01 -2.162154172494273e-01 -3.820129815375726e-01
            -2.162935383670805e-01 -3.820037834553046e-01 1.860259561957446e-01 -1.649994758670049e-01 1.049123909421087e-01 -3.232735923112986e-03 1.078818084878908e-01 -2.958083826052435e-03
            1.860633536800831e-01 -1.650114087364427e-01 -2.162131675808875e-01 -3.820097111544046e-01 1.080079718468380e-01 -3.016039016194873e-03 1.050292075643251e-01 -3.343562722586861e-03
880120000.0000000000 9.685645742464402e-02 -2.004842658604272e-02 9.947826704611921e-02 -1.948019578056935e-02 -3.367475279713498e-01 -2.835230136288982e-01 1.158005137202450e-01 -2.191440869432022e-01
            9.946806216401632e-02 -1.941846252557651e-02 9.692351587352203e-02 -2.001638691839171e-02 1.158079403600948e-01 -2.191700869304171e-01 -3.367381158709439e-01 -2.835363322249273e-01
            -3.367900041981525e-01 -2.835794281201234e-01 1.158296463881195e-01 -2.191588158244145e-01 9.710597477661194e-02 -1.946227019768531e-02 9.963220523439872e-02 -1.881820247171073e-02
            1.157456983553321e-01 -2.191445219535655e-01 -3.367087718298525e-01 -2.834711285324920e-01 9.972468419023781e-02 -1.875468958797554e-02 9.718742355792225e-02 -1.940830123983872e-02
880952500.0000000000 8.028165523883166e-02 -2.702079872230601e-02 8.251202472364653e-02 -2.593311791918308e-02 -4.166445883297623e-01 -1.488199076577301e-01 2.995323020961324e-02 -2.450906488356441e-01
            8.251243468837943e-02 -2.587910899948638e-02 8.023114635658317e-02 -2.693503526421274e-02 2.987928624237583e-02 -2.450527411866366e-01 -4.167920653711953e-01 -1.488358031897061e-01
            -4.166480115095327e-01 -1.488511141195191e-01 2.990653114256706e-02 -2.450823658771828e-01 8.068210805358086e-02 -2.660175838496208e-02 8.279546934896571e-02 -2.536382438446827e-02
            2.997087585707346e-02 -2.450965155273218e-01 -4.166837908739365e-01 -1.488992710569755e-01 8.278697338757481e-02 -2.542971752285221e-02 8.060450985029967e-02 -2.650624791083310e-02
881785000.0000000000 6.299890578699235e-02 -2.102704776939529e-02 6.531824736277110e-02 -1.937209183160356e-02 -4.452750009445599e-01 7.190573946326406e-03 -5.975140221036782e-02 -2.375513386286754e-01
            6.531037670704375e-02 -1.942349818772938e-02 6.307246866664928e-02 -2.095972011867217e-02 -5.975976378192817e-02 -2.375744830564406e-01 -4.453329500794883e-01 7.226128403686432e-03
            -4.453182946536528e-01 7.175157309417131e-03 -5.969981113201123e-02 -2.376288734875892e-01 6.354553229536981e-02 -2.060572929801758e-02 6.558382578911727e-02 -1.909586804974947e-02
            -5.983635741160339e-02 -2.376442390255296e-01 -4.453011078648331e-01 7.192734027355192e-03 6.563996289541939e-02 -1.897408694162045e-02 6.348616345402455e-02 -2.067900453410806e-02
882617500.0000000000 5.430823976334138e-02 -4.930203836899267e-03 5.677996148635085e-02 -2.982158332595645e-03 -4.162020037377669e-01 1.653240284746224e-01 -1.393308718200003e-01 -1.977149073975883e-01
            5.677816438789936e-02 -2.972045130373501e-03 5.424515787603062e-02 -4.934546216745880e-03 -1.393814220851932e-01 -1.976904105745548e-01 -4.162715614355318e-01 1.652580518245990e-01
            -4.161937231888197e-01 1.653110036313430e-01 -1.393851644575833e-01 -1.977609941552016e-01 5.473786853921743e-02 -4.764589641617171e-03 5.705395744205623e-02 -2.618448570633413e-03
            -1.393753973828789e-01 -1.976677491423490e-01 -4.162067927538668e-01 1.651776753409540e-01 5.702627950755216e-02 -2.726445206577294e-03 5.472414087821913e-02 -4.670475825741360e-03
883450000.0000000000 5.872743849762176e-02 1.273891088375369e-02 6.139007879882246e-02 1.493256755777214e-02 -3.313783570860444e-01 3.034090991257368e-01 -1.973434325880006e-01 -1.328412640015850e-01
            6.139267139566756e-02 1.498627920055074e-02 5.884118807623792e-02 1.280103667664328e-02 -1.972983637076039e-01 -1.328294539450533e-01 -3.313210756493039e-01 3.034143372406785e-01
            -3.313588461521436e-01 3.033747001089925e-01 -1.973583779429179e-01 -1.327820010658726e-01 5.915881195071856e-02 1.288737352168032e-02 6.161582494893655e-02 1.519581791312403e-02
            -1.973339872718362e-01 -1.328342366188006e-01 -3.313984397231783e-01 3.034516122682765e-01 6.161172572759868e-02 1.503273849028773e-02 5.918315108228260e-02 1.297237111884361e-02
884282500.0000000000 7.400986196763368e-02 2.272209078246838e-02 7.669663849741229e-02 2.506492932745086e-02 -2.022356567170709e-01 4.015082513126835e-01 -2.275192887509887e-01 -5.402316742448987e-02
            7.665624301176280e-02 2.507741475172231e-02 7.405976590830034e-02 2.271759393117073e-02 -2.274635604545226e-01 -5.400476516563694e-02 -2.022577802316989e-01 4.015251021779094e-01
            -2.023038063133637e-01 4.015207689797509e-01 -2.275140727980250e-01 -5.403384693767928e-02 7.432981879249091e-02 2.288009232875059e-02 7.676926932930614e-02 2.522397890183032e-02
            -2.274892149619991e-01 -5.396835279355537e-02 -2.022606887470687e-01 4.014761418576852e-01 7.683681378725642e-02 2.520368852283673e-02 7.429479987747874e-02 2.288483251159261e-02
885115000.0000000000 9.185401920276991e-02 1.990334191080669e-02 9.444314177363441e-02 2.249913161655039e-02 -4.752254598787445e-02 4.465189344687487e-01 -2.288564670464802e-01 2.812292195406881e-02
            9.445318933536806e-02 2.248653188937914e-02 9.186934131274310e-02 1.982879868373741e-02 -2.288276300863983e-01 2.810323297530408e-02 -4.749373139394017e-02 4.464533846241810e-01
            -4.756343735486446e-02 4.465258172264383e-01 -2.288506876475398e-01 2.808909042740100e-02 9.208648613395008e-02 2.000595297397655e-02 9.445114424531893e-02 2.264296362809268e-02
            -2.288454766469709e-01 2.803528467459918e-02 -4.754324832262270e-02 4.465291870358681e-01 9.454188994796639e-02 2.260330590785051e-02 9.213129625549248e-02 2.010202842012477e-02
885947500.0000000000 1.033520620593164e-01 5.953564649569454e-03 1.058073055129305e-01 9.085954490391530e-03 1.118959769154506e-01 4.344950958181670e-01 -2.029296735442254e-01 1.048470815039994e-01
            1.058081968534710e-01 9.031231900395365e-03 1.033306522950968e-01 5.957680051831500e-03 -2.029655759350776e-01 1.048446664996119e-01 1.118562284571579e-01 4.344317185408345e-01
            1.118584406556777e-01 4.344504399871309e-01 -2.030129160428384e-01 1.048587690331338e-01 1.034986981735049e-01 6.130459999287680e-03 1.058374689680164e-01 9.189909067366131e-03
            -2.029556712162515e-01 1.048196990189941e-01 1.118337199565268e-01 4.344588603787439e-01 1.058887398786083e-01 9.194569843523690e-03 1.034336294181895e-01 6.168043192207849e-03
886780000.0000000000 1.028708635762238e-01 -1.205011381778796e-02 1.054861900236404e-01 -8.274324891897366e-03 2.566126057849935e-01 3.685929244028048e-01 -1.527221072713889e-01 1.684058705863045e-01
            1.054320677784958e-01 -8.205926095580190e-03 1.028687089919136e-01 -1.206751923202701e-02 -1.526482383288414e-01 1.683597566626769e-01 2.566775360860534e-01 3.685237455791115e-01
            2.565843809873036e-01 3.685880990543468e-01 -1.526926193499556e-01 1.683795679942006e-01 1.030395102324268e-01 -1.184985898536829e-02 1.053444834202109e-01 -8.072392746199702e-03
            -1.527373659727193e-01 1.684340464953931e-01 2.566197084373361e-01 3.685566311712996e-01 1.054717779893946e-01 -8.109440788081661e-03 1.030170868019804e-01 -1.187735281294709e-02
887612500.0000000000 9.049644610135141e-02 -2.543907819894464e-02 9.374874917347538e-02 -2.101363574092266e-02 3.702560057093331e-01 2.569519456714979e-01 -8.281938788651909e-02 2.107913894424748e-01
            9.374021051356649e-02 -2.092666795187212e-02 9.063434704075576e-02 -2.552259078044714e-02 -8.282466790509964e-02 2.108093875832567e-01 3.703455863840108e-01 2.569384452436614e-01
            3.703822067241523e-01 2.569347763659745e-01 -8.284242397444751e-02 2.108384989695382e-01 9.063925014629100e-02 -2.531774445693604e-02 9.373414614167586e-02 -2.080401471347980e-02
            -8.285054374552231e-02 2.108165918560600e-01 3.703688793470084e-01 2.568572804813773e-01 9.371296922909182e-02 -2.075477654174526e-02 9.072963355258516e-02 -2.530272586252184e-02
888445000.0000000000 7.210689692939343e-02 -2.749859766412472e-02 7.651070336680572e-02 -2.248228793919296e-02 4.392364504706229e-01 1.115227344760493e-01 -1.634815222633143e-03 2.250865433796241e-01
            7.636114435875573e-02 -2.246621546046449e-02 7.221238161503388e-02 -2.761193897716864e-02 -1.627574487462903e-03 2.250987324944928e-01 4.392672634890269e-01 1.114978947489170e-01
            4.391648229059634e-01 1.115020138280477e-01 -1.627288051605688e-03 2.250624903471558e-01 7.231475541253220e-02 -2.746165337190232e-02 7.635717102134941e-02 -2.224195299091109e-02
            -1.644704352736695e-03 2.250828784075751e-01 4.392345430380795e-01 1.114930798323762e-01 7.629880172955057e-02 -2.228512068793023e-02 7.237326672504465e-02 -2.742170458032562e-02
889277500.0000000000 5.693596614862043e-02 -1.676186604896735e-02 6.247497920923341e-02 -1.182386667733619e-02 4.530119918040573e-01 -5.090540425021010e-02 7.883393014206497e-02 2.082905314261919e-01
            6.244214328438526e-02 -1.175471394671263e-02 5.704622122246561e-02 -1.676397532887797e-02 7.881534966334605e-02 2.082367012300619e-01 4.530125713125718e-01 -5.092879990200477e-02
            4.529676402901104e-01 -5.086886299469328e-02 7.882872245627824e-02 2.082426880065090e-01 5.697634585859063e-02 -1.668395624415702e-02 6.231882686756825e-02 -1.152711837379542e-02
            7.882036731736253e-02 2.082183005868696e-01 4.529991633507839e-01 -5.086555619086879e-02 6.228860059307458e-02 -1.159046334899907e-02 5.701581897833948e-02 -1.670873262655575e-02
890110000.0000000000 5.277642186077047e-02 1.368211867627532e-03 5.947488162808571e-02 5.868455900494965e-03 4.072229247187550e-01 -2.092154449978672e-01 1.459348111714952e-01 1.632738536676245e-01
            5.944871803987865e-02 5.918364548738341e-03 5.268972417683649e-02 1.415289332817485e-03 1.459675885576411e-01 1.632807509245733e-01 4.072484170890046e-01 -2.091632936420565e-01
            4.072402593517312e-01 -2.092586861459678e-01 1.460072152238388e-01 1.632386381264083e-01 5.264922681345707e-02 1.532096937777341e-03 5.929531485845956e-02 6.122298850208061e-03
            1.460495146138230e-01 1.633085433030573e-01 4.072539116511342e-01 -2.091873996803106e-01 5.931592524998580e-02 6.219376522298159e-03 5.267216330454835e-02 1.537060276566729e-03
890942500.0000000000 6.180462302807065e-02 1.765568400468644e-02 6.944049358688459e-02 2.090982196766169e-02 3.068526120115021e-01 -3.407376417772078e-01 1.906760588161714e-01 9.895732307353364e-02
            6.947159538042555e-02 2.095859447475314e-02 6.172554992511300e-02 1.762128749170062e-02 1.907089805069622e-01 9.898691715321425e-02 3.068342223998730e-01 -3.407239855759454e-01
            3.068685138925242e-01 -3.407132326714866e-01 1.907503048164243e-01 9.900932732960277e-02 6.167672070565119e-02 1.777267300820255e-02 6.920040612216787e-02 2.113571993094678e-02
            1.906372465809740e-01 9.896335932265227e-02 3.068222721558806e-01 -3.408123079448366e-01 6.919852774573855e-02 2.113776065573513e-02 6.167429822798097e-02 1.777661766161711e-02
891775000.0000000000 7.909375459566291e-02 2.362877377758851e-02 8.680065495361899e-02 2.549587072006118e-02 1.663149248795226e-01 -4.270129200837716e-01 2.094571710559961e-01 2.550920877724050e-02
            8.691653448782467e-02 2.548766661588803e-02 7.904494915895971e-02 2.356035061316446e-02 2.094253463953455e-01 2.555971684527708e-02 1.662743521203041e-01 -4.270449398979854e-01
            1.662286298491658e-01 -4.270222618790930e-01 2.094742544811495e-01 2.550744826326907e-02 7.901836325349151e-02 2.378990008940749e-02 8.657286441115428e-02 2.572896350681768e-02
            2.095595618153494e-01 2.552156383578727e-02 1.662651882871795e-01 -4.270136876219782e-01 8.661582827019701e-02 2.571770636319800e-02 7.891869530401334e-02 2.379381963756167e-02
892607500.0000000000 9.568167359898404e-02 1.658666731105812e-02 1.029485829739413e-01 1.734384624023256e-02 5.483078628570191e-03 -4.574968454843582e-01 2.025919472424251e-01 -4.805103153776046e-02
            1.029738544853186e-01 1.731381261494290e-02 9.572908612269916e-02 1.664414652256575e-02 2.025840956120433e-01 -4.803432340553466e-02 5.416175730798773e-03 -4.574527177700179e-01
            5.531329044994841e-03 -4.575284151980489e-01 2.025730389381282e-01 -4.806865878339861e-02 9.551112175932447e-02 1.689357882146818e-02 1.026359223305319e-01 1.753799788982512e-02
            2.026427268952929e-01 -4.811678589122526e-02 5.518813535734368e-03 -4.575283816633072e-01 1.027090520986410e-01 1.764052830823763e-02 9.554094651899420e-02 1.688528074353313e-02
893440000.0000000000 1.035316048724148e-01 7.262556667007500e-04 1.097473725009522e-01 6.933744925614832e-04 -1.547016321458825e-01 -4.304023654407186e-01 1.717575648488046e-01 -1.145208558706175e-01
            1.097181506492479e-01 6.855584880065061e-04 1.035378540485232e-01 6.863444202707859e-04 1.718323226713059e-01 -1.145754489985398e-01 -1.546984877742202e-01 -4.302218641301703e-01
            -1.547400559743582e-01 -4.302904363563843e-01 1.718295549080972e-01 -1.145630237791366e-01 1.033963164387538e-01 8.452828043014603e-04 1.095036552514941e-01 9.117976457326820e-04
            1.718097223163656e-01 -1.145789177989212e-01 -1.546942665203319e-01 -4.303106216706272e-01 1.095191728971009e-01 9.009967798821230e-04 1.033809976491842e-01 9.199090791262083e-04
894272500.0000000000 9.899016887755560e-02 -1.636047178873807e-02 1.041133029412643e-01 -1.645798179304193e-02 -2.955152080351321e-01 -3.500727301765938e-01 1.200793083275113e-01 -1.669298689415315e-01
            1.041029305812565e-01 -1.635698826232279e-02 9.895896621047745e-02 -1.642955650734362e-02 1.200506940045551e-01 -1.669535513213517e-01 -2.954470947470347e-01 -3.500713364826199e-01
            -2.955110458142320e-01 -3.500643535265313e-01 1.200587074844904e-01 -1.669565259746346e-01 9.864250553577070e-02 -1.625760616436054e-02 1.036527765559205e-01 -1.634835858920199e-02
            1.200263094019652e-01 -1.668932409997708e-01 -2.954738149544447e-01 -3.500523875478218e-01 1.037877798885764e-01 -1.633419554324733e-02 9.870451102189916e-02 -1.619640815531010e-02
895105000.0000000000 8.431003365429221e-02 -2.624120615012647e-02 8.863371356061309e-02 -2.562591879097131e-02 -4.008092148586008e-01 -2.258091162193931e-01 5.227042541607356e-02 -1.978889811356618e-01
            8.866809311540841e-02 -2.564289299587749e-02 8.432029089262884e-02 -2.622588768889837e-02 5.225275115526394e-02 -1.978204561237686e-01 -4.007676432988597e-01 -2.258313948777310e-01
            -4.007502515562874e-01 -2.258170033624597e-01 5.231320271302464e-02 -1.979136049151893e-01 8.370819807344321e-02 -2.612861394233841e-02 8.808641629881604e-02 -2.562776847771419e-02
            5.226622080741125e-02 -1.978805061781631e-01 -4.008120128209212e-01 -2.257994931867906e-01 8.801979015012895e-02 -2.563478242543542e-02 8.371644558499362e-02 -2.599530252886877e-02
895937500.0000000000 6.668702738649757e-02 -2.381471977721677e-02 7.078523818482969e-02 -2.249977460974611e-02 -4.571678654691848e-01 -7.106988002819063e-02 -2.251016650014162e-02 -2.016750378906668e-01
            7.082011112747635e-02 -2.248254246517912e-02 6.677132445574238e-02 -2.381191382817568e-02 -2.250681283828242e-02 -2.016604835614021e-01 -4.571258412171095e-01 -7.104560135686977e-02
            -4.570858727216582e-01 -7.105978409122936e-02 -2.251161709696585e-02 -2.016870449207201e-01 6.575654226269445e-02 -2.353884302539791e-02 6.988850546885317e-02 -2.227697986869900e-02
            -2.246065383543476e-02 -2.016941190401936e-01 -4.571179332727631e-01 -7.110545250918920e-02 6.994688776901375e-02 -2.227476601623246e-02 6.582661218274347e-02 -2.349059341921517e-02
896770000.0000000000 5.529035878033953e-02 -1.001722442480323e-02 5.977443917822921e-02 -8.203992085061309e-03 -4.550502704627744e-01 9.554705586795066e-02 -9.265015277251000e-02 -1.773151014830228e-01
            5.975893218218769e-02 -8.265741674561265e-03 5.526199659958232e-02 -9.967142613271782e-03 -9.265494202226666e-02 -1.773226626755945e-01 -4.549979250979906e-01 9.555922288285219e-02
            -4.550410105427183e-01 9.567803819936041e-02 -9.258136549284414e-02 -1.772905216595639e-01 5.403332661564620e-02 -9.537444015854943e-03 5.843572657012162e-02 -7.654451390886136e-03
            -9.263293998222802e-02 -1.772671414742942e-01 -4.550136980433490e-01 9.558598695983746e-02 5.846431751246559e-02 -7.704838109106367e-03 5.405748308908340e-02 -9.525766912814327e-03
897602500.0000000000 5.621542286170021e-02 7.758004848413833e-03 6.111489067912739e-02 9.787391775272110e-03 -3.925959145130735e-01 2.517048102196652e-01 -1.472264960458992e-01 -1.295544689515847e-01
            6.114617327692728e-02 9.747271544862615e-03 5.614983318156225e-02 7.824193726592077e-03 -1.471213011417210e-01 -1.296782933661756e-01 -3.926323724873740e-01 2.516289614570657e-01
            -3.925621566944764e-01 2.516006447949201e-01 -1.472141898122855e-01 -1.296278937625122e-01 5.482085054247383e-02 8.836895270106566e-03 5.983522197844225e-02 1.070872047586497e-02
            -1.471518348408820e-01 -1.296377205888642e-01 -3.925644898082654e-01 2.516046059421757e-01 5.975393504219378e-02 1.081211726720095e-02 5.475838355558621e-02 8.790271634332700e-03
898435000.0000000000 6.884905623257798e-02 2.007872106021690e-02 7.421635065806460e-02 2.184905752524860e-02 -2.779078540090230e-01 3.747857287950079e-01 -1.796569704975034e-01 -6.775466878772685e-02
            7.416935185310117e-02 2.190705423560133e-02 6.886776422110961e-02 2.013622566080594e-02 -1.796333426318011e-01 -6.781830061453312e-02 -2.779379459000393e-01 3.747509460753893e-01
            -2.778425673962591e-01 3.746680485634024e-01 -1.796666210693441e-01 -6.776831920783215e-02 6.746710881206475e-02 2.174761992723334e-02 7.289254954036377e-02 2.339965790235707e-02
            -1.795987227351822e-01 -6.766214789831357e-02 -2.778385804859962e-01 3.748070688537580e-01 7.289149719491249e-02 2.341933985276239e-02 6.745870768011815e-02 2.178316082915847e-02
899267500.0000000000 8.634350706806614e-02 2.081332721544794e-02 9.193743907928380e-02 2.189044394944114e-02 -1.274655421286990e-01 4.480888742193611e-01 -1.884784174893410e-01 -8.844028946695764e-04
            9.192642302447866e-02 2.195769106095830e-02 8.640642456250230e-02 2.070057718039225e-02 -1.885221126716678e-01 -9.240382655514615e-04 -1.274865753268151e-01 4.481052470948381e-01
            -1.274523176515589e-01 4.481093517016375e-01 -1.884857645957086e-01 -9.100735384893005e-04 8.533385103624029e-02 2.299472351723330e-02 9.099092424623989e-02 2.405978261614883e-02
            -1.885710196670762e-01 -8.409761524055747e-04 -1.275374560356510e-01 4.480884170998993e-01 9.089711064807474e-02 2.404656748357688e-02 8.532123226177397e-02 2.301001095827016e-02
900100000.0000000000 9.963389854414868e-02 9.602588006750824e-03 1.048987164377704e-01 1.022409912268471e-02 3.772752882500774e-02 4.636580968493521e-01 -1.748363834048413e-01 6.371868257671744e-02
            1.048808837905328e-01 1.013371413211983e-02 9.968405794826220e-02 9.524954495055289e-03 -1.748013465949847e-01 6.376975834252001e-02 3.773533439649592e-02 4.637266737781738e-01
            3.766495851130846e-02 4.637045321147776e-01 -1.748191809972234e-01 6.381467299789990e-02 9.910316662368270e-02 1.224216960970816e-02 1.045861091274932e-01 1.280720210621426e-02
            -1.748645262583984e-01 6.377388665873147e-02 3.771668542041853e-02 4.636864531799354e-01 1.044593317792908e-01 1.267455276098079e-02 9.916059603466217e-02 1.234597273930690e-02
900932500.0000000000 1.022845437972440e-01 -7.560665485505895e-03 1.069005733796148e-01 -7.133029004461903e-03 1.972177874975571e-01 4.215082710210116e-01 -1.405251016565925e-01 1.199673060395673e-01
            1.069084868530813e-01 -7.160724083924391e-03 1.023116734028788e-01 -7.532965471652572e-03 -1.404480337627360e-01 1.199726203837907e-01 1.972955712139839e-01 4.214457946148296e-01
            1.972735829877289e-01 4.214802736214845e-01 -1.405844715551257e-01 1.199772866110740e-01 1.024478403214673e-01 -4.815936813283030e-03 1.072044742372802e-01 -4.551884054636648e-03
            -1.405239293068259e-01 1.199139151224217e-01 1.972559049417856e-01 4.214474884809821e-01 1.071990942477559e-01 -4.597563968710390e-03 1.025159521155279e-01 -4.721838839378674e-03
901765000.0000000000 9.292290871779844e-02 -2.220725316660765e-02 9.676933573874502e-02 -2.166608741202012e-02 3.327462789525287e-01 3.270308915046828e-01 -8.844361473695024e-02 1.611409639596912e-01
            9.676726876205002e-02 -2.166460199172117e-02 9.296999221573830e-02 -2.215387115298484e-02 -8.836527786496830e-02 1.612120833581233e-01 3.326763774043384e-01 3.270798947624683e-01
            3.327814092972898e-01 3.269825738772157e-01 -8.844644757577640e-02 1.611229334540594e-01 9.363177565151537e-02 -1.961279310413113e-02 9.785633148746613e-02 -1.933655738560030e-02
            -8.835461205851088e-02 1.611109521273148e-01 3.326971021715536e-01 3.270865964278837e-01 9.780297723206695e-02 -1.925904284655092e-02 9.365229895673056e-02 -1.964922336642133e-02
902597500.0000000000 7.607915489896241e-02 -2.725041154679812e-02 7.940496146163616e-02 -2.590309626696671e-02 4.280681322405596e-01 1.907059570593901e-01 -2.419547182156462e-02 1.808844129190093e-01
            7.945771643879737e-02 -2.590992884859488e-02 7.605080386185786e-02 -2.704667964346870e-02 -2.428435407054764e-02 1.809007909922283e-01 4.281018849178412e-01 1.907921119052543e-01
            4.280673917874040e-01 1.907830431834487e-01 -2.425722634107886e-02 1.809804485204214e-01 7.710914341172299e-02 -2.491956430502234e-02 8.088469123266810e-02 -2.410903760381130e-02
            -2.420335422571655e-02 1.808906501879605e-01 4.281240726190019e-01 1.908038561537110e-01 8.088625418459730e-02 -2.408333659546354e-02 7.718320612769927e-02 -2.490332827314071e-02
903430000.0000000000 5.989451715417397e-02 -1.939039098753899e-02 6.332678983413974e-02 -1.743388822313073e-02 4.702167916365877e-01 2.781496058088010e-02 4.266441240133679e-02 1.750438247519581e-01
            6.328073932551238e-02 -1.747721175685360e-02 5.988126554006411e-02 -1.937113882842637e-02 4.251556801093464e-02 1.751846932665587e-01 4.702599090982693e-01 2.782858656608590e-02
            4.702207017274700e-01 2.780699643262317e-02 4.263755790828214e-02 1.751843341451999e-01 6.111125445906714e-02 -1.764847424239149e-02 6.494182367132727e-02 -1.629123414902732e-02
            4.268374004847746e-02 1.750916985294844e-01 4.702886879025717e-01 2.784215582715256e-02 6.488478613073197e-02 -1.629162305849353e-02 6.106824056258983e-02 -1.761332378993764e-02
904262500.0000000000 5.318257962544120e-02 -2.738702940922566e-03 5.698025008369575e-02 -1.921062190242806e-04 4.513577353994163e-01 -1.411999580427141e-01 1.013097726878810e-01 1.449346033889749e-01
            5.692679684361202e-02 -2.210469687746083e-04 5.314791260781154e-02 -2.750758462082731e-03 1.012793195037389e-01 1.449123012537652e-01 4.512557349238590e-01 -1.411497817253199e-01
            4.513288432119225e-01 -1.411518990251360e-01 1.013376343992292e-01 1.450488179427596e-01 5.418940861814046e-02 -1.314045478496799e-03 5.835197661349635e-02 3.970178582650023e-04
            1.012648313501370e-01 1.449762297863051e-01 4.513214998430300e-01 -1.411109500576458e-01 5.831235414559860e-02 3.790700926719694e-04 5.411374492338177e-02 -1.366021677347812e-03
905095000.0000000000 5.936247859980349e-02 1.412103729914693e-02 6.375737617998486e-02 1.677922678939792e-02 3.723197520168610e-01 -2.927221652873049e-01 1.430218994325041e-01 9.686823073789967e-02
            6.377544746855519e-02 1.681133953182980e-02 5.927755134737221e-02 1.407316996334564e-02 1.430357199854216e-01 9.686392199141766e-02 3.722766568636183e-01 -2.926114151764864e-01
            3.723749012598180e-01 -2.925976598642645e-01 1.430140626159992e-01 9.685167269799488e-02 6.001759119884661e-02 1.544398042381654e-02 6.463345021011348e-02 1.717520105051382e-02
            1.431158951593852e-01 9.681195242183317e-02 3.723046696160974e-01 -2.926408055428244e-01 6.463488094559605e-02 1.720901304416183e-02 5.999260251481985e-02 1.539633193863805e-02
905927500.0000000000 7.511465055249690e-02 2.239706122569413e-02 8.018496111251810e-02 2.481991719552054e-02 2.443408007051508e-01 -4.051581941277525e-01 1.641748240110839e-01 3.937901715143990e-02
            8.009944470064000e-02 2.484277847357697e-02 7.513564244470369e-02 2.233608846201972e-02 1.641373399297928e-01 3.937404110288912e-02 2.444238206018912e-01 -4.051000981321948e-01
            2.443916977108481e-01 -4.051392766073582e-01 1.640523053357783e-01 3.938804668575899e-02 7.561716678681478e-02 2.388658394943806e-02 8.056448024736219e-02 2.524810343567533e-02
            1.641714758174526e-01 3.941892955268947e-02 2.443445691353083e-01 -4.051885277812377e-01 8.061472930812667e-02 2.522415620650924e-02 7.562114867425143e-02 2.393269058352203e-02
906760000.0000000000 9.219754639003731e-02 1.804517677920794e-02 9.734397531354928e-02 1.999328740813800e-02 8.600823047534689e-02 -4.643685790795808e-01 1.645091037343346e-01 -1.973154096644443e-02
            9.742163389808151e-02 2.000180879726501e-02 9.227760067565113e-02 1.806414605377102e-02 1.645249589762554e-01 -1.964977309112245e-02 8.596624296492444e-02 -4.643642872632192e-01
            8.596438700831868e-02 -4.643535580654826e-01 1.645073020970203e-01 -1.960284863795327e-02 9.264893970518003e-02 1.988668795875394e-02 9.764933314722961e-02 2.075269267813710e-02
            1.645221425918887e-01 -1.962612662574899e-02 8.597273217890870e-02 -4.643706201785370e-01 9.768472092975551e-02 2.069101744102675e-02 9.268274498164825e-02 1.974419387139589e-02
907592500.0000000000 1.020712351731908e-01 3.672210554636878e-03 1.069933663377501e-01 5.145913280837315e-03 -8.183760328207930e-02 -4.645911476122706e-01 1.457866211869059e-01 -7.472197652304609e-02
            1.070678484587158e-01 5.134428388259057e-03 1.021157204542729e-01 3.598767367047345e-03 1.457191406778838e-01 -7.470415946677827e-02 -8.181256958523025e-02 -4.645967287835404e-01
            -8.179283251199194e-02 -4.645998955355422e-01 1.458578173450051e-01 -7.461726524408992e-02 1.028539259198117e-01 5.607610942849246e-03 1.073132245270650e-01 6.231459302302476e-03
            1.457864696253426e-01 -7.473074527277712e-02 -8.182340378079786e-02 -4.646359502170140e-01 1.073131874614267e-01 6.056030945713162e-03 1.027729260571064e-01 5.634614895493300e-03
908425000.0000000000 9.999682775953538e-02 -1.380369453753533e-02 1.044415805599125e-01 -1.225551155549877e-02 -2.389549304703597e-01 -4.072358881017005e-01 1.094273135684174e-01 -1.205026813678599e-01
            1.044544866849507e-01 -1.231227336719538e-02 1.000271731777920e-01 -1.374773224341983e-02 1.094330308965788e-01 -1.203715104131861e-01 -2.389731391383151e-01 -4.073216186745457e-01
            -2.389166467891427e-01 -4.073130427662824e-01 1.093989388323773e-01 -1.204342928761077e-01 1.011144839148040e-01 -1.153898816979037e-02 1.050758813309732e-01 -1.098942223984029e-02
            1.094419051988060e-01 -1.204111498171333e-01 -2.389415458975263e-01 -4.072821899772413e-01 1.049781594370494e-01 -1.110934342274140e-02 1.010873427150841e-01 -1.164073010688926e-02
909257500.0000000000 8.690388290608343e-02 -2.553192634760815e-02 9.098070383173600e-02 -2.384125835577738e-02 -3.672582378320975e-01 -2.991695940670732e-01 5.867879215549985e-02 -1.506898445544699e-01
            9.101152969067645e-02 -2.380055345573584e-02 8.698461974519509e-02 -2.550687360814931e-02 5.863377279336791e-02 -1.506849895397486e-01 -3.672728664525955e-01 -2.991617762249733e-01
            -3.673299337026505e-01 -2.991451934994069e-01 5.862048002890052e-02 -1.507721764658680e-01 8.839109656449018e-02 -2.350754154423142e-02 9.189697296658002e-02 -2.261258044253629e-02
            5.864518198929836e-02 -1.506844103232483e-01 -3.673160699283866e-01 -2.991680438300870e-01 9.181170143552350e-02 -2.252693192453679e-02 8.840804531704528e-02 -2.351542404659879e-02
910090000.0000000000 6.916407252749654e-02 -2.571854303728510e-02 7.309959716877022e-02 -2.348555564385678e-02 -4.510354111855083e-01 -1.520279487189116e-01 -2.139344537672866e-04 -1.600560116557861e-01
            7.309873703128690e-02 -2.349888798826148e-02 6.922414948108997e-02 -2.573041393470809e-02 -1.491040054892287e-04 -1.600839684437362e-01 -4.510075431912339e-01 -1.519451667519092e-01
            -4.510912958848929e-01 -1.520267441576069e-01 -1.921066132122597e-04 -1.601854420846488e-01 7.087500554973165e-02 -2.407878754496827e-02 7.412462152880415e-02 -2.242134040073477e-02
            -2.294049694260810e-04 -1.601776145519160e-01 -4.510408541311043e-01 -1.519561895471521e-01 7.418770563702987e-02 -2.245363106445440e-02 7.089948479988194e-02 -2.414027067961145e-02
910922500.0000000000 5.569716868734529e-02 -1.389076656703158e-02 5.985121091775288e-02 -1.121740786815295e-02 -4.777632306037251e-01 1.723504055774359e-02 -5.779245484410579e-02 -1.464619331786141e-01
            5.986734662380652e-02 -1.112695060355030e-02 5.577815208578775e-02 -1.388735609679606e-02 -5.782145838013503e-02 -1.464323579415276e-01 -4.777032845622054e-01 1.717346881576590e-02
            -4.777970751360204e-01 1.716495054026686e-02 -5.768741406666861e-02 -1.464697610671342e-01 5.741890121495914e-02 -1.270624731828575e-02 6.105549001669674e-02 -1.039967760100515e-02
            -5.775001654498529e-02 -1.464013029785745e-01 -4.777400384010840e-01 1.720074066761149e-02 6.108992749122642e-02 -1.032035373462232e-02 5.739604515419580e-02 -1.272552427210685e-02
911755000.0000000000 5.360038089508045e-02 4.013084880858362e-03 5.838852848243436e-02 6.940308957902807e-03 -4.416637918982084e-01 1.860609295101745e-01 -1.044242318615966e-01 -1.127209362430728e-01
            5.848710369678956e-02 7.025124173965037e-03 5.361671418953843e-02 4.036007926067734e-03 -1.044115311428463e-01 -1.127272000024526e-01 -4.416998825648574e-01 1.861183411045879e-01
            -4.416325929909590e-01 1.860856450450722e-01 -1.044228834735807e-01 -1.127540053497961e-01 5.515001043943681e-02 4.922279765341461e-03 5.947536396654400e-02 7.508743607721810e-03
            -1.045142948437654e-01 -1.126915657957363e-01 -4.417247109224053e-01 1.861582390313204e-01 5.952180390050150e-02 7.454199427361619e-03 5.503748284201537e-02 4.853572455298233e-03
912587500.0000000000 6.412131643206251e-02 1.860943280503365e-02 6.951775498086671e-02 2.130787534315451e-02 -3.469902142166837e-01 3.307252653553399e-01 -1.341539830548379e-01 -6.618091447490577e-02
            6.959111439786565e-02 2.130341336604822e-02 6.418417496425909e-02 1.847522510254811e-02 -1.341187608710604e-01 -6.619689634278753e-02 -3.470544049479604e-01 3.307291437899245e-01
            -3.470320819244169e-01 3.307218695603426e-01 -1.341387371274494e-01 -6.617138894795077e-02 6.511335216610857e-02 1.932014648283156e-02 7.037430873858362e-02 2.179322335533480e-02
            -1.340784359214517e-01 -6.615772951665688e-02 -3.469501223917910e-01 3.307769455962888e-01 7.037311950884304e-02 2.173272330611082e-02 6.511581950832047e-02 1.935565521897557e-02
913420000.0000000000 8.142373888205669e-02 2.228712745561791e-02 8.723937763027488e-02 2.448846207730081e-02 -2.073772320111735e-01 4.311809620582010e-01 -1.451318518415075e-01 -1.467623832799570e-02
            8.728998669771310e-02 2.451315901109112e-02 8.146495992463010e-02 2.219915160406991e-02 -1.451567309015562e-01 -1.449480246640827e-02 -2.073675114275836e-01 4.312943718274586e-01
            -2.074918664538010e-01 4.312927394220910e-01 -1.451326043217321e-01 -1.465362595183451e-02 8.213235661673536e-02 2.323774579873989e-02 8.783586606313057e-02 2.508521615259187e-02
            -1.451295946134277e-01 -1.464415885870432e-02 -2.074858511020561e-01 4.312145307355251e-01 8.786156343636617e-02 2.503258419916093e-02 8.216111610775691e-02 2.331827370471463e-02
914252500.0000000000 9.654162143218158e-02 1.357278194554977e-02 1.023972232186151e-01 1.509036653498825e-02 -4.276763557977898e-02 4.757498033124133e-01 -1.386129128642933e-01 3.594398160320774e-02
            1.023951530134215e-01 1.511947531831166e-02 9.658149974532106e-02 1.365583372998350e-02 -1.386792787576936e-01 3.597119300466269e-02 -4.272424743529804e-02 4.757151760227317e-01
            -4.285441706445226e-02 4.757032215330592e-01 -1.387143596847064e-01 3.596494913617409e-02 9.726601397938005e-02 1.503581793976128e-02 1.028994519935489e-01 1.605082463831197e-02
            -1.387475210614672e-01 3.591808542916483e-02 -4.270058777330479e-02 4.757004680330564e-01 1.029182693433970e-01 1.607460732252063e-02 9.725860063661262e-02 1.499362852129438e-02
915085000.0000000000 1.021877867625566e-01 -2.705887849503543e-03 1.075552190862567e-01 -1.907398575478588e-03 1.259142443620043e-01 4.603968727827020e-01 -1.161996175564253e-01 8.119168908747097e-02
            1.075340171350513e-01 -1.815256964714883e-03 1.022804231357591e-01 -2.686787949974153e-03 -1.160910303548537e-01 8.120893626879630e-02 1.259634411717576e-01 4.603453602001630e-01
            1.259945235539306e-01 4.603705456471352e-01 -1.162307861215784e-01 8.114409341617691e-02 1.030652014918111e-01 -1.009279481499022e-03 1.083156440756726e-01 -5.187971136488143e-04
            -1.161261091496732e-01 8.122358790282642e-02 1.259210576649703e-01 4.603953145074587e-01 1.082890869916625e-01 -5.467240022343051e-04 1.031069827229540e-01 -9.196941142108414e-04
915917500.0000000000 9.570738328601523e-02 -1.864890852416895e-02 1.002589848949359e-01 -1.805563079702470e-02 2.790956570227799e-01 3.882503120776281e-01 -7.918581676158525e-02 1.163416205787833e-01
            1.001468521275036e-01 -1.795845630607531e-02 9.566972537851461e-02 -1.867718702452990e-02 -7.919248670103070e-02 1.164108600742579e-01 2.790927598315879e-01 3.882203785284218e-01
            2.791237240424309e-01 3.882553477535008e-01 -7.922025717666296e-02 1.164050953389997e-01 9.696294889415813e-02 -1.687309977389301e-02 1.014967045880932e-01 -1.657877187790902e-02
            -7.923530862835300e-02 1.163876561343685e-01 2.790954308836134e-01 3.882480336332554e-01 1.014297300618421e-01 -1.657725431657644e-02 9.683415199113325e-02 -1.684260079426374e-02
916750000.0000000000 8.003594536977991e-02 -2.637570527389188e-02 8.387782910202381e-02 -2.543302298012777e-02 3.988229236480053e-01 2.670696589123693e-01 -3.133638986515884e-02 1.361234593445859e-01
            8.391707432514708e-02 -2.544332703091605e-02 8.003781730245176e-02 -2.632661347775678e-02 -3.126614900795454e-02 1.361778297032527e-01 3.987551315615125e-01 2.670525481628065e-01
            3.987338609552477e-01 2.671623187298889e-01 -3.139999814908239e-02 1.360241635391970e-01 8.174411004865098e-02 -2.471651247584116e-02 8.565965891371800e-02 -2.416327862824285e-02
            -3.128897756624800e-02 1.361164841435670e-01 3.987425491955091e-01 2.670633924374988e-01 8.568275005334725e-02 -2.415383151350305e-02 8.169966465075741e-02 -2.468073046781126e-02
917582500.0000000000 6.307004076942507e-02 -2.160198605169528e-02 6.653193133881498e-02 -2.004650595690232e-02 4.692921271733562e-01 1.100681976227956e-01 2.067776243811026e-02 1.361154971616064e-01
            6.648897533982044e-02 -2.010903842902004e-02 6.300960382447672e-02 -2.165598630780621e-02 2.068113331697947e-02 1.361741111123345e-01 4.693444394360425e-01 1.100872223207826e-01
            4.693944183418559e-01 1.100724790685636e-01 2.071145711687902e-02 1.360953957554753e-01 6.508349527560384e-02 -2.043742174466575e-02 6.864054810956942e-02 -1.922700322987330e-02
            2.063880777658409e-02 1.362060362935410e-01 4.693534786766360e-01 1.100532112917548e-01 6.865385738580528e-02 -1.927195310701981e-02 6.506192498123728e-02 -2.031737046140808e-02
918415000.0000000000 5.347265320847613e-02 -6.554921922557340e-03 5.699013460886907e-02 -4.339063120803239e-03 4.795353458281436e-01 -6.339356650568695e-02 6.780018601232565e-02 1.162280469566348e-01
            5.701465213920485e-02 -4.347039082614590e-03 5.357344584060122e-02 -6.545317964364667e-03 6.785750130765322e-02 1.162912634395271e-01 4.796112383069894e-01 -6.339926348278949e-02
            4.795683819297518e-01 -6.341496474469963e-02 6.782918800177366e-02 1.162252331755356e-01 5.556038991165999e-02 -5.900993165531956e-03 5.930880444204603e-02 -4.103246681108123e-03
            6.776950176908955e-02 1.161759365650605e-01 4.795843165115573e-01 -6.343233424526655e-02 5.926550867972724e-02 -4.129709988137643e-03 5.559651313434155e-02 -5.894480505465443e-03
919247500.0000000000 5.668045156948717e-02 1.111520802121354e-02 6.047325634677275e-02 1.365671763180343e-02 4.263825956807320e-01 -2.299025789539396e-01 1.023011518666525e-01 8.123240216189960e-02
            6.047532582351390e-02 1.372333941062587e-02 5.658198468933801e-02 1.115202759044877e-02 1.023400157588160e-01 8.112546405224812e-02 4.263812791230545e-01 -2.297615640432140e-01
            4.263097024817195e-01 -2.297331596305551e-01 1.023364474646791e-01 8.121766141406737e-02 5.850560750510393e-02 1.125454847738281e-02 6.264206038602363e-02 1.336385268531656e-02
            1.023385511039369e-01 8.115889750010066e-02 4.263794021934479e-01 -2.297912719018328e-01 6.262878911464054e-02 1.335109530133331e-02 5.844527779594284e-02 1.119627709854172e-02
920080000.0000000000 7.079009515461170e-02 2.214102145320467e-02 7.502304770511006e-02 2.478770585596030e-02 3.169884510910920e-01 -3.654233453839540e-01 1.207246556851728e-01 3.823746504092489e-02
            7.492332401131541e-02 2.475161621196339e-02 7.072401519076869e-02 2.210206224871225e-02 1.207593576562141e-01 3.820249686608507e-02 3.169878099007039e-01 -3.655755922581422e-01
            3.169717933658167e-01 -3.655199238875484e-01 1.207114298409105e-01 3.823185379402323e-02 7.209313080296617e-02 2.176745377940716e-02 7.675898000719976e-02 2.396386257270636e-02
            1.207726216597174e-01 3.822206993284685e-02 3.169913817248058e-01 -3.655121940963312e-01 7.681770182007734e-02 2.398325622016404e-02 7.214927073292296e-02 2.176339654710679e-02
920912500.0000000000 8.837908147680951e-02 2.091362113902705e-02 9.278722044717407e-02 2.336141729341813e-02 1.675380379537048e-01 -4.527281822667426e-01 1.232180879278219e-01 -6.104476277055935e-03
            9.287383017341577e-02 2.337087332985838e-02 8.846804260252099e-02 2.082541257024545e-02 1.232538054719445e-01 -6.164358450555951e-03 1.675020839101191e-01 -4.527806325944761e-01
            1.675192184932320e-01 -4.527441158295638e-01 1.232273453463724e-01 -6.139306199348664e-03 8.920733684603191e-02 2.046779868431210e-02 9.413291529973596e-02 2.233254672998943e-02
            1.232369324784620e-01 -6.206707802534909e-03 1.676228925614671e-01 -4.527315597200734e-01 9.408579514581795e-02 2.232065593562650e-02 8.930600044302091e-02 2.056828832820837e-02
921745000.0000000000 1.007618013488938e-01 8.617476100080032e-03 1.050555570026454e-01 1.070682896870738e-02 -1.589847770959589e-03 -4.818289919966804e-01 1.113001892766474e-01 -4.772177030990888e-02
            1.049661894238809e-01 1.063177984962191e-02 1.008002302441744e-01 8.548560414282548e-03 1.114503318601878e-01 -4.775008630793315e-02 -1.552533376036677e-03 -4.818824157753162e-01
            -1.537649285177073e-03 -4.819017563450464e-01 1.113932935853197e-01 -4.776109409884323e-02 1.009458196532749e-01 8.059577705856370e-03 1.059452552803686e-01 9.652133782982004e-03
            1.113739398509745e-01 -4.774285971323314e-02 -1.548162156459235e-03 -4.818998136790327e-01 1.059290852396962e-01 9.701566222378347e-03 1.010327421565629e-01 8.119230241178442e-03
922577500.0000000000 1.020038807424230e-01 -8.670533612468636e-03 1.057755090993562e-01 -6.626737116053430e-03 -1.696124234475384e-01 -4.510874036413315e-01 8.653623640082779e-02 -8.309432164423050e-02
            1.057968971407658e-01 -6.642391873327075e-03 1.020839729418880e-01 -8.612774179611704e-03 8.656380652942652e-02 -8.301039580382588e-02 -1.696613960351059e-01 -4.511618337096047e-01
            -1.696079038582234e-01 -4.510943511577809e-01 8.660504889559929e-02 -8.307483024845319e-02 1.016201549822027e-01 -9.082994240890064e-03 1.064617759939167e-01 -7.506460289100226e-03
            8.654769061801225e-02 -8.305657277846239e-02 -1.696675433496257e-01 -4.511170572457519e-01 1.064936447057343e-01 -7.504561695033974e-03 1.016748650375238e-01 -8.978549682155595e-03
923410000.0000000000 9.180859787641740e-02 -2.236307735371056e-02 9.497427043645237e-02 -2.005693555009153e-02 -3.171387472646213e-01 -3.644162345522656e-01 5.041450226075146e-02 -1.078328967515930e-01
            9.492676909716405e-02 -2.002822899616869e-02 9.182982968726854e-02 -2.237762577431287e-02 5.038921803406863e-02 -1.078389840574011e-01 -3.172475731911948e-01 -3.643390688811045e-01
            -3.172024922304586e-01 -3.643900522906217e-01 5.039095175219013e-02 -1.079096979804893e-01 9.080716962938809e-02 -2.243421399029144e-02 9.530246559704796e-02 -2.082083894519892e-02
            5.042077635337456e-02 -1.078874430344135e-01 -3.173130952012612e-01 -3.644519012612687e-01 9.533985030017302e-02 -2.084973039661743e-02 9.076847189325779e-02 -2.250759572404077e-02
924242500.0000000000 7.499510090012558e-02 -2.588385405541388e-02 7.764914061647224e-02 -2.272176750323967e-02 -4.265164529497831e-01 -2.308878440919494e-01 6.932958519108562e-03 -1.175452248987422e-01
            7.775852414569022e-02 -2.271316600633491e-02 7.499855519647099e-02 -2.587477557524093e-02 6.935158568310121e-03 -1.175368740261722e-01 -4.265595253143670e-01 -2.308934269680080e-01
            -4.265379172583008e-01 -2.308896685087276e-01 7.038004180095509e-03 -1.175497985999356e-01 7.339955588736735e-02 -2.545384774130849e-02 7.796216695627148e-02 -2.347680399203075e-02
            6.979077054666891e-03 -1.175381659644359e-01 -4.265299345632021e-01 -2.308465022991649e-01 7.799630766383847e-02 -2.355805430566597e-02 7.331550825954009e-02 -2.550905526148451e-02
925075000.0000000000 6.018290227223499e-02 -1.718989702103601e-02 6.296806433777963e-02 -1.299444483927494e-02 -4.824881351533993e-01 -6.573259292384245e-02 -3.670643484958431e-02 -1.094326330999435e-01
            6.297167041058251e-02 -1.295310757217411e-02 6.014621865769292e-02 -1.722782138140097e-02 -3.671251897985787e-02 -1.094471462095777e-01 -4.825038802189912e-01 -6.568237520689077e-02
            -4.824578760676909e-01 -6.578003698986711e-02 -3.666073134343262e-02 -1.094577418166723e-01 5.803819943191030e-02 -1.608553837728173e-02 6.306689942587727e-02 -1.372340384304882e-02
            -3.672892244941844e-02 -1.093528938131364e-01 -4.824960709457417e-01 -6.568320668280855e-02 6.307544318323483e-02 -1.374509439373408e-02 5.799758947946113e-02 -1.606347239333471e-02
925907500.0000000000 5.515998519867592e-02 -7.268278492408470e-04 5.872770476828824e-02 4.361458835033626e-03 -4.755089881866505e-01 1.099504088661724e-01 -7.254598486666369e-02 -8.533591722246631e-02
            5.864731182464542e-02 4.347901241430245e-03 5.520732638022706e-02 -8.441742440465803e-04 -7.259268274572614e-02 -8.544402611129569e-02 -4.754585652407297e-01 1.099114304692111e-01
            -4.753885080758635e-01 1.097844906456863e-01 -7.250641068175240e-02 -8.539185217160775e-02 5.271203822089957e-02 1.364521657217513e-03 5.855051887587049e-02 3.774287226739003e-03
            -7.256187232509026e-02 -8.541133462384409e-02 -4.755254970914991e-01 1.099022046247403e-01 5.856513598619757e-02 3.705555697488976e-03 5.280715197922040e-02 1.292562339918006e-03
926740000.0000000000 6.269558523869953e-02 1.463658983549936e-02 6.741842030356114e-02 2.015233426243815e-02 -4.055312642218183e-01 2.713703840891774e-01 -9.518367649819291e-02 -5.114491455307286e-02
            6.740755683927012e-02 2.024464421296490e-02 6.265104479902760e-02 1.456626913786526e-02 -9.521406569877418e-02 -5.109040295118644e-02 -4.055352411164794e-01 2.714323250789915e-01
            -4.055086668665903e-01 2.713295846976799e-01 -9.523864817041899e-02 -5.124812900695409e-02 6.041789218332652e-02 1.784350922274087e-02 6.681607114543427e-02 1.974160971808205e-02
            -9.521022682972993e-02 -5.114156733413844e-02 -4.054497794643319e-01 2.713652485660843e-01 6.686726587362800e-02 1.966385075485854e-02 6.044083408431696e-02 1.783895334535056e-02
927572500.0000000000 7.849046693573447e-02 2.071699139872652e-02 8.439390203363123e-02 2.614375010359759e-02 -2.828317928982557e-01 3.963701666527419e-01 -1.033818171861344e-01 -1.347943680473709e-02
            8.437819795531115e-02 2.611829375488711e-02 7.850649083197556e-02 2.076191637958546e-02 -1.034036752148534e-01 -1.347910370386737e-02 -2.827933800273152e-01 3.963037943157446e-01
            -2.828831033773628e-01 3.963538952239696e-01 -1.034352178314674e-01 -1.357267457469206e-02 7.683260962028871e-02 2.489072478181436e-02 8.371593908778084e-02 2.599076208532564e-02
            -1.033952733886341e-01 -1.359270946699026e-02 -2.828248585537341e-01 3.963460627713463e-01 8.374723704957060e-02 2.589831732394961e-02 7.670429871307123e-02 2.498550732296848e-02
928405000.0000000000 9.423496910751189e-02 1.462448839126966e-02 1.009788715049041e-01 1.936510647302677e-02 -1.252374665050859e-01 4.692928802848679e-01 -9.893834458766164e-02 2.276077623397556e-02
            1.009250024307991e-01 1.937791888808673e-02 9.427330578365201e-02 1.467596558887861e-02 -9.885246080698532e-02 2.280620088933788e-02 -1.252856952693703e-01 4.692559222060073e-01
            -1.252778213031719e-01 4.693148616315378e-01 -9.880844023239495e-02 2.284513741299130e-02 9.339539830635928e-02 1.949996753293082e-02 1.001900365021641e-01 1.948161689763822e-02
            -9.882164813529754e-02 2.280959050883694e-02 -1.252869210776131e-01 4.693343732289450e-01 1.002310273555590e-01 1.950786431857814e-02 9.339323502638491e-02 1.953952333868461e-02
929237500.0000000000 1.019281176375970e-01 -2.241633271853566e-04 1.089755905880589e-01 3.438527015873303e-03 4.647672305746196e-02 4.829208754837498e-01 -8.320382839442193e-02 5.496605428174205e-02
            1.090100787032474e-01 3.509249514513794e-03 1.019466509999864e-01 -2.115267290491309e-04 -8.328658893930840e-02 5.499961093585671e-02 4.654111301596964e-02 4.828179701072550e-01
            4.646335915307333e-02 4.828644002720326e-01 -8.320616003021790e-02 5.500251351055403e-02 1.022443924192529e-01 4.864294797648116e-03 1.083622869106946e-01 3.936553285071129e-03
            -8.332039687649734e-02 5.504680573440920e-02 4.644661786318175e-02 4.828974452707884e-01 1.083109343050065e-01 3.868457299658813e-03 1.022046321536604e-01 4.865840725607193e-03
930070000.0000000000 9.795722015307914e-02 -1.657941049266406e-02 1.046780926306738e-01 -1.366886560915281e-02 2.121977341295194e-01 4.367000112206483e-01 -5.757117900162548e-02 8.036991177696640e-02
            1.046923326027488e-01 -1.365994018378502e-02 9.780124599531988e-02 -1.657626190179122e-02 -5.753094338859867e-02 8.036807826045288e-02 2.122094946411077e-01 4.366705869186939e-01
            2.122501511850207e-01 4.367207337660464e-01 -5.758123610371381e-02 8.037799743540405e-02 9.910599202686925e-02 -1.177593193275570e-02 1.041320074494774e-01 -1.305434269274319e-02
            -5.755532308974701e-02 8.034880232022024e-02 2.121282648614638e-01 4.366957120380202e-01 1.041781487283022e-01 -1.310967756311696e-02 9.904789334984737e-02 -1.185719125518137e-02
930902500.0000000000 8.393052726010981e-02 -2.625318541500898e-02 9.011781112651400e-02 -2.374424899642252e-02 3.525383068900627e-01 3.358930160577975e-01 -2.370443681809227e-02 9.506218642076339e-02
            9.013079496918780e-02 -2.382569006819261e-02 8.400964243152996e-02 -2.626298256700091e-02 -2.372535723420046e-02 9.506192380701739e-02 3.525228892283355e-01 3.359184184019722e-01
            3.525956660542476e-01 3.358572970518874e-01 -2.369709436035940e-02 9.507448321212052e-02 8.562418540800910e-02 -2.223499785397271e-02 8.967482745518222e-02 -2.314855706938155e-02
            -2.375012530888107e-02 9.507588915191942e-02 3.525937785029472e-01 3.358479019331403e-01 8.973404346114951e-02 -2.320606988017757e-02 8.577645174651384e-02 -2.222927355887814e-02
931735000.0000000000 6.693482161416400e-02 -2.417035739438546e-02 7.247884662306124e-02 -2.164610198003977e-02 4.498732185592300e-01 1.912260266991814e-01 1.370353663578724e-02 9.553412256746636e-02
            7.243399053447053e-02 -2.160751283689260e-02 6.691279870405936e-02 -2.417260977620189e-02 1.360956391565813e-02 9.548306995959660e-02 4.498291154328374e-01 1.911815737888769e-01
            4.499460660687860e-01 1.911816643797432e-01 1.366352316645782e-02 9.554249943857421e-02 6.862023895609634e-02 -2.090566228383889e-02 7.189394802407911e-02 -2.102180692669229e-02
            1.366599045076055e-02 9.553982308527972e-02 4.499181178915144e-01 1.911843115604303e-01 7.198069358971329e-02 -2.111787621825552e-02 6.855450303368467e-02 -2.093097832112958e-02
932567500.0000000000 5.559184166754861e-02 -1.100791556106061e-02 6.077055956264846e-02 -8.040064478108138e-03 4.899463121743390e-01 1.971539987225398e-02 4.771980143627307e-02 8.095540127521705e-02
            6.070894312837038e-02 -8.074217484842569e-03 5.564392277044920e-02 -1.103388679833165e-02 4.772868783998100e-02 8.087686895197027e-02 4.899148081789764e-01 1.968419170196479e-02
            4.899799850391523e-01 1.966303844666427e-02 4.773922981206776e-02 8.085531460621952e-02 5.663373290746032e-02 -8.181104660960300e-03 5.996514001527233e-02 -7.402259668918647e-03
            4.777205269446663e-02 8.093888242973345e-02 4.899836539641535e-01 1.972253685131260e-02 5.998165592195175e-02 -7.465793433113184e-03 5.662518945550246e-02 -8.153383304978494e-03
933400000.0000000000 5.598036637342228e-02 6.397464441823122e-03 6.138102947257432e-02 1.000792596061315e-02 4.654147707655268e-01 -1.556009797125485e-01 7.187387561888951e-02 5.478483708541635e-02
            6.138905609442194e-02 9.921233777400045e-03 5.606587315335743e-02 6.370691882142152e-03 7.192225298570293e-02 5.487228328723029e-02 4.654495784396459e-01 -1.556834914046696e-01
            4.654815965189663e-01 -1.555537350094588e-01 7.195990276270607e-02 5.485169682804772e-02 5.638975537207883e-02 9.435998680706447e-03 6.024533772720322e-02 1.098016661492952e-02
            7.194788152834945e-02 5.481336426510378e-02 4.654935277134844e-01 -1.556178509488822e-01 6.030569269799307e-02 1.082730979182742e-02 5.633937444952503e-02 9.441931012627677e-03
934232500.0000000000 6.825899824318804e-02 1.904247084573860e-02 7.408351765245820e-02 2.276049787556862e-02 3.795196524946187e-01 -3.100943564261640e-01 8.332083436263245e-02 2.352999948707379e-02
            7.408488751873959e-02 2.282456299226196e-02 6.827398299437266e-02 1.892998387399187e-02 8.326177565339697e-02 2.360167265788699e-02 3.795923819176451e-01 -3.099638954616935e-01
            3.796011458580698e-01 -3.100336011891699e-01 8.340523396156765e-02 2.357339794093584e-02 6.809485699890319e-02 2.273795311123688e-02 7.277392625851657e-02 2.434352442892689e-02
            8.334270462312837e-02 2.357446845648441e-02 3.795136526484694e-01 -3.100553307002646e-01 7.275993723358050e-02 2.434778698954728e-02 6.805041320369433e-02 2.276196572257643e-02
935065000.0000000000 8.557232124062214e-02 1.999536206321612e-02 9.205819651843815e-02 2.373524606551144e-02 2.452081880293758e-01 -4.227078574627857e-01 8.279331603524634e-02 -7.349196201665237e-03
            9.203507549988243e-02 2.380702990575351e-02 8.563216392882740e-02 2.001919567912731e-02 8.283104883970949e-02 -7.422770602965962e-03 2.452425813041660e-01 -4.226843075847546e-01
            2.452834266516933e-01 -4.226737113842834e-01 8.283064415133520e-02 -7.372268832923756e-03 8.555669757235936e-02 2.499021454364018e-02 9.087184054498698e-02 2.595535871127476e-02
            8.281334433244861e-02 -7.373335389015074e-03 2.452929206417535e-01 -4.227321768000694e-01 9.080991625835567e-02 2.595668896241611e-02 8.546141817553861e-02 2.497546753744526e-02
935897500.0000000000 9.929588674496369e-02 9.375761605697282e-03 1.062015921425597e-01 1.272192780314456e-02 8.145899907366526e-02 -4.806463290426153e-01 7.297907729625557e-02 -3.496964796057775e-02
            1.061364138306782e-01 1.258102466603509e-02 9.931210551494862e-02 9.323040338638674e-03 7.283301936058797e-02 -3.497356593781147e-02 8.141967025384506e-02 -4.806670583820266e-01
            8.146647817978937e-02 -4.806606646763746e-01 7.284741498712813e-02 -3.491229564595003e-02 9.986746798778187e-02 1.525767156052976e-02 1.054378712740116e-01 1.549140341705028e-02
            7.290064248562249e-02 -3.487033161275781e-02 8.145704106070435e-02 -4.806011925965848e-01 1.053929186911667e-01 1.545392826603315e-02 1.000245706537475e-01 1.524935718622950e-02
936730000.0000000000 1.025641062557013e-01 -7.630387628557935e-03 1.094311538179218e-01 -4.985907009360413e-03 -9.125767775796524e-02 -4.785577296991908e-01 5.498517063717909e-02 -5.759103897998482e-02
            1.095159505899406e-01 -5.010212025067740e-03 1.025458605559762e-01 -7.654304827350435e-03 5.491541991819057e-02 -5.750404315392067e-02 -9.124658989339997e-02 -4.784974623108347e-01
            -9.128064918006662e-02 -4.784936489241774e-01 5.497252321851156e-02 -5.756004686247307e-02 1.044350686791021e-01 -1.283547898653779e-03 1.095548278891795e-01 -1.735838714771154e-03
            5.494221492381240e-02 -5.756711764307925e-02 -9.124143491307998e-02 -4.785031460483073e-01 1.095121500811709e-01 -1.730559169623872e-03 1.044577693995382e-01 -1.250722835060402e-03
937562500.0000000000 9.391952256618193e-02 -2.279153621053573e-02 1.004839630199243e-01 -2.061467653531586e-02 -2.530205982474857e-01 -4.173774656472499e-01 2.989000438027633e-02 -7.307990682647815e-02
            1.004389330968107e-01 -2.061738802529912e-02 9.398758641185780e-02 -2.279398539931903e-02 2.987177340693812e-02 -7.312279359937154e-02 -2.529592509106304e-01 -4.172897034138736e-01
            -2.528391209693608e-01 -4.173488785867704e-01 2.990017436967608e-02 -7.309554306836287e-02 9.715613051846443e-02 -1.662371793598302e-02 1.013960337358475e-01 -1.750007712101255e-02
            2.989453483887434e-02 -7.309615481500334e-02 -2.529370430658511e-01 -4.172543715197723e-01 1.013024961860861e-01 -1.739508623537664e-02 9.714792467633729e-02 -1.670693620040792e-02
938395000.0000000000 7.725176182223968e-02 -2.856770199424206e-02 8.329389495501700e-02 -2.658523557748640e-02 -3.843638196997098e-01 -3.032081534600721e-01 -5.945447833854156e-05 -7.828236352897991e-02
            8.318476917051019e-02 -2.655537229186952e-02 7.727076457953690e-02 -2.851049011267255e-02 -1.028112387161120e-04 -7.828201001568827e-02 -3.843819774411935e-01 -3.032681584337088e-01
            -3.843814408769711e-01 -3.031977134311437e-01 -4.295073788958700e-05 -7.825383952570766e-02 8.141581161736476e-02 -2.332260425091982e-02 8.488490289432658e-02 -2.380579887932970e-02
            -4.059757665782369e-05 -7.826192841956571e-02 -3.843238047698465e-01 -3.032856966054726e-01 8.488811445339638e-02 -2.383905937572989e-02 8.154966483453588e-02 -2.339211768416457e-02
939227500.0000000000 6.080489436803044e-02 -2.185312779229317e-02 6.639018518713924e-02 -1.949766211023603e-02 -4.682474446883819e-01 -1.487423265500851e-01 -3.002642424775276e-02 -7.079243446205373e-02
            6.636901689600251e-02 -1.947272422755087e-02 6.087692766581427e-02 -2.182680429401439e-02 -2.998750610927691e-02 -7.081821558671134e-02 -4.682838092490608e-01 -1.487475097860019e-01
            -4.682633792887442e-01 -1.487313180009953e-01 -3.000676322277076e-02 -7.076785515213575e-02 6.529965329004554e-02 -1.779142246224343e-02 6.828234897619707e-02 -1.748720391768808e-02
            -3.004269583121637e-02 -7.076524013899979e-02 -4.682454688915263e-01 -1.487539689192154e-01 6.827465873738847e-02 -1.750699677244840e-02 6.534249724691375e-02 -1.782912379933527e-02
940060000.0000000000 5.309283592731308e-02 -5.664316361507130e-03 5.844825060801356e-02 -2.868090195602433e-03 -4.915921801131901e-01 2.693481709121036e-02 -5.357900922469792e-02 -5.155718735559292e-02
            5.845925842490815e-02 -2.972651367694140e-03 5.317638043006657e-02 -5.671573075089995e-03 -5.366698747977740e-02 -5.161390804367460e-02 -4.916634796218720e-01 2.691116472044907e-02
            -4.916616170082838e-01 2.688244373072548e-02 -5.358888176478790e-02 -5.171319696562990e-02 5.704384130088844e-02 -2.777958265617640e-03 6.010562470923407e-02 -1.456811138432926e-03
            -5.363625013772382e-02 -5.162895276726629e-02 -4.916814271104438e-01 2.689427282303894e-02 6.004327596312093e-02 -1.589784028012403e-03 5.702364397249013e-02 -2.746095850134446e-03
940892500.0000000000 5.825316126989988e-02 1.128136269884470e-02 6.381421575585186e-02 1.471357026516692e-02 -4.499826207207301e-01 1.996163920314534e-01 -6.631594123597256e-02 -2.559889203003657e-02
            6.392015764302075e-02 1.476864078168702e-02 5.822378719618658e-02 1.131269221626494e-02 -6.637226407620407e-02 -2.559204430376612e-02 -4.498897272190145e-01 1.995450637720655e-01
            -4.499542325979871e-01 1.995605348948589e-01 -6.635075319089768e-02 -2.560953901353025e-02 6.119269365359779e-02 1.400246748936254e-02 6.499159791765821e-02 1.577728057276005e-02
            -6.633601317319904e-02 -2.562540635551738e-02 -4.498367430060901e-01 1.996523117715656e-01 6.491455070847403e-02 1.573418128044963e-02 6.122948694476882e-02 1.400980945872690e-02
941725000.0000000000 7.343105420174945e-02 2.045388476778195e-02 7.960380607774262e-02 2.412399780859626e-02 -3.493533666751676e-01 3.450086713825657e-01 -6.765375084047751e-02 9.641116165354593e-04
            7.956831043167861e-02 2.411433884506741e-02 7.342970992137969e-02 2.051297634361218e-02 -6.756656203385711e-02 9.834076437099568e-04 -3.493874871564512e-01 3.449948956433903e-01
            -3.494333788164060e-01 3.450239246638667e-01 -6.765512510246008e-02 1.068925793855082e-03 7.551565715447232e-02 2.339245935455510e-02 8.002016317125127e-02 2.513553118114704e-02
            -6.755666863267837e-02 1.014682193361907e-03 -3.493413400314581e-01 3.450176570757135e-01 8.012612502342589e-02 2.520581448999955e-02 7.545604796967990e-02 2.344427103872652e-02
942557500.0000000000 9.052317893616868e-02 1.719858226106758e-02 9.744839219567182e-02 2.054355399318226e-02 -2.051905590943798e-01 4.443694655088403e-01 -5.988734414870405e-02 2.427816405712942e-02
            9.742490630899309e-02 2.060484944351355e-02 9.054736782320909e-02 1.710486072439947e-02 -5.987600154116044e-02 2.435269353230734e-02 -2.051056470010887e-01 4.444520266728151e-01
            -2.051634417316595e-01 4.444360351808431e-01 -5.995118983617464e-02 2.429892477977034e-02 9.225777828907086e-02 2.101977561957918e-02 9.760347388058785e-02 2.211458409177708e-02
            -5.999550000458426e-02 2.434357571827761e-02 -2.051822043553957e-01 4.444995414924375e-01 9.761138539834577e-02 2.209493368660866e-02 9.228313836400964e-02 2.085556849596907e-02
943390000.0000000000 1.011198155069404e-01 3.441615845133988e-03 1.084451954621109e-01 6.358849223857977e-03 -3.685809535187703e-02 4.871097306974180e-01 -4.592535001784327e-02 4.289518299211927e-02
            1.083844004286352e-01 6.288578048069901e-03 1.010673840493898e-01 3.463179540939895e-03 -4.598525310865192e-02 4.286347109768620e-02 -3.671959270509915e-02 4.870854484164326e-01
            -3.682256522366464e-02 4.871040627268541e-01 -4.601646927679898e-02 4.281413364300415e-02 1.031779378146789e-01 8.137256347552755e-03 1.084838758016962e-01 8.353043482566803e-03
            -4.592974465852812e-02 4.284932865366980e-02 -3.677235795986469e-02 4.870798119615126e-01 1.084249395807479e-01 8.345463760580336e-03 1.031854301139608e-01 8.151027532436348e-03
944222500.0000000000 1.000674013846963e-01 -1.377610572817323e-02 1.074347875277917e-01 -1.155141112160263e-02 1.353927527717404e-01 4.693483069930361e-01 -2.686754008799209e-02 5.586497767298835e-02
            1.074071636882222e-01 -1.152980230835691e-02 1.000765014737702e-01 -1.380786446495787e-02 -2.694268376696669e-02 5.589969810558252e-02 1.354020301933307e-01 4.693851517898822e-01
            1.353935561552187e-01 4.692942337647067e-01 -2.689059490820541e-02 5.596561223740174e-02 1.028805153253678e-01 -8.556450040438073e-03 1.077448181406918e-01 -9.121235553914569e-03
            -2.694615610377763e-02 5.598533333323876e-02 1.353091940977174e-01 4.694170350874333e-01 1.077352726867897e-01 -9.200234736414681e-03 1.028806192607402e-01 -8.656072613921369e-03
945055000.0000000000 8.799974255666365e-02 -2.610394429262689e-02 9.506576309697347e-02 -2.437546706657765e-02 2.915380523553798e-01 3.933326135159693e-01 -3.724643606237568e-03 6.174253152696690e-02
            9.499099281044433e-02 -2.439767115145846e-02 8.801843585372639e-02 -2.605516992879045e-02 -3.847247779819844e-03 6.182110207132028e-02 2.915116508604779e-01 3.933270188835916e-01
            2.915556174382885e-01 3.932748398756866e-01 -3.742764415526673e-03 6.185040754016440e-02 9.167553796700301e-02 -2.109429460485626e-02 9.554961752982269e-02 -2.193671466175876e-02
            -3.740991262409990e-03 6.179717699676195e-02 2.915520288952395e-01 3.933196641899152e-01 9.550905271422025e-02 -2.195640002777206e-02 9.163080808108956e-02 -2.112833448150352e-02
945887500.0000000000 7.067514741344820e-02 -2.731723347550705e-02 7.721709625689013e-02 -2.578194931673227e-02 4.125132392323242e-01 2.667764886652467e-01 2.078170753445919e-02 5.795084472728552e-02
            7.725562812412583e-02 -2.568709667871013e-02 7.060794456378434e-02 -2.730824354796783e-02 2.075627166350802e-02 5.792966537322919e-02 4.125647429948475e-01 2.667087933116686e-01
            4.125041698534969e-01 2.667764946687483e-01 2.082084000774449e-02 5.794451204421160e-02 7.478798603180541e-02 -2.299518086951184e-02 7.765944713810920e-02 -2.348006923084639e-02
            2.086600421869172e-02 5.802008436538167e-02 4.125043636048123e-01 2.666214117333866e-01 7.767613243660332e-02 -2.342241837163996e-02 7.478546963582791e-02 -2.298094864931934e-02
946720000.0000000000 5.687391478929021e-02 -1.648071610480274e-02 6.299771403624384e-02 -1.492476629515067e-02 4.815500602449830e-01 1.039706168102183e-01 4.189930331138059e-02 4.363891528848521e-02
            6.297096191293208e-02 -1.489819606479288e-02 5.682969376273298e-02 -1.644190507963939e-02 4.194545390158939e-02 4.376228339652560e-02 4.815435531627837e-01 1.039334854234169e-01
            4.815091216257672e-01 1.039507688845305e-01 4.202785570790493e-02 4.370617130716954e-02 6.077617572217253e-02 -1.298073538159588e-02 6.310130384320586e-02 -1.263374267666594e-02
            4.196599426540180e-02 4.381546381978706e-02 4.815702145740577e-01 1.039904935335264e-01 6.310435373122253e-02 -1.254294610964845e-02 6.081807274146797e-02 -1.308389597050887e-02
947552500.0000000000 5.407383455217175e-02 8.669209008607193e-04 6.011212380263759e-02 2.718852822507223e-03 4.874683441999308e-01 -7.371590232663534e-02 5.433318697740786e-02 2.190447594693179e-02
            6.012114204524957e-02 2.736571045620324e-03 5.401592774547098e-02 8.371268365212213e-04 5.443030749108122e-02 2.192889815707559e-02 4.875421331636050e-01 -7.375263595731933e-02
            4.874752830088525e-01 -7.357977319263800e-02 5.442730371873299e-02 2.188567920449672e-02 5.706666482922731e-02 3.825000426483857e-03 5.951258037183637e-02 5.442730714648464e-03
            5.441584607079958e-02 2.190997783535907e-02 4.874391682317248e-01 -7.364759632294701e-02 5.951571286147948e-02 5.423082042082339e-03 5.700269892814598e-02 3.888460053240398e-03
948385000.0000000000 6.366071989471958e-02 1.550860234496093e-02 6.985366155457258e-02 1.749879441707465e-02 4.290387909405746e-01 -2.414473650862453e-01 5.591666818426384e-02 -1.805117387668103e-03
            6.986303263305124e-02 1.751397667144858e-02 6.371137290980605e-02 1.547397692296978e-02 5.597396924082294e-02 -1.824048086111713e-03 4.290697039122379e-01 -2.413482065818372e-01
            4.290348913082987e-01 -2.413992781012750e-01 5.599270736896914e-02 -1.871205221955156e-03 6.562103915004358e-02 1.887621275269243e-02 6.874672855318270e-02 2.134712681841155e-02
            5.589944386956530e-02 -1.940985541310248e-03 4.289976354368460e-01 -2.413781945502763e-01 6.877730489191720e-02 2.133462940155821e-02 6.567261750264798e-02 1.894873927939961e-02
949217500.0000000000 8.056011792060126e-02 1.974645547795778e-02 8.712936501981365e-02 2.164435085902406e-02 3.152551175265471e-01 -3.760568977506877e-01 4.828479582256974e-02 -2.231774163125725e-02
            8.713515278389301e-02 2.169818491093861e-02 8.063935370027388e-02 1.975106049905392e-02 4.827183755855336e-02 -2.232259102195508e-02 3.153063457918914e-01 -3.760227260773243e-01
            3.153022979952877e-01 -3.760774024903909e-01 4.837518513416005e-02 -2.232135665159583e-02 8.182838488631462e-02 2.435313259932837e-02 8.615213576975608e-02 2.702129942373986e-02
            4.834645298617955e-02 -2.223936417998320e-02 3.153173647106562e-01 -3.761137165145929e-01 8.611775155175236e-02 2.703022111960430e-02 8.176256311291799e-02 2.427018414401588e-02
950050000.0000000000 9.593268393254398e-02 1.164513410557548e-02 1.026762437674231e-01 1.313432288791409e-02 1.628715015032995e-01 -4.612844214544803e-01 3.489893141442170e-02 -3.716240076207510e-02
            1.026451883268795e-01 1.304764300941001e-02 9.593793048083618e-02 1.163210542114444e-02 3.500048140722597e-02 -3.714900552926749e-02 1.628811581564946e-01 -4.613161608844772e-01
            1.629070665171279e-01 -4.612620406109321e-01 3.498833450002191e-02 -3.710127200677270e-02 9.728852541347129e-02 1.772880594115069e-02 1.026308716602052e-01 2.009032421601962e-02
            3.489486080815693e-02 -3.710326447142646e-02 1.628358690984771e-01 -4.613698502881080e-01 1.026724343174712e-01 2.013063560432303e-02 9.724794806361790e-02 1.775019722091377e-02
950882500.0000000000 1.020814439162348e-01 -4.431738161183925e-03 1.087122126481547e-01 -3.763543963733423e-03 -8.440514964252440e-03 -4.883874713849795e-01 1.832739666018470e-02 -4.629981961199838e-02
            1.086912457949381e-01 -3.718765852577650e-03 1.021648564739170e-01 -4.484152243890021e-03 1.845066532096870e-02 -4.639942294234786e-02 -8.406836428173812e-03 -4.883740419341104e-01
            -8.334247685552911e-03 -4.883935073359214e-01 1.836981297375134e-02 -4.637236659918911e-02 1.044949994783517e-01 2.812706138584576e-03 1.104054763698727e-01 4.348008596704209e-03
            1.842960483272270e-02 -4.634166556781766e-02 -8.398892645915900e-03 -4.884588460996842e-01 1.104638100892181e-01 4.339350564946471e-03 1.044819473842199e-01 2.804482741163639e-03
951715000.0000000000 9.621290499274356e-02 -2.073659377776304e-02 1.022431007632452e-01 -2.048685707194246e-02 -1.783139972506405e-01 -4.550974209011959e-01 -3.401309949752062e-04 -4.976603578757757e-02
            1.023112282885380e-01 -2.055009916752045e-02 9.625833412108915e-02 -2.069876819603523e-02 -1.897314984541261e-04 -4.988303641275623e-02 -1.784254079215508e-01 -4.551029534447231e-01
            -1.784184263318902e-01 -4.551089366500808e-01 -2.618351870416026e-04 -4.979462821077648e-02 1.000742464134911e-01 -1.292969408109729e-02 1.060735321910262e-01 -1.235194797095557e-02
            -2.949793300149148e-04 -4.979943695981400e-02 -1.784154884087550e-01 -4.551757827543160e-01 1.061453548714589e-01 -1.223260987759733e-02 1.000212113066557e-01 -1.289889509699989e-02
952547500.0000000000 8.101789606871489e-02 -2.901765446195670e-02 8.602223991476637e-02 -2.927615216232664e-02 -3.273553567635668e-01 -3.648496860718766e-01 -2.005725792184168e-02 -4.624167234555488e-02
            8.600577350736126e-02 -2.918231974607135e-02 8.108583971557558e-02 -2.904762597056287e-02 -2.008596410517714e-02 -4.633652459569831e-02 -3.274067780491632e-01 -3.647849425123312e-01
            -3.273580967718000e-01 -3.647834662255632e-01 -2.003286171454401e-02 -4.627361370973722e-02 8.614107240454140e-02 -2.183722821472704e-02 9.190823479962867e-02 -2.183481587673623e-02
            -2.006261853368068e-02 -4.632423615563332e-02 -3.272937044737263e-01 -3.647518921554547e-01 9.183249877754877e-02 -2.194558666280634e-02 8.618335833679806e-02 -2.185412990402161e-02
953380000.0000000000 6.407806740613126e-02 -2.507271068375915e-02 6.785958640012557e-02 -2.504063435611541e-02 -4.361388704120084e-01 -2.267286409415503e-01 -3.771799711855646e-02 -3.436432446842082e-02
            6.795032095173668e-02 -2.497040258431766e-02 6.407800676779483e-02 -2.519184165663111e-02 -3.776655775784482e-02 -3.444269154841768e-02 -4.360891705895323e-01 -2.267268736617217e-01
            -4.362490473317555e-01 -2.267582642812137e-01 -3.776750432906918e-02 -3.437850182236437e-02 6.965870944910596e-02 -1.898447843191645e-02 7.491531805523512e-02 -1.939440486271918e-02
            -3.777713353761655e-02 -3.442762551725494e-02 -4.362035377030801e-01 -2.267227350097647e-01 7.489355404391213e-02 -1.938044778264783e-02 6.973212153075191e-02 -1.903607255275898e-02
954212500.0000000000 5.406496121289642e-02 -1.064538243142749e-02 5.712169970707622e-02 -9.714727391582660e-03 -4.891242113107476e-01 -5.759117454980732e-02 -4.898613725370182e-02 -1.507942861290704e-02
            5.713992973010553e-02 -9.758833186452065e-03 5.408067868338233e-02 -1.070796803546419e-02 -4.892524349886289e-02 -1.503939900002939e-02 -4.890850122715383e-01 -5.760709040205643e-02
            -4.891065278209013e-01 -5.767454936949817e-02 -4.892680699116096e-02 -1.508381427707092e-02 5.912201655543506e-02 -5.503037024695197e-03 6.404279784466800e-02 -5.953194688664627e-03
            -4.890702189219964e-02 -1.504179800709040e-02 -4.890681159006124e-01 -5.755340978088370e-02 6.394244696197371e-02 -5.943033879071995e-03 5.914561310742880e-02 -5.580417409738716e-03
955045000.0000000000 5.665693190103976e-02 6.834113542775420e-03 5.945730808798837e-02 8.903083747890906e-03 -4.774377036749294e-01 1.197179386916949e-01 -4.995482325860202e-02 7.221603862661117e-03
            5.946691129931472e-02 8.852048117865295e-03 5.671095326961787e-02 6.782554793299563e-03 -4.992096644693715e-02 7.254178817881503e-03 -4.774902970825636e-01 1.196769309633207e-01
            -4.774607895537972e-01 1.196682386864608e-01 -4.991445939400385e-02 7.177284590438674e-03 6.040159578570049e-02 1.172284158624879e-02 6.519781352469847e-02 1.158921357092235e-02
            -4.984145328635138e-02 7.165946914915826e-03 -4.774887189006580e-01 1.197458911656223e-01 6.519797169155793e-02 1.153752518876763e-02 6.041112396396597e-02 1.168926227112255e-02
955877500.0000000000 7.061015269130962e-02 1.778586096921735e-02 7.367690883286394e-02 2.098002567124151e-02 -4.030371092821212e-01 2.801864159229301e-01 -4.102504865885799e-02 2.676283743843650e-02
            7.355893494194898e-02 2.094179845879772e-02 7.054960980111419e-02 1.787116229741596e-02 -4.102332690693338e-02 2.670991564327703e-02 -4.031086023446526e-01 2.801238994057704e-01
            -4.030676151421013e-01 2.801203464928280e-01 -4.094351595451900e-02 2.675303842300272e-02 7.288181919447512e-02 2.384754020760791e-02 7.791543005933893e-02 2.377606172380273e-02
            -4.102253614653373e-02 2.674106444885490e-02 -4.030638539380977e-01 2.801509424639679e-01 7.793731886133184e-02 2.374345084219754e-02 7.285776872217695e-02 2.386485868049367e-02
956710000.0000000000 8.833352740186978e-02 1.660341930406830e-02 9.218113419540119e-02 2.033656359024281e-02 -2.776368727562840e-01 4.026783601941598e-01 -2.592985223041424e-02 3.969875112792830e-02
            9.210725473249290e-02 2.034659376341246e-02 8.839219664804641e-02 1.656958670271094e-02 -2.585800947718343e-02 3.961837197131971e-02 -2.776671625055035e-01 4.025740109442517e-01
            -2.777508609790861e-01 4.026461080851289e-01 -2.584277934865929e-02 3.962600604357395e-02 9.012939914795708e-02 2.481845944553238e-02 9.557507825866778e-02 2.439662279061932e-02
            -2.579295474941063e-02 3.973979668074655e-02 -2.776434240401692e-01 4.026713965789591e-01 9.549100060957479e-02 2.440619397493978e-02 9.019597936611140e-02 2.487173186233603e-02
957542500.0000000000 1.008834711537237e-01 3.786517487715889e-03 1.056495369444341e-01 7.648852115402470e-03 -1.189320396458248e-01 4.729080033106830e-01 -8.426397929979941e-03 4.536190768586851e-02
            1.056967387967468e-01 7.605828759720899e-03 1.009748587426019e-01 3.875551685927165e-03 -8.371008284917894e-03 4.540548323804199e-02 -1.189303144244830e-01 4.729080895235148e-01
            -1.189267587234301e-01 4.729235380329715e-01 -8.313058863998130e-03 4.543847832612933e-02 1.036306275520897e-01 1.442474209736013e-02 1.091247918790205e-01 1.356610831948841e-02
            -8.381646547946337e-03 4.538549311943296e-02 -1.189155713297462e-01 4.729203145756568e-01 1.090872180513985e-01 1.347018171925397e-02 1.036248812584883e-01 1.454760534516845e-02
958375000.0000000000 1.022007603051355e-01 -1.405180443338218e-02 1.076211563151668e-01 -1.077447823410119e-02 5.336997602818294e-02 4.842237513411284e-01 9.145135723206153e-03 4.513877282948146e-02
            1.075900772426956e-01 -1.078301641962900e-02 1.021876933855041e-01 -1.411259372797159e-02 9.095192676027075e-03 4.506354731815713e-02 5.341387305315023e-02 4.842896482036101e-01
            5.347144314305398e-02 4.843060102039632e-01 9.102427250288730e-03 4.507372556396193e-02 1.069940655989313e-01 -1.682501117530413e-03 1.123847881013868e-01 -3.445021650256790e-03
            9.092345745539229e-03 4.505334967358444e-02 5.343409841721768e-02 4.842347000429719e-01 1.123459739824386e-01 -3.432020439078373e-03 1.070512084508957e-01 -1.674871234183764e-03
959207500.0000000000 9.165801835939771e-02 -2.863123779511001e-02 9.698537406895245e-02 -2.601978013405190e-02 2.195590429594286e-01 4.357450241717944e-01 2.601437656195389e-02 3.910352154441653e-02
            9.698742810932404e-02 -2.602470746320336e-02 9.169309177033658e-02 -2.850022839119146e-02 2.599480868689568e-02 3.913878220187977e-02 2.194094267961275e-01 4.358104897975611e-01
            2.193896212225205e-01 4.357052422623358e-01 2.593433642207189e-02 3.912852475140807e-02 9.892914008039809e-02 -1.588975378839385e-02 1.037164074307984e-01 -1.822728340623741e-02
            2.595388654968755e-02 3.907269493984690e-02 2.194253769412436e-01 4.357378675990684e-01 1.037050591730458e-01 -1.825257922575802e-02 9.899021206360267e-02 -1.594213306378119e-02
960040000.0000000000 7.421317153448455e-02 -3.264488810733040e-02 7.904313251769483e-02 -3.068267915676796e-02 3.594340284607752e-01 3.318586303914637e-01 4.065544410083606e-02 2.689823901165669e-02
            7.909484251904049e-02 -3.070810427746897e-02 7.421474785367001e-02 -3.266920035222582e-02 4.079497242036712e-02 2.688105140894572e-02 3.593879083388894e-01 3.319159376887379e-01
            3.594289579842952e-01 3.318744114495012e-01 4.075422291813780e-02 2.691598382345185e-02 8.334457894737808e-02 -2.105125228559037e-02 8.736054052533122e-02 -2.364109322189010e-02
            4.070920738986186e-02 2.687102779869193e-02 3.593919754945952e-01 3.318940457813215e-01 8.734385850066460e-02 -2.349462458592206e-02 8.335622751902609e-02 -2.100405922552263e-02
960872500.0000000000 5.869850701738312e-02 -2.406036187578483e-02 6.268063657756401e-02 -2.235392926881442e-02 4.546165563745949e-01 1.839466658016092e-01 5.017833457409700e-02 8.250239511088813e-03
            6.271154042523272e-02 -2.233329462674921e-02 5.869004330106702e-02 -2.405286831856613e-02 5.016569083414513e-02 8.288963390080379e-03 4.545867794862817e-01 1.839715883276988e-01
            4.547220358922434e-01 1.840113680825514e-01 5.018190959929809e-02 8.311105539948002e-03 6.815757283411809e-02 -1.390752891663338e-02 7.139738562390631e-02 -1.634921712689486e-02
            5.018633723532311e-02 8.212099642370296e-03 4.546038607074810e-01 1.839367683889302e-01 7.143994682151152e-02 -1.632653493133288e-02 6.807322059018239e-02 -1.395257345973087e-02
961705000.0000000000 5.362710260588466e-02 -7.292581376910096e-03 5.670003768171585e-02 -5.249125162407100e-03 4.906338083806439e-01 1.066840407762156e-02 5.046255111613883e-02 -1.420505014886324e-02
            5.668187341640844e-02 -5.149588843315535e-03 5.352902551426916e-02 -7.232455268842048e-03 5.049861275538366e-02 -1.422314330558786e-02 4.905703441600117e-01 1.058518090721254e-02
            4.906128878074954e-01 1.067900470674826e-02 5.047249708854584e-02 -1.420948714281757e-02 6.149579618193755e-02 2.325417207929005e-03 6.438869578295356e-02 2.519070355865528e-04
            5.044702146708741e-02 -1.424320084583177e-02 4.906129303468712e-01 1.067417658297172e-02 6.441331956531433e-02 2.262752506304402e-04 6.147397734902046e-02 2.366443374404911e-03
962537500.0000000000 6.203086588888997e-02 8.136957649487443e-03 6.436477364263823e-02 1.109947571668341e-02 4.614676221121429e-01 -1.637426745247989e-01 4.020684226092217e-02 -3.478946342512051e-02
            6.444628061652269e-02 1.107263779795826e-02 6.202190577850052e-02 8.164072129980359e-03 4.019764794745098e-02 -3.474992709828499e-02 4.614959666975137e-01 -1.637848687940108e-01
            4.614591561895697e-01 -1.637737903365275e-01 4.014723625370640e-02 -3.486025464168856e-02 6.748322184394091e-02 1.977022296874990e-02 7.041876303095779e-02 1.784377343826454e-02
            4.013851165676186e-02 -3.477911153060351e-02 4.614906669832630e-01 -1.638598348598301e-01 7.044283476631527e-02 1.786193762529261e-02 6.749773001484111e-02 1.981683695614681e-02
963370000.0000000000 7.943687820915694e-02 1.298935517016813e-02 8.170874559927627e-02 1.701440845797363e-02 3.723704041980844e-01 -3.149777063865398e-01 2.186759680308912e-02 -4.824083057493416e-02
            8.172926230862644e-02 1.707037351472042e-02 7.939209176833402e-02 1.303061881580317e-02 2.179921193211397e-02 -4.827895950675187e-02 3.723374766669831e-01 -3.150001342978631e-01
            3.723923782302440e-01 -3.149623472825931e-01 2.178341068946092e-02 -4.813964497316869e-02 8.389015029770595e-02 2.969040043560150e-02 8.669327592758945e-02 2.776404003499720e-02
            2.189980684443496e-02 -4.825410053848860e-02 3.723555263696607e-01 -3.149877263618516e-01 8.678203314515358e-02 2.784112076811813e-02 8.392358041829999e-02 2.961437790424783e-02
964202500.0000000000 9.632502393060104e-02 3.875765333784253e-03 9.905991023099039e-02 8.927199196392106e-03 2.370851928483193e-01 -4.236593027728829e-01 6.935270980223462e-04 -5.222251962129230e-02
            9.900281489713032e-02 8.866662341997421e-03 9.630909493301182e-02 3.887394635642419e-03 7.265377740146500e-04 -5.218135930484605e-02 2.370691889927120e-01 -4.236894974770132e-01
            2.371177650751173e-01 -4.236514223123718e-01 7.156636761366916e-04 -5.221875654873830e-02 1.030442822155348e-01 2.757800157985510e-02 1.060026257788038e-01 2.539220921896473e-02
            7.164752126099306e-04 -5.217363773850582e-02 2.371240809398261e-01 -4.237347447940009e-01 1.059287739329881e-01 2.534705714866875e-02 1.031671406614883e-01 2.764141140139045e-02
965035000.0000000000 1.034733739736430e-01 -1.576947538615398e-02 1.069339685934094e-01 -1.016581724691709e-02 7.425064896921053e-02 -4.782633292110506e-01 -1.891426118834212e-02 -4.797772208163062e-02
            1.068897869131150e-01 -1.016568596677532e-02 1.034940435022122e-01 -1.584888528915099e-02 -1.890265087928669e-02 -4.811947166699564e-02 7.415911970752449e-02 -4.781663525402722e-01
            7.424027289360906e-02 -4.783118720382135e-01 -1.887843333308801e-02 -4.806381294646556e-02 1.173697519056435e-01 1.488162155874963e-02 1.199160571299929e-01 1.224057363979648e-02
            -1.885636739295546e-02 -4.814684803690544e-02 7.419280725277387e-02 -4.781953796500207e-01 1.198414852225314e-01 1.220664006434457e-02 1.173532434693320e-01 1.489332472875594e-02
965867500.0000000000 9.610800694025788e-02 -3.752797052114006e-02 1.002408303567279e-01 -3.173254560787640e-02 -9.674162616996076e-02 -4.738362997496868e-01 -3.511602797915996e-02 -3.805882796348303e-02
            1.003816732419389e-01 -3.168749830030467e-02 9.606033524203689e-02 -3.747461009726267e-02 -3.506905819388283e-02 -3.815752668141498e-02 -9.670929655112416e-02 -4.738370401046810e-01
            -9.666331537949303e-02 -4.738356677278058e-01 -3.510690256997159e-02 -3.817813315382954e-02 1.216889069065881e-01 -2.781147961097044e-03 1.235439635583499e-01 -5.795699317258308e-03
            -3.512980825815076e-02 -3.813924294419024e-02 -9.671133082636842e-02 -4.737806972644035e-01 1.235255196642256e-01 -5.790977973952526e-03 1.217223737526949e-01 -2.881079974140929e-03
966700000.0000000000 7.539009949882228e-02 -5.167381666023539e-02 8.032017682587290e-02 -4.607881995364994e-02 -2.562191007194643e-01 -4.110674008636299e-01 -4.775384323017166e-02 -2.375861608490953e-02
            8.028075189753861e-02 -4.608452991498468e-02 7.539803479528098e-02 -5.157421798450685e-02 -4.769134871692055e-02 -2.375843252617019e-02 -2.562111226288271e-01 -4.110213555919550e-01
            -2.562131213040976e-01 -4.111098775938501e-01 -4.763899673509871e-02 -2.381243623468490e-02 1.159332326753954e-01 -1.849842057334114e-02 1.168879505954088e-01 -2.134221038854645e-02
            -4.769171716847681e-02 -2.379241453769786e-02 -2.561725020057219e-01 -4.110558638186173e-01 1.168305515759879e-01 -2.133271722998047e-02 1.160229723859712e-01 -1.846468278374878e-02
967532500.0000000000 4.871816043546507e-02 -5.101782464310201e-02 5.379286768911663e-02 -4.594362072470009e-02 -3.851199282481862e-01 -2.960127711820928e-01 -5.551216313494311e-02 -5.078761988821358e-03
            5.390583132426061e-02 -4.583562043556843e-02 4.876448300686686e-02 -5.108117075721137e-02 -5.558191193193430e-02 -5.004811155965596e-03 -3.851064820142634e-01 -2.960929189903980e-01
            -3.851295524998701e-01 -2.961504732719773e-01 -5.552919257344275e-02 -4.986738377575108e-03 1.041051234939478e-01 -2.678442160776195e-02 1.042147017885241e-01 -2.907515700170688e-02
            -5.552743042154691e-02 -5.012539364037867e-03 -3.850638133921717e-01 -2.960903061411495e-01 1.041506481214608e-01 -2.905044496708509e-02 1.039984754732046e-01 -2.673931256047726e-02
968365000.0000000000 2.638057244310384e-02 -3.469386277163546e-02 3.144713601953977e-02 -2.991308384317777e-02 -4.659881917439444e-01 -1.416488993141975e-01 -5.619915343141270e-02 1.722690148252572e-02
            3.141142119940693e-02 -2.990269570032000e-02 2.644114326815960e-02 -3.466575355196848e-02 -5.622632118499658e-02 1.720915833401319e-02 -4.659930589138351e-01 -1.417030763100351e-01
            -4.659488271958914e-01 -1.417175276959824e-01 -5.622189581410603e-02 1.723625145524504e-02 9.249518363959032e-02 -2.635535032336912e-02 9.216954417458095e-02 -2.760710968053341e-02
            -5.625928536445447e-02 1.722170228481383e-02 -4.659661785044452e-01 -1.416928295081493e-01 9.215351034114641e-02 -2.760542180135024e-02 9.249751712364432e-02 -2.638610556400339e-02
969197500.0000000000 1.742845641687070e-02 -8.402790078252120e-03 2.223431921585373e-02 -3.682369902111241e-03 -4.865118818618817e-01 3.245676485118498e-02 -4.721383335220935e-02 3.967182877521878e-02
            2.221208235623677e-02 -3.722764503033105e-03 1.753930489063513e-02 -8.373791635885513e-03 -4.730238672600089e-02 3.975050115323262e-02 -4.865514649838643e-01 3.244874107231395e-02
            -4.865282775303367e-01 3.244385052990854e-02 -4.724572976547007e-02 3.974707254234647e-02 8.673041753132289e-02 -2.045545542102129e-02 8.660110549245094e-02 -2.081082215151961e-02
            -4.725048169197728e-02 3.973586660418677e-02 -4.865114352247470e-01 3.250220716661099e-02 8.651762379427770e-02 -2.085325697783490e-02 8.678355879211846e-02 -2.049279902322232e-02
970030000.0000000000 2.509301062078222e-02 1.715711970973392e-02 2.945110696631652e-02 2.195895001003163e-02 -4.431281960419218e-01 2.025312709165928e-01 -2.865725237663480e-02 5.724670257727901e-02
            2.944272408853820e-02 2.206676533226343e-02 2.503767144960204e-02 1.713036661078325e-02 -2.869802955769936e-02 5.723006626073535e-02 -4.432129050447213e-01 2.024801953266745e-01
            -4.431334471001657e-01 2.025110948849102e-01 -2.865064175580947e-02 5.725723127863978e-02 8.811908671142082e-02 -1.534627336684409e-02 8.857363782211763e-02 -1.503489318609315e-02
            -2.873663970572493e-02 5.723408652612379e-02 -4.431602770665407e-01 2.024809929395619e-01 8.858873487472665e-02 -1.503629275395599e-02 8.818856932942981e-02 -1.533220402270871e-02
970862500.0000000000 4.433936098455067e-02 3.217883331850384e-02 4.852970042707483e-02 3.738712289262029e-02 -3.424771686991749e-01 3.451386704619449e-01 -4.009015789828320e-03 6.544846509924934e-02
            4.855214901338530e-02 3.741195567365573e-02 4.424493178505780e-02 3.218789489257621e-02 -3.986457376125771e-03 6.550626579597014e-02 -3.424413317741905e-01 3.449929672207245e-01
            -3.423846367778193e-01 3.451159965711054e-01 -4.051147058816629e-03 6.542572946067997e-02 9.330182740344413e-02 -1.602480145657447e-02 9.441187153866877e-02 -1.567094821107477e-02
            -4.023565516202866e-03 6.536220549843706e-02 -3.423777427688143e-01 3.450782404747732e-01 9.453577555966526e-02 -1.563645550302032e-02 9.332329133790936e-02 -1.600726360464173e-02
971695000.0000000000 6.567956665936710e-02 3.267916976129105e-02 7.002226605245321e-02 3.826734852813680e-02 -1.988703865484010e-01 4.424177537694832e-01 2.176197597328592e-02 6.300214354240766e-02
            7.004704527698458e-02 3.826922651087467e-02 6.570541497050432e-02 3.274853461206656e-02 2.179533867656922e-02 6.306566158989074e-02 -1.988833098617662e-01 4.423551949066521e-01
            -1.988318119457856e-01 4.423192025021273e-01 2.175818284967542e-02 6.295807872169390e-02 9.614704429204779e-02 -2.343352809364897e-02 9.793323674279376e-02 -2.352795084179267e-02
            2.175560147473736e-02 6.297668288469088e-02 -1.987821826987745e-01 4.424699174964569e-01 9.790603142549106e-02 -2.340565744423162e-02 9.616855389852551e-02 -2.338680993351411e-02
972527500.0000000000 8.012922374383734e-02 2.189850006062736e-02 8.470755910142382e-02 2.776134496048984e-02 -3.111086927215326e-02 4.834160362822890e-01 4.435442478538999e-02 5.128603641584154e-02
            8.478197569843680e-02 2.768943731274914e-02 8.008688811587779e-02 2.189140209871434e-02 4.438788684409616e-02 5.137531091448411e-02 -3.114254556906605e-02 4.834141825601689e-01
            -3.112047904343159e-02 4.834818981804941e-01 4.433182258137777e-02 5.133235145262562e-02 9.195606108784125e-02 -3.381283002102859e-02 9.380701942511381e-02 -3.461810783847534e-02
            4.439932795159132e-02 5.129394265976659e-02 -3.122406878334672e-02 4.834018990069495e-01 9.373862698366117e-02 -3.452944997684712e-02 9.195947138544809e-02 -3.385175027308308e-02
973360000.0000000000 8.300113647295129e-02 7.263043174147375e-03 8.787348004618328e-02 1.317418584641603e-02 1.402617716601437e-01 4.638078206731013e-01 6.161666831737639e-02 3.245680969470607e-02
            8.778219196729695e-02 1.319969670294740e-02 8.306697277549682e-02 7.348542433895543e-03 6.158110034766631e-02 3.249877024167383e-02 1.402959784580258e-01 4.638547712452288e-01
            1.402327554766247e-01 4.639768959908602e-01 6.158543160792443e-02 3.250108690472096e-02 7.967262478015545e-02 -4.112426210879477e-02 8.099515818790350e-02 -4.239702643862091e-02
            6.158586220570346e-02 3.245156691187057e-02 1.402881495517440e-01 4.639077452609122e-01 8.106683126828548e-02 -4.241895895284761e-02 7.960622817799531e-02 -4.110041472912387e-02
974192500.0000000000 7.568888419530280e-02 -2.602927157908222e-03 8.049570279045418e-02 3.077889696842640e-03 2.949155850584259e-01 3.855091978086569e-01 7.174915213324116e-02 8.047150056043792e-03
            8.051395598452428e-02 3.180576099077227e-03 7.569085134268072e-02 -2.645845636288426e-03 7.176026418325851e-02 7.985028741373612e-03 2.949056607759581e-01 3.854432092202800e-01
            2.948645668214379e-01 3.855074487331258e-01 7.181359032271582e-02 8.091176518807024e-03 6.289123843963808e-02 -3.975043035458022e-02 6.368416853932887e-02 -4.113727846037851e-02
            7.178399738379443e-02 8.093389643766104e-03 2.948142527699203e-01 3.854434802923197e-01 6.371147565231262e-02 -4.116140532940935e-02 6.286263607803320e-02 -3.974116931000027e-02
975025000.0000000000 6.460441626221453e-02 -2.737926375501580e-03 6.915200912163191e-02 3.034796649514725e-03 4.124361827790821e-01 2.567382582090366e-01 7.267582299917966e-02 -1.997036135952290e-02
            6.915438295309373e-02 2.991011627293081e-03 6.467224608144490e-02 -2.683279000703881e-03 7.261811849815990e-02 -1.992186397400252e-02 4.124932520451601e-01 2.568048757171995e-01
            4.124819541552743e-01 2.567520125378304e-01 7.259071981390516e-02 -1.991918578631908e-02 4.861656673022171e-02 -2.779095325339245e-02 4.888175884917741e-02 -2.884945251073113e-02
            7.269577061907197e-02 -1.993681921627793e-02 4.124511720816891e-01 2.568557295083308e-01 4.898339937306397e-02 -2.891929565065271e-02 4.862954034878483e-02 -2.782480917523732e-02
975857500.0000000000 5.770344766815828e-02 6.545650765950308e-03 6.191841800347721e-02 1.237236066459436e-02 4.766089430219980e-01 9.390718943073668e-02 6.207598956876773e-02 -4.799381818598727e-02
            6.199387563036808e-02 1.231204126575805e-02 5.773383193323851e-02 6.444089976519882e-03 6.214654308147740e-02 -4.796347820109777e-02 4.765333148215581e-01 9.388036761795306e-02
            4.765894765789037e-01 9.387335508116930e-02 6.222424817230480e-02 -4.800084035897171e-02 4.383380818969727e-02 -8.876795369376061e-03 4.403690291929908e-02 -9.455478197178915e-03
            6.212739796011778e-02 -4.803327333520820e-02 4.766267448851882e-01 9.385345227281443e-02 4.400246509635261e-02 -9.388027862883279e-03 4.371344688650246e-02 -8.952776844032976e-03
976690000.0000000000 6.056238082058558e-02 1.882503738473661e-02 6.424623994179610e-02 2.521900434386954e-02 4.778745696870345e-01 -8.098407885104573e-02 4.009539355424547e-02 -7.055853565919949e-02
            6.442027336879516e-02 2.522275752128076e-02 6.059487952093598e-02 1.883679626503754e-02 4.009227931861072e-02 -7.062911528674547e-02 4.778112998698187e-01 -8.090147559196670e-02
            4.778969787606236e-01 -8.098183491132629e-02 4.008670676572858e-02 -7.057633481265482e-02 5.119043475041093e-02 9.231189855718655e-03 5.184444960050513e-02 9.041649102719899e-03
            4.003668082009237e-02 -7.055013292092034e-02 4.778551951275106e-01 -8.094125699158504e-02 5.181650293601313e-02 9.035905994832815e-03 5.114859796157331e-02 9.179729553188281e-03
977522500.0000000000 7.249958234001183e-02 2.657710184783860e-02 7.605394209439227e-02 3.366629889556653e-02 4.169333078674018e-01 -2.435068118617876e-01 1.001241233194247e-02 -8.226875170809969e-02
            7.602124581781046e-02 3.367172098473730e-02 7.247369717359652e-02 2.647094269087245e-02 9.965325207750892e-03 -8.229640091648734e-02 4.169500070845499e-01 -2.435349189502133e-01
            4.169096039200013e-01 -2.435360101079534e-01 9.953519315085124e-03 -8.233535889392578e-02 6.753159342027421e-02 1.869329693577895e-02 6.895590681101735e-02 1.836380184901388e-02
            1.001425622454522e-02 -8.229941188320695e-02 4.169461256295340e-01 -2.435377194680052e-01 6.888473423808811e-02 1.836566428573337e-02 6.757697567787563e-02 1.878293821144400e-02
978355000.0000000000 8.758994893131901e-02 2.416072536682692e-02 9.128849640725775e-02 3.236091776504933e-02 3.037433314876534e-01 -3.729767323150064e-01 -2.220521688448259e-02 -8.096073101479294e-02
            9.125282819925795e-02 3.240898852588870e-02 8.748649452506245e-02 2.419399445581684e-02 -2.210129100453576e-02 -8.092243865198458e-02 3.037216071737684e-01 -3.729660654914767e-01
            3.036923153619970e-01 -3.728971483354897e-01 -2.219529500264739e-02 -8.082179677341686e-02 8.523390003759465e-02 1.591804170972257e-02 8.707813238319662e-02 1.461516571804335e-02
            -2.212016029724660e-02 -8.096893065244079e-02 3.036601675463031e-01 -3.729834593519245e-01 8.708393515621721e-02 1.476749191826245e-02 8.526073249606667e-02 1.596098095865395e-02
979187500.0000000000 9.803042430286477e-02 1.232622773618739e-02 1.023319623417021e-01 2.155508547518755e-02 1.537377456586414e-01 -4.544894145829135e-01 -5.077492146229203e-02 -6.773331707041812e-02
            1.023367086690765e-01 2.151067312597149e-02 9.805260359358899e-02 1.230527963560916e-02 -5.075045048995365e-02 -6.775039032794476e-02 1.537359921015692e-01 -4.544744803774957e-01
            1.538190952937762e-01 -4.543545501649275e-01 -5.077448240537846e-02 -6.773415526753981e-02 9.621702729503255e-02 3.221746806651259e-03 9.796544313612546e-02 6.078070993247005e-04
            -5.076417834630487e-02 -6.777783959554064e-02 1.537985460132717e-01 -4.543477964307360e-01 9.798682480906062e-02 6.573124611458945e-04 9.621529849453465e-02 3.273135773450547e-03
980020000.0000000000 9.879391045687831e-02 -3.675541086114399e-03 1.040106384073985e-01 6.034583901739304e-03 -1.451930779227381e-02 -4.791403144413676e-01 -7.257006686713199e-02 -4.579988617854335e-02
            1.040065043917345e-01 6.103077947932255e-03 9.881937318931523e-02 -3.643977976043055e-03 -7.262541882162198e-02 -4.575192319419932e-02 -1.463017825719022e-02 -4.791014239011809e-01
            -1.461358294207545e-02 -4.791386711153815e-01 -7.262139557984061e-02 -4.573808931187037e-02 9.588513023593909e-02 -1.289041914017867e-02 9.678464776986649e-02 -1.673849600703146e-02
            -7.258297027180706e-02 -4.572034479788149e-02 -1.462778596401872e-02 -4.791803513445058e-01 9.677856894892886e-02 -1.664947090104113e-02 9.586232104718581e-02 -1.280009417681209e-02
980852500.0000000000 8.909458287743219e-02 -1.653605721320621e-02 9.534461066219950e-02 -6.599626856705213e-03 -1.816622913718070e-01 -4.441650932598801e-01 -8.604628026665322e-02 -1.762499413551369e-02
            9.531767441793029e-02 -6.588251414289953e-03 8.918202130970787e-02 -1.655169879600091e-02 -8.607090125325038e-02 -1.764207289794300e-02 -1.816438272070773e-01 -4.441454033008118e-01
            -1.816769355065255e-01 -4.441478236430150e-01 -8.606684029984144e-02 -1.754927887956518e-02 8.485137481901005e-02 -2.433591667781664e-02 8.427598637218159e-02 -2.882914269896493e-02
            -8.608504225970180e-02 -1.757947792713613e-02 -1.816523770044201e-01 -4.441303842178114e-01 8.428455569268550e-02 -2.874975492896022e-02 8.497593375294397e-02 -2.427976852781871e-02
981685000.0000000000 7.362920658806851e-02 -1.976478643321290e-02 8.064126467110122e-02 -1.008706800989933e-02 -3.269564146687528e-01 -3.523402587725897e-01 -8.970155440155993e-02 1.443138949601451e-02
            8.075586832947003e-02 -1.014368339212262e-02 7.354930368338787e-02 -1.972295126975707e-02 -8.967270719684707e-02 1.454375601472448e-02 -3.270077656828253e-01 -3.524400487764260e-01
            -3.270398042524441e-01 -3.523605423791487e-01 -8.966519030204068e-02 1.458318111118004e-02 6.882710016541768e-02 -2.517878663476290e-02 6.650932828106818e-02 -2.945510266078526e-02
            -8.969124693387877e-02 1.456278626968302e-02 -3.269511236430346e-01 -3.523135538635614e-01 6.653967109359457e-02 -2.948900212402360e-02 6.886203146088328e-02 -2.514402301966578e-02
982517500.0000000000 6.000941821361262e-02 -1.169258693533322e-02 6.752013318532309e-02 -2.720837429939086e-03 -4.308422454501851e-01 -2.141249277336245e-01 -8.134573851922360e-02 4.788903087620741e-02
            6.747800101618903e-02 -2.765133500887315e-03 6.009536802727277e-02 -1.166248967733823e-02 -8.137294547339151e-02 4.790436099520310e-02 -4.309197723111792e-01 -2.140606352089678e-01
            -4.308777551952481e-01 -2.140621343600058e-01 -8.135462460280103e-02 4.778118695297306e-02 5.609422594154280e-02 -1.455964493349269e-02 5.246811227191835e-02 -1.797872651670749e-02
            -8.139173267108776e-02 4.795278090365176e-02 -4.308217651691583e-01 -2.140384471912434e-01 5.249285078839959e-02 -1.801341092842135e-02 5.607740454388178e-02 -1.462393985025826e-02
983350000.0000000000 5.583744305203212e-02 3.517505589501677e-03 6.305994929961370e-02 1.180642473237156e-02 -4.781966930254392e-01 -4.727197668830312e-02 -5.980687189810569e-02 7.743651070642008e-02
            6.312419530245580e-02 1.182833419284727e-02 5.581225992906259e-02 3.415482008619317e-03 -5.978370763372166e-02 7.750373622506503e-02 -4.781824119233526e-01 -4.726451623118503e-02
            -4.781410596746987e-01 -4.725608386670033e-02 -5.980030457655369e-02 7.744198674456287e-02 5.364922056253619e-02 2.292201032321491e-03 4.950682569135244e-02 1.372147315215802e-04
            -5.973728395275094e-02 7.740308486385171e-02 -4.782050130931694e-01 -4.721348893321384e-02 4.952683966161057e-02 1.358175140896474e-04 5.357391309018918e-02 2.360850856389882e-03
984182500.0000000000 6.336437855881806e-02 1.743401093448797e-02 6.993685856001935e-02 2.548027572098602e-02 -4.624921375142996e-01 1.247342669818721e-01 -2.687246274664361e-02 9.685807580702033e-02
            6.989512509282018e-02 2.558160408207236e-02 6.325948977906590e-02 1.749897362773052e-02 -2.692151132529067e-02 9.684778195922567e-02 -4.624240828857524e-01 1.248313791761924e-01
            -4.624896690486046e-01 1.247523395791860e-01 -2.686749927981043e-02 9.682537528959920e-02 6.316586905987168e-02 1.691254149932721e-02 5.928521706561894e-02 1.559694448053910e-02
            -2.693636829179034e-02 9.684332670858863e-02 -4.624462540652693e-01 1.247842600292943e-01 5.929228785808753e-02 1.563123613091973e-02 6.316724068536647e-02 1.703799140131361e-02
985015000.0000000000 7.865598161737296e-02 2.282735777763930e-02 8.434673627099171e-02 3.122819280669441e-02 -3.871742613460605e-01 2.784409197537582e-01 1.163801075793628e-02 1.015219796480298e-01
            8.431731595380103e-02 3.122204677122567e-02 7.865930322126329e-02 2.283675365387942e-02 1.162830273509446e-02 1.015164798990127e-01 -3.872256408548289e-01 2.784352733535341e-01
            -3.871823849531684e-01 2.784504532762714e-01 1.166818216992465e-02 1.015422487458460e-01 7.980206556732285e-02 2.189268223169825e-02 7.663048601715966e-02 2.072261203064745e-02
            1.164990515556376e-02 1.015462630872643e-01 -3.871469468425736e-01 2.783893054785886e-01 7.661794272094656e-02 2.074231033278235e-02 7.978943914819106e-02 2.191797175383754e-02
985847500.0000000000 9.398632652356501e-02 1.648238157263748e-02 9.884774453842472e-02 2.592665261508037e-02 -2.640891679216791e-01 3.948514746413213e-01 4.864501744411556e-02 9.090169719197078e-02
            9.888976129386434e-02 2.585870958792118e-02 9.399081127359085e-02 1.639661183800542e-02 4.862955646878171e-02 9.097598639929325e-02 -2.641367538822449e-01 3.948544474010365e-01
            -2.640685566603275e-01 3.947919245088911e-01 4.873343978311278e-02 9.090940869329103e-02 9.543182094160253e-02 1.499581101812975e-02 9.278716125340412e-02 1.314539800683664e-02
            4.865590979235430e-02 9.096519681525239e-02 -2.640655496801879e-01 3.948645698820487e-01 9.279682867764498e-02 1.318522328373915e-02 9.546069328150099e-02 1.494624513359155e-02
986680000.0000000000 1.016206231606697e-01 1.405057716256637e-03 1.063629298224044e-01 1.235531321727782e-02 -1.093921175885312e-01 4.611972717994852e-01 7.877466052666557e-02 6.790258956816152e-02
            1.063029579242494e-01 1.232853797279024e-02 1.016697767388104e-01 1.372847897570689e-03 7.874258694950056e-02 6.794280974790061e-02 -1.093483565171981e-01 4.612492314432243e-01
            -1.093878451264661e-01 4.611797220719243e-01 7.873852874315762e-02 6.797253447051539e-02 1.028415972723604e-01 9.009836087621309e-05 9.978195081984155e-02 -3.029941986207273e-03
            7.872573961541311e-02 6.788366196612187e-02 -1.093675641407966e-01 4.612028383784311e-01 9.981168580395228e-02 -3.073932449430745e-03 1.028466252271725e-01 4.793744214044004e-05
987512500.0000000000 9.787029540224659e-02 -1.521803741585914e-02 1.031626989939365e-01 -2.845951681408951e-03 5.858905762743587e-02 4.703643612841963e-01 9.884809462007717e-02 3.639377482958682e-02
            1.030716497531691e-01 -2.814442747750818e-03 9.793145036486682e-02 -1.514077288512776e-02 9.891620623655155e-02 3.642908768089814e-02 5.866076740431236e-02 4.703278908513061e-01
            5.861034551402933e-02 4.703121120877903e-01 9.891001301160754e-02 3.637363558384618e-02 9.874739258300161e-02 -1.565654403555042e-02 9.451361997365616e-02 -1.998567150560750e-02
            9.886140829560949e-02 3.637436641059773e-02 5.864501325485324e-02 4.702691492010412e-01 9.440296893699290e-02 -1.996735292431454e-02 9.873209706642741e-02 -1.552860023309595e-02
988345000.0000000000 8.450742882971723e-02 -2.563733436707012e-02 9.058402237133854e-02 -1.201769270718495e-02 2.201115536717806e-01 4.204256871430107e-01 1.077025973249330e-01 -2.788206323151254e-04
            9.056848796852925e-02 -1.204770549697420e-02 8.443816561334769e-02 -2.557745803489152e-02 1.076847570098391e-01 -2.917226909529913e-04 2.201076999676991e-01 4.204765445555117e-01
            2.202418482533489e-01 4.204424002887408e-01 1.076926319344161e-01 -3.507376821600999e-04 8.543564300666290e-02 -2.454421605932874e-02 7.914913366665503e-02 -2.932542039861699e-02
            1.077535526084799e-01 -3.849482197602420e-04 2.200671487049655e-01 4.205029778276334e-01 7.910773073904304e-02 -2.936050677684115e-02 8.540439439191294e-02 -2.461554098885959e-02
989177500.0000000000 6.763193840845215e-02 -2.470403556473953e-02 7.482746367363870e-02 -1.046572507083573e-02 3.548549628413509e-01 3.162580904076515e-01 1.037941626758406e-01 -3.945111229902669e-02
            7.490828561425913e-02 -1.045493973148790e-02 6.760693767364011e-02 -2.470449681906438e-02 1.037265304662948e-01 -3.945393495668214e-02 3.548108899460854e-01 3.162737386497432e-01
            3.548302223297478e-01 3.162600505297046e-01 1.038141823182156e-01 -3.945992804505206e-02 6.949937424552756e-02 -2.217835872061760e-02 6.130672377701498e-02 -2.637750481817900e-02
            1.036788154044050e-01 -3.950216633844308e-02 3.547585803620210e-01 3.162063997182673e-01 6.130429732540742e-02 -2.642709557503844e-02 6.940479615377521e-02 -2.211084941149656e-02
990010000.0000000000 5.598467037371034e-02 -1.293328971546666e-02 6.387946801611276e-02 1.272993151908382e-03 4.439108422948494e-01 1.698686680405773e-01 8.540071156601536e-02 -7.665975545422345e-02
            6.390049405332862e-02 1.302525221456890e-03 5.598276118698561e-02 -1.296651442751582e-02 8.538236380101628e-02 -7.658603329264903e-02 4.439498427265800e-01 1.699991611866601e-01
            4.439150676789597e-01 1.699411447997534e-01 8.538345731091895e-02 -7.664773470608292e-02 5.929534630888892e-02 -9.281503989021974e-03 4.989318971233880e-02 -1.251819337368770e-02
            8.533043629274119e-02 -7.667552658746694e-02 4.439120211557686e-01 1.698896788173484e-01 4.995114431311026e-02 -1.248945229539407e-02 5.933856078574423e-02 -9.355131861425841e-03
990842500.0000000000 5.559242583692615e-02 3.272592126611911e-03 6.339284125655321e-02 1.759961957557794e-02 4.742635217086167e-01 1.397448119461948e-03 5.283349357093568e-02 -1.057819279758727e-01
            6.349516212948193e-02 1.754700856224309e-02 5.554521742850323e-02 3.415182198425152e-03 5.270475919543138e-02 -1.057543126073759e-01 4.743209386431984e-01 1.438288661921929e-03
            4.743817134347221e-01 1.401531264804513e-03 5.272796202678634e-02 -1.057405821789234e-01 6.040457942658111e-02 7.391293458993788e-03 5.068104253338811e-02 5.004451846883044e-03
            5.269969355085793e-02 -1.057432682240988e-01 4.743489715112133e-01 1.414412290751615e-03 5.072784294635363e-02 5.072971521809432e-03 6.040630751422743e-02 7.363289279257103e-03
991675000.0000000000 6.673324418657428e-02 1.512349692443052e-02 7.348903576838520e-02 3.017958665885538e-02 4.423767844926192e-01 -1.657823784475702e-01 1.002950489982512e-02 -1.202448189498904e-01
            7.356399439532313e-02 3.012267520152958e-02 6.670611012941488e-02 1.507967523456128e-02 9.994560189509295e-03 -1.201870649320397e-01 4.423758655922301e-01 -1.658569083744988e-01
            4.424190862841352e-01 -1.657530858810310e-01 1.000696907111100e-02 -1.202750551808932e-01 7.242941886220032e-02 1.938973961555849e-02 6.294246528642061e-02 1.687242679598266e-02
            1.001626268619667e-02 -1.201615071876302e-01 4.424224218931650e-01 -1.657875315211385e-01 6.291748808541868e-02 1.688004039678210e-02 7.247415537863083e-02 1.940259532830000e-02
992507500.0000000000 8.320888930842904e-02 1.583770421200069e-02 8.872960257166360e-02 3.320251777992162e-02 3.541567450153089e-01 -3.093822955431877e-01 -3.535414787167750e-02 -1.169213843827686e-01
            8.868537583607392e-02 3.313043107733021e-02 8.323265274636585e-02 1.582599940988756e-02 -3.542806381783131e-02 -1.169546299129666e-01 3.541679607030901e-01 -3.093330372023090e-01
            3.542333573748999e-01 -3.093153222727569e-01 -3.548268661414142e-02 -1.169611775132808e-01 8.933280528593589e-02 2.096788039277728e-02 7.956245506485590e-02 1.667334738827505e-02
            -3.550327093325473e-02 -1.168616515658685e-01 3.542394999813671e-01 -3.093340992923405e-01 7.951727609944655e-02 1.665834427925213e-02 8.931804889974082e-02 2.101854138316205e-02
993340000.0000000000 9.657833526497978e-02 4.721231148914169e-03 1.014618602432455e-01 2.630833750553251e-02 2.227157899243097e-01 -4.121698816890002e-01 -7.593964768461212e-02 -9.701493946500948e-02
            1.013120861492085e-01 2.629760902539924e-02 9.663325139204806e-02 4.692018877439007e-03 -7.597039768709209e-02 -9.697145630530399e-02 2.227104488695484e-01 -4.122076007780328e-01
            2.227488471890199e-01 -4.122405606034077e-01 -7.590194182329339e-02 -9.692520355890130e-02 1.032514370881044e-01 1.187996086130713e-02 9.113027405013092e-02 4.684137459834046e-03
            -7.589114104735535e-02 -9.703984429116988e-02 2.227341069660423e-01 -4.121810740277515e-01 9.115172858056818e-02 4.730623131157178e-03 1.032085540620011e-01 1.183835594889981e-02
994172500.0000000000 9.969362005930191e-02 -1.357472346601955e-02 1.058023313115396e-01 1.408151102801748e-02 6.456146823977134e-02 -4.632485785107637e-01 -1.061384512669511e-01 -6.442888539686821e-02
            1.058303667655843e-01 1.412298952084790e-02 9.969242407724214e-02 -1.361273149106106e-02 -1.061800893489250e-01 -6.434123579454833e-02 6.465173816305857e-02 -4.632517243986333e-01
            6.463629579241605e-02 -4.633162998225259e-01 -1.061034064649559e-01 -6.439933732728133e-02 1.082262509229275e-01 -2.997988668446799e-03 9.096968052699356e-02 -1.290905228118646e-02
            -1.061964433440257e-01 -6.434362133009300e-02 6.451953636943432e-02 -4.632225161397753e-01 9.104089779631071e-02 -1.278159532789095e-02 1.082236994017901e-01 -3.024977066478722e-03
995005000.0000000000 9.026112843000982e-02 -3.082487912456846e-02 1.009446707305154e-01 3.689372672625639e-03 -1.016295500991566e-01 -4.566568020366034e-01 -1.236423978373952e-01 -2.377977674015086e-02
            1.009097772879727e-01 3.713588822991260e-03 9.025692093169814e-02 -3.077789796120834e-02 -1.235667992442125e-01 -2.371109549121374e-02 -1.016900429743052e-01 -4.565961717280154e-01
            -1.016570804499575e-01 -4.566474169723179e-01 -1.236168342808449e-01 -2.366777905850148e-02 1.033235314069003e-01 -1.671012140863456e-02 7.788143369216652e-02 -2.694053801338938e-02
            -1.236793004293769e-01 -2.372478382853064e-02 -1.016419850189032e-01 -4.566139015996972e-01 7.793660567380500e-02 -2.687517201095473e-02 1.033883052613212e-01 -1.669039455011748e-02
995837500.0000000000 7.152590649125104e-02 -3.928971143992611e-02 9.062037188124321e-02 1.054466117301631e-03 -2.560016997067114e-01 -3.920716122471544e-01 -1.268971843610675e-01 2.129849116584149e-02
            9.060527624197721e-02 1.047600517572355e-03 7.160118477487147e-02 -3.934818279052431e-02 -1.269961391499340e-01 2.126087554191730e-02 -2.560587519091192e-01 -3.920545861092334e-01
            -2.560228398048676e-01 -3.920749829375230e-01 -1.269312991734474e-01 2.120657548975502e-02 9.203886428984372e-02 -2.291610311008122e-02 5.679227846725970e-02 -2.951412022269188e-02
            -1.269185076392608e-01 2.121224088598442e-02 -2.559968841940730e-01 -3.920553224247622e-01 5.673122489004482e-02 -2.956007480685615e-02 9.207191338490886e-02 -2.293017488292050e-02
996670000.0000000000 5.099853638551962e-02 -3.492250676082857e-02 8.209283803625488e-02 8.141715649820443e-03 -3.782044364354889e-01 -2.761856699946890e-01 -1.144626003596405e-01 6.644091149225993e-02
            8.209124435939015e-02 8.081284700283811e-03 5.106513249577358e-02 -3.498765782652179e-02 -1.144238403800193e-01 6.651035887481103e-02 -3.781968388069220e-01 -2.763250113226894e-01
            -3.782706437904947e-01 -2.762779341009656e-01 -1.143731332085155e-01 6.653298488486963e-02 8.124539023212195e-02 -1.974721978659678e-02 3.663310157285229e-02 -1.735967106308469e-02
            -1.144346580657132e-01 6.642307140134478e-02 -3.782665902005219e-01 -2.763293757230634e-01 3.668626607797608e-02 -1.747466850494205e-02 8.125355296008981e-02 -1.975301100429944e-02
997502500.0000000000 3.733262915094165e-02 -1.979951060810818e-02 8.221355860109053e-02 2.116952340316803e-02 -4.508400818141997e-01 -1.238954269528358e-01 -8.524356008323622e-02 1.060846150449729e-01
            8.210821641084652e-02 2.115351921419578e-02 3.734109167425847e-02 -1.977136755822108e-02 -8.527151155439959e-02 1.061734790878983e-01 -4.509167327856040e-01 -1.239001954933511e-01
            -4.507516261426910e-01 -1.239880861306583e-01 -8.525585092584470e-02 1.061545288732681e-01 7.764883090134002e-02 -1.037226587941428e-02 2.727368122914461e-02 5.751109968191644e-03
            -8.522193867857959e-02 1.060914678806925e-01 -4.508176925094827e-01 -1.239171112919179e-01 2.728793796927111e-02 5.675236307854659e-03 7.771596959224553e-02 -1.036777285936041e-02
998335000.0000000000 3.539306637741760e-02 -8.028776322741982e-04 9.363285593029098e-02 3.217415687578015e-02 -4.637216249137890e-01 4.362058511355427e-02 -4.157576727378832e-02 1.331042248832147e-01
            9.364426381451718e-02 3.222064676724428e-02 3.542652068241745e-02 -8.206292033324811e-04 -4.158261293526464e-02 1.331310810816288e-01 -4.636600599605974e-01 4.367023314677177e-02
            -4.637082944866616e-01 4.357694922165568e-02 -4.162991254653287e-02 1.331273247599617e-01 8.362235152926041e-02 -1.957622570623192e-03 3.335712260152240e-02 3.066289391922948e-02
            -4.159929172267738e-02 1.330029780345680e-01 -4.637107378979484e-01 4.359306540552826e-02 3.328543149776919e-02 3.061374826983015e-02 8.361968547247765e-02 -1.983818039811661e-03
999167500.0000000000 4.417987983598791e-02 1.365268609059572e-02 1.125512965024999e-01 3.338212227175566e-02 -4.163862876212494e-01 2.030359785314813e-01 1.034310106007729e-02 1.414020347468709e-01
            1.125169423308519e-01 3.336310384574690e-02 4.416853384248208e-02 1.358906332104253e-02 1.022619391349252e-02 1.414211113761743e-01 -4.163899434796133e-01 2.030407258538737e-01
            -4.164205548749175e-01 2.030779245700829e-01 1.027887904630743e-02 1.413497416860226e-01 9.550521295806830e-02 -1.691647176655566e-03 5.229665233227837e-02 4.739686470192925e-02
            1.026353840989116e-02 1.413872171890051e-01 -4.164319508335748e-01 2.031503861450319e-01 5.232565998797389e-02 4.733659137077692e-02 9.554899263846919e-02 -1.716827775787700e-03
1000000000.0000000000 5.733965585483897e-02 1.841033532238316e-02 1.303913222997234e-01 2.145817820251898e-02 -3.172788897798744e-01 3.343750522786802e-01 6.147509975767537e-02 1.293784173028472e-01
            1.302967790777264e-01 2.143122378571639e-02 5.731400804110766e-02 1.847316680744930e-02 6.153212952983678e-02 1.293121457496558e-01 -3.172971046858115e-01 3.344376225646902e-01
            -3.173352891116573e-01 3.344772113386878e-01 6.157222020011840e-02 1.293718232037434e-01 1.057939432519480e-01 -1.158992231748598e-02 7.592106037502350e-02 5.009413874541355e-02
            6.147085502064787e-02 1.293343195167571e-01 -3.173268816787018e-01 3.343595882001010e-01 7.600582504361293e-02 4.998435459392806e-02 1.058388583677524e-01 -1.161890897441155e-02
